LAMMPS (30 Jul 2016)

# ----------------- Init Section -----------------

units real
processors 1 1 1
newton off
atom_style full
atom_modify sort 0 10.0

# ----------------- Atom Definition Section -----------------

read_data "MgMOF74-Pressure50000.data"
  orthogonal box = (0.4447 0.31425 -0.401771) to (26.5587 45.5442 27.2652)
  1 by 1 by 1 MPI processor grid
  reading atoms ...
  1307 atoms
  0 = max # of 1-2 neighbors
  0 = max # of 1-3 neighbors
  0 = max # of 1-4 neighbors
  1 = max # of special neighbors

# ----------------- Settings Section -----------------

#include "MgMOF74-Pressure50000.in.settings"

# ----------------- Run Section -----------------

# define groups
group GUEST type 1
11 atoms in group GUEST
group MOF type 2 3 4 5 6 7 8 9 10
1296 atoms in group MOF

# define computes
compute comT all com
compute comG GUEST com
compute comM MOF com

# settings
timestep           0.25
thermo             200
thermo_style       custom step temp epair emol etotal c_comT[1] c_comT[2] c_comT[3] c_comG[1] c_comG[2] c_comG[3] c_comM[1] c_comM[2] c_comM[3]
restart            2000000 sim.restart

# reset box to start at 0
change_box         all x delta $(-xlo) $(-xlo) y delta $(-ylo) $(-ylo) z delta $(-zlo) $(-zlo) remap units box
change_box         all x delta -0.44469999999999998419 $(-xlo) y delta $(-ylo) $(-ylo) z delta $(-zlo) $(-zlo) remap units box
change_box         all x delta -0.44469999999999998419 -0.44469999999999998419 y delta $(-ylo) $(-ylo) z delta $(-zlo) $(-zlo) remap units box
change_box         all x delta -0.44469999999999998419 -0.44469999999999998419 y delta -0.3142499999999999738 $(-ylo) z delta $(-zlo) $(-zlo) remap units box
change_box         all x delta -0.44469999999999998419 -0.44469999999999998419 y delta -0.3142499999999999738 -0.3142499999999999738 z delta $(-zlo) $(-zlo) remap units box
change_box         all x delta -0.44469999999999998419 -0.44469999999999998419 y delta -0.3142499999999999738 -0.3142499999999999738 z delta 0.40177099999999998925 $(-zlo) remap units box
change_box         all x delta -0.44469999999999998419 -0.44469999999999998419 y delta -0.3142499999999999738 -0.3142499999999999738 z delta 0.40177099999999998925 0.40177099999999998925 remap units box
  orthogonal box = (0 0.31425 -0.401771) to (26.114 45.5442 27.2652)
  orthogonal box = (0 0 -0.401771) to (26.114 45.23 27.2652)
  orthogonal box = (0 0 0) to (26.114 45.23 27.667)
write_data         data_changebox.data

# get rid of overlapping atoms
run                0
WARNING: No fixes defined, atoms won't move (../verlet.cpp:55)
Memory usage per processor = 0.478851 Mbytes
Step Temp E_pair E_mol TotEng comT[1] comT[2] comT[3] comG[1] comG[2] comG[3] comM[1] comM[2] comM[3] 
       0            0            0            0            0    12.683318    22.424053    14.189073    19.734246    34.636249    9.6241346    12.612127     22.30075    14.235163 
Loop time of 0 on 1 procs for 0 steps with 1307 atoms

0.0% CPU use with 1 MPI tasks x no OpenMP threads

MPI task timing breakdown:
Section |  min time  |  avg time  |  max time  |%varavg| %total
---------------------------------------------------------------
Pair    | 0          | 0          | 0          |   0.0 |  0.00
Bond    | 0          | 0          | 0          |   0.0 |  0.00
Neigh   | 0          | 0          | 0          |   0.0 |  0.00
Comm    | 0          | 0          | 0          |   0.0 |  0.00
Output  | 0          | 0          | 0          |   0.0 |  0.00
Modify  | 0          | 0          | 0          |   0.0 |  0.00
Other   |            | 0          |            |       |  0.00

Nlocal:    1307 ave 1307 max 1307 min
Histogram: 1 0 0 0 0 0 0 0 0 0
Nghost:    0 ave 0 max 0 min
Histogram: 1 0 0 0 0 0 0 0 0 0
Neighs:    0 ave 0 max 0 min
Histogram: 1 0 0 0 0 0 0 0 0 0

Total # of neighbors = 0
Ave neighs/atom = 0
Ave special neighs/atom = 0
Neighbor list builds = 0
Dangerous builds = 0
velocity           GUEST create 313.0 1738991
fix                1 GUEST nvt temp 313.0 313.0 10.0
compute            allTemp all temp
fix_modify         1 temp allTemp
pair_style         soft 5.0
pair_coeff         * * 0.0 5.0
kspace_style       none
variable           prefactor equal ramp(1.0,20.0)
fix                2 all adapt 1 pair soft a * * v_prefactor
dump               1 all custom 200 dump-1.lammpstrj element x y z
dump_modify        1 element 1 2 3 4 5 6 7 8 9 10
run                10000
Neighbor list info ...
  1 neighbor list requests
  update every 1 steps, delay 10 steps, check yes
  max neighbors/atom: 2000, page size: 100000
  master list distance cutoff = 7
  ghost atom cutoff = 7
  binsize = 3.5 -> bins = 8 13 8
Memory usage per processor = 6.73162 Mbytes
Step Temp E_pair E_mol TotEng comT[1] comT[2] comT[3] comG[1] comG[2] comG[3] comM[1] comM[2] comM[3] 
       0    2.3966309    8995.3087            0    9004.6386    12.683318    22.424053    14.189073    19.734246    34.636249    9.6241346    12.612127     22.30075    14.235163 
     200    25.575401    12409.101            0    12508.665    12.683321    22.424068    14.189064    19.734519    34.637695    9.6232812    12.612127     22.30075    14.235163 
     400    334.59036    15760.042            0    17062.582    12.683327    22.424325    14.189005    19.735123    34.663408    9.6174145    12.612127     22.30075    14.235163 
     600    342.32832    19173.744            0    20506.407    12.683394     22.42536    14.188988    19.741816    34.767024    9.6156634    12.612127     22.30075    14.235163 
     800    338.62347    22668.549            0    23986.789    12.683572    22.427495    14.188969    19.759625    34.980604    9.6137493    12.612127     22.30075    14.235163 
    1000    319.58009    26059.978            0    27304.083    12.683033    22.430592    14.188963    19.705717    35.290405    9.6131851    12.612127     22.30075    14.235163 
    1200    306.29321    29478.698            0    30671.079    12.681089     22.43332    14.189148    19.511261    35.563357      9.63168    12.612127     22.30075    14.235163 
    1400    298.47497    32785.169            0    33947.113    12.678483    22.434448    14.189566    19.250585    35.676148    9.6735219    12.612127     22.30075    14.235163 
    1600    299.52195    36199.089            0    37365.109    12.675783    22.437015    14.190162    18.980449    35.933006    9.7331358    12.612127     22.30075    14.235163 
    1800    310.21993    39768.452            0    40976.119    12.673085    22.442337    14.190823     18.71053    36.465358    9.7992179    12.612127     22.30075    14.235163 
    2000    317.07959    43135.456            0    44369.828    12.669783    22.448761    14.191923    18.380162    37.108101    9.9092676    12.612127     22.30075    14.235163 
    2200    322.41992    46466.011            0    47721.172     12.66651     22.45059    14.192835    18.052713    37.291046    10.000497    12.612127     22.30075    14.235163 
    2400    322.65535    49841.928            0    51098.005    12.663276    22.446716    14.193252    17.729161    36.903476    10.042288    12.612127     22.30075    14.235163 
    2600    314.52644    53193.859            0    54418.291    12.659968    22.441528    14.193377     17.39828    36.384455    10.054793    12.612127     22.30075    14.235163 
    2800     303.3348    56715.123            0    57895.986    12.659485    22.435407    14.193271    17.349994    35.772124    10.044142    12.612127     22.30075    14.235163 
    3000    298.35072    60242.524            0    61403.985    12.660491    22.428401     14.19284    17.450623    35.071169    10.001036    12.612127     22.30075    14.235163 
    3200    303.39346    63698.202            0    64879.294    12.661744    22.422751    14.192357    17.575964    34.506018     9.952676    12.612127     22.30075    14.235163 
    3400    320.35226    67038.546            0    68285.657    12.662911    22.421191    14.191585    17.692687    34.349885    9.8754777    12.612127     22.30075    14.235163 
    3600     319.5563    70121.784            0    71365.797    12.663762    22.423626    14.190123    17.777845     34.59353    9.7292468    12.612127     22.30075    14.235163 
    3800    309.09516    73322.803            0    74526.091     12.66702     22.42715    14.188043    18.103719    34.946111    9.5210922    12.612127     22.30075    14.235163 
    4000    306.73857    76968.641            0    78162.756     12.67289    22.431459    14.185936    18.691021    35.377145    9.3103665    12.612127     22.30075    14.235163 
    4200    317.05495    80718.169            0    81952.444     12.67811    22.434333    14.183484    19.213192    35.664676     9.065002    12.612127     22.30075    14.235163 
    4400    312.93729    84055.827            0    85274.072    12.683038    22.432715    14.180264    19.706252    35.502754    8.7428638    12.612127     22.30075    14.235163 
    4600    313.34254    87355.325            0    88575.148    12.688131    22.427402    14.177199    20.215741     34.97132    8.4362842    12.612127     22.30075    14.235163 
    4800    306.96399    90670.081            0    91865.073    12.693967    22.420326    14.175076    20.799614    34.263389    8.2238909    12.612127     22.30075    14.235163 
    5000    308.17434    94129.902            0    95329.605    12.698869    22.414708    14.174325    21.289961    33.701322     8.148772    12.612127     22.30075    14.235163 
    5200    307.55968    97519.943            0    98717.254    12.703831    22.413804    14.173878    21.786419    33.610887    8.1040098    12.612127     22.30075    14.235163 
    5400    316.67866    100891.42            0    102124.23    12.706451    22.417581    14.172915    22.048542    33.988713    8.0077138    12.612127     22.30075    14.235163 
    5600    303.72212    104179.91            0    105362.28    12.704632    22.427778    14.173406    21.866576    35.008895    8.0567897    12.612127     22.30075    14.235163 
    5800    315.29518    107729.68            0    108957.11    12.700816    22.442534     14.17431    21.484761    36.485077    8.1472937    12.612127     22.30075    14.235163 
    6000    316.91622    110900.59            0    112134.33    12.699392    22.452808    14.174282    21.342353     37.51291     8.144489    12.612127     22.30075    14.235163 
    6200    319.28194    114089.76            0     115332.7     12.70054    22.457477    14.175163    21.457174    37.980069    8.2325931    12.612127     22.30075    14.235163 
    6400    315.15352    117519.37            0    118746.25    12.702855    22.456005    14.176288    21.688797    37.832812    8.3451335    12.612127     22.30075    14.235163 
    6600      317.008       121219            0    122453.09    12.700051    22.446973    14.176668    21.408216    36.929244    8.3831571    12.612127     22.30075    14.235163 
    6800    310.68609    124388.58            0    125598.06    12.692091    22.438199    14.176414    20.611919    36.051459    8.3577514    12.612127     22.30075    14.235163 
    7000    301.17206    127699.86            0    128872.31     12.67892    22.437248    14.176112      19.2943    35.956253    8.3275698    12.612127     22.30075    14.235163 
    7200    317.66684     131236.2            0    132472.86    12.666708    22.446125     14.17548    18.072509    36.844381    8.2642811    12.612127     22.30075    14.235163 
    7400    301.95254    134570.34            0    135745.82    12.667394     22.45882    14.173701    18.141144    38.114414    8.0863146    12.612127     22.30075    14.235163 
    7600     319.6393    138067.22            0    139311.56    12.676619    22.468883    14.171459    19.064079    39.121131    7.8620348    12.612127     22.30075    14.235163 
    7800    319.46708    141273.91            0    142517.57     12.69172    22.474906    14.169001    20.574843    39.723657    7.6161608    12.612127     22.30075    14.235163 
    8000    301.00508    144612.58            0    145784.38    12.700743    22.471018    14.167198    21.477514    39.334678    7.4357201    12.612127     22.30075    14.235163 
    8200    300.98156    148202.35            0    149374.06    12.699936    22.460732    14.164712    21.396747    38.305683    7.1870324    12.612127     22.30075    14.235163 
    8400    321.83114    151876.24            0     153129.1    12.691553    22.455579    14.161802    20.558077    37.790116    6.8959729    12.612127     22.30075    14.235163 
    8600    320.84924    155083.05            0    156332.09      12.6858    22.461189    14.160317    19.982534     38.35135    6.7473714    12.612127     22.30075    14.235163 
    8800    312.81805    157892.64            0    159110.42    12.689519    22.476242    14.159235     20.35456    39.857328    6.6391032    12.612127     22.30075    14.235163 
    9000    305.89087    161558.42            0    162749.23    12.693263    22.488334    14.158193    20.729196    41.066987    6.5348818    12.612127     22.30075    14.235163 
    9200    290.85444    165192.18            0    166324.46    12.697072    22.491563    14.157989    21.110266    41.390067    6.5144675    12.612127     22.30075    14.235163 
    9400     327.3011    168427.59            0    169701.75    12.695681    22.481881    14.158525    20.971068    40.421432    6.5680836    12.612127     22.30075    14.235163 
    9600    311.08671    171983.96            0       173195    12.693449    22.470215    14.158515    20.747819    39.254376    6.5670912    12.612127     22.30075    14.235163 
    9800    324.68293    175078.52            0    176342.49    12.695004    22.470269    14.159269     20.90336    39.259808    6.6425523    12.612127     22.30075    14.235163 
   10000    315.90098    178265.12            0     179494.9    12.696386    22.479309    14.159071    21.041613    40.164137    6.6227669    12.612127     22.30075    14.235163 
Loop time of 19.1197 on 1 procs for 10000 steps with 1307 atoms

Performance: 11.297 ns/day, 2.124 hours/ns, 523.022 timesteps/s
99.4% CPU use with 1 MPI tasks x no OpenMP threads

MPI task timing breakdown:
Section |  min time  |  avg time  |  max time  |%varavg| %total
---------------------------------------------------------------
Pair    | 17.555     | 17.555     | 17.555     |   0.0 | 91.82
Bond    | 0.0020881  | 0.0020881  | 0.0020881  |   0.0 |  0.01
Neigh   | 1.0417     | 1.0417     | 1.0417     |   0.0 |  5.45
Comm    | 0.1091     | 0.1091     | 0.1091     |   0.0 |  0.57
Output  | 0.13604    | 0.13604    | 0.13604    |   0.0 |  0.71
Modify  | 0.19966    | 0.19966    | 0.19966    |   0.0 |  1.04
Other   |            | 0.07579    |            |       |  0.40

Nlocal:    1307 ave 1307 max 1307 min
Histogram: 1 0 0 0 0 0 0 0 0 0
Nghost:    2726 ave 2726 max 2726 min
Histogram: 1 0 0 0 0 0 0 0 0 0
Neighs:    53379 ave 53379 max 53379 min
Histogram: 1 0 0 0 0 0 0 0 0 0

Total # of neighbors = 53379
Ave neighs/atom = 40.8409
Ave special neighs/atom = 0
Neighbor list builds = 279
Dangerous builds = 0
undump             1
unfix              2
write_data         data_overlap.data

# reset force field parameters
# Set 1-2, 1-3, and 1-4 pairwise interactions to zero; not needed if no bonded terms
#special_bonds      lj/coul 0.0 0.0 0.0
#kspace_style       pppm/disp 1.0e-6
neigh_modify       delay 0 every 1 check yes
neigh_modify       exclude molecule MOF
neigh_modify       exclude molecule GUEST
include "MgMOF74-Pressure50000.in.settings"
# UFF parameters for all atoms not defined by force field
pair_style         hybrid lj/cut 12.8 buck 12.8
pair_modify        mix arithmetic shift yes
pair_coeff         7 7 lj/cut 0.111 2.691
pair_coeff         2 2 lj/cut 0.105 3.431
pair_coeff         3 3 lj/cut 0.105 3.431
pair_coeff         4 4 lj/cut 0.105 3.431
pair_coeff         5 5 lj/cut 0.105 3.431
pair_coeff         6 6 lj/cut 0.044 2.571
pair_coeff         8 8 lj/cut 0.060 3.118
pair_coeff         9 9 lj/cut 0.060 3.118
pair_coeff         10 10 lj/cut 0.060 3.118
pair_coeff         1 1 lj/cut 0.294 3.730
# Lennard-Jones parameters from force field
pair_coeff         1 6 lj/cut 0.114 3.15
# Buckingham parameters from force field
pair_coeff         1 7 buck 503735.46 0.2035 869.75957
pair_coeff         1 8 buck 36618.413 0.3373 943.43844
pair_coeff         1 9 buck 40336.705 0.3063 943.43844
pair_coeff         1 10 buck 20010.424 0.3584 943.43844
pair_coeff         1 2 buck 151480.54 0.2503 1627.7890
pair_coeff         1 3 buck 70571.228 0.3049 1627.7890
pair_coeff         1 4 buck 460219.42 0.2288 1627.7890
pair_coeff         1 5 buck 5085.8640 0.4320 1627.7890

# equilibration
thermo_style       custom step temp epair evdwl ecoul elong etail emol pe ke etotal
#velocity           GUEST create 313.0 1738
#run                0
#velocity           GUEST scale 313.0
dump               2 all custom 200 dump-2.lammpstrj element x y z
dump_modify        2 element 1 2 3 4 5 6 7 8 9 10
run                10000000
Neighbor list info ...
  3 neighbor list requests
  update every 1 steps, delay 0 steps, check yes
  max neighbors/atom: 2000, page size: 100000
  master list distance cutoff = 14.8
  ghost atom cutoff = 14.8
  binsize = 7.4 -> bins = 4 7 4
Memory usage per processor = 7.08614 Mbytes
Step Temp E_pair E_vdwl E_coul E_long E_tail E_mol PotEng KinEng TotEng 
   10000    315.90098   -20.780939   -20.780939            0            0            0            0   -20.780939    1229.7829     1209.002 
   10200    286.12369    232.22278    232.22278            0            0            0            0    232.22278    1113.8618    1346.0846 
   10400     327.5918    20.617266    20.617266            0            0            0            0    20.617266    1275.2945    1295.9118 
   10600    310.74822     -16.9857     -16.9857            0            0            0            0     -16.9857    1209.7235    1192.7378 
   10800    320.39576   -19.651554   -19.651554            0            0            0            0   -19.651554    1247.2808    1227.6293 
   11000     314.7484    37.980516    37.980516            0            0            0            0    37.980516     1225.296    1263.2765 
   11200    336.38877     80.07966     80.07966            0            0            0            0     80.07966    1309.5406    1389.6202 
   11400     328.8813    8.1453749    8.1453749            0            0            0            0    8.1453749    1280.3145    1288.4599 
   11600    348.04444    89.580933    89.580933            0            0            0            0    89.580933    1354.9154    1444.4963 
   11800     332.3829    70.988439    70.988439            0            0            0            0    70.988439     1293.946    1364.9344 
   12000    306.54803    43.045005    43.045005            0            0            0            0    43.045005    1193.3725    1236.4175 
   12200    296.33839    220.06191    220.06191            0            0            0            0    220.06191     1153.627    1373.6889 
   12400    296.00569   -19.489836   -19.489836            0            0            0            0   -19.489836    1152.3318    1132.8419 
   12600    314.81545    158.93743    158.93743            0            0            0            0    158.93743     1225.557    1384.4944 
   12800    330.23907   -11.129431   -11.129431            0            0            0            0   -11.129431    1285.6002    1274.4708 
   13000    312.71535    20.744636    20.744636            0            0            0            0    20.744636    1217.3815    1238.1261 
   13200    307.19536    79.676756    79.676756            0            0            0            0    79.676756    1195.8925    1275.5692 
   13400    304.56059   -24.579742   -24.579742            0            0            0            0   -24.579742    1185.6355    1161.0557 
   13600    314.48018    38.841536    38.841536            0            0            0            0    38.841536    1224.2518    1263.0933 
   13800     329.3032    14.989026    14.989026            0            0            0            0    14.989026    1281.9569    1296.9459 
   14000    305.12852    142.95002    142.95002            0            0            0            0    142.95002    1187.8464    1330.7964 
   14200    287.02883    86.058952    86.058952            0            0            0            0    86.058952    1117.3854    1203.4444 
   14400    331.66921    68.787563    68.787563            0            0            0            0    68.787563    1291.1677    1359.9552 
   14600    307.18811    52.635763    52.635763            0            0            0            0    52.635763    1195.8643       1248.5 
   14800    299.14543    10.570488    10.570488            0            0            0            0    10.570488    1164.5546    1175.1251 
   15000    321.86498    255.32755    255.32755            0            0            0            0    255.32755    1253.0004    1508.3279 
   15200    274.99922    171.68793    171.68793            0            0            0            0    171.68793    1070.5549    1242.2428 
   15400    302.50926    96.785773    96.785773            0            0            0            0    96.785773    1177.6498    1274.4355 
   15600    325.61058    150.97944    150.97944            0            0            0            0    150.97944    1267.5818    1418.5612 
   15800    308.50988   -4.7559199   -4.7559199            0            0            0            0   -4.7559199    1201.0098    1196.2539 
   16000    302.67734   -5.2030797   -5.2030797            0            0            0            0   -5.2030797    1178.3041     1173.101 
   16200    286.36645    137.17253    137.17253            0            0            0            0    137.17253    1114.8068    1251.9794 
   16400    331.14962    18.504971    18.504971            0            0            0            0    18.504971    1289.1449    1307.6499 
   16600    318.07586   -21.201159   -21.201159            0            0            0            0   -21.201159    1238.2496    1217.0484 
   16800    307.67911   -9.8692581   -9.8692581            0            0            0            0   -9.8692581    1197.7757    1187.9064 
   17000    270.19364    164.59688    164.59688            0            0            0            0    164.59688    1051.8471     1216.444 
   17200    323.95732    185.40526    185.40526            0            0            0            0    185.40526    1261.1457     1446.551 
   17400    310.61838    46.824735    46.824735            0            0            0            0    46.824735    1209.2181    1256.0428 
   17600    327.29451    56.020718    56.020718            0            0            0            0    56.020718    1274.1372    1330.1579 
   17800    327.53887   0.90867144   0.90867144            0            0            0            0   0.90867144    1275.0885    1275.9972 
   18000    334.66452    63.861275    63.861275            0            0            0            0    63.861275    1302.8282    1366.6895 
   18200    309.95967   -14.704118   -14.704118            0            0            0            0   -14.704118    1206.6538    1191.9496 
   18400    321.16886    2.0448171    2.0448171            0            0            0            0    2.0448171    1250.2904    1252.3353 
   18600    337.05575    14.191992    14.191992            0            0            0            0    14.191992    1312.1371    1326.3291 
   18800    317.39276    32.222674    32.222674            0            0            0            0    32.222674    1235.5903     1267.813 
   19000    323.41592   -23.218853   -23.218853            0            0            0            0   -23.218853    1259.0381    1235.8192 
   19200    347.96006    82.914934    82.914934            0            0            0            0    82.914934    1354.5869    1437.5018 
   19400    320.04222    38.013173    38.013173            0            0            0            0    38.013173    1245.9045    1283.9177 
   19600    316.38574     59.00707     59.00707            0            0            0            0     59.00707    1231.6701    1290.6771 
   19800    315.54878   -11.553562   -11.553562            0            0            0            0   -11.553562    1228.4118    1216.8582 
   20000    291.07635    47.548058    47.548058            0            0            0            0    47.548058    1133.1422    1180.6902 
   20200    329.69116    74.664957    74.664957            0            0            0            0    74.664957    1283.4672    1358.1322 
   20400    311.66748    30.028243    30.028243            0            0            0            0    30.028243    1213.3022    1243.3304 
   20600    318.57364   -9.0183804   -9.0183804            0            0            0            0   -9.0183804    1240.1874     1231.169 
   20800     330.5567    97.778073    97.778073            0            0            0            0    97.778073    1286.8367    1384.6148 
   21000    325.85475    14.582932    14.582932            0            0            0            0    14.582932    1268.5323    1283.1152 
   21200    301.13719    88.042273    88.042273            0            0            0            0    88.042273    1172.3084    1260.3507 
   21400    337.57952    142.92865    142.92865            0            0            0            0    142.92865    1314.1761    1457.1048 
   21600    318.75415    66.743133    66.743133            0            0            0            0    66.743133    1240.8901    1307.6332 
   21800    342.99394    13.127159    13.127159            0            0            0            0    13.127159    1335.2541    1348.3813 
   22000    308.08117    9.1872014    9.1872014            0            0            0            0    9.1872014    1199.3409    1208.5281 
   22200    340.56236    51.406416    51.406416            0            0            0            0    51.406416    1325.7881    1377.1946 
   22400    304.90814    101.47918    101.47918            0            0            0            0    101.47918    1186.9885    1288.4676 
   22600     304.9964     6.835296     6.835296            0            0            0            0     6.835296     1187.332    1194.1673 
   22800    303.24898    25.515737    25.515737            0            0            0            0    25.515737    1180.5295    1206.0452 
   23000     273.2184    232.34625    232.34625            0            0            0            0    232.34625    1063.6223    1295.9685 
   23200    319.40955    49.017737    49.017737            0            0            0            0    49.017737    1243.4415    1292.4593 
   23400    322.50236    26.506465    26.506465            0            0            0            0    26.506465    1255.4817    1281.9881 
   23600    300.83111    118.65368    118.65368            0            0            0            0    118.65368    1171.1168    1289.7705 
   23800    277.66236    185.07723    185.07723            0            0            0            0    185.07723    1080.9223    1265.9996 
   24000    323.14743    9.1755166    9.1755166            0            0            0            0    9.1755166    1257.9929    1267.1684 
   24200    308.38006    20.998178    20.998178            0            0            0            0    20.998178    1200.5044    1221.5026 
   24400    298.46936     125.5249     125.5249            0            0            0            0     125.5249    1161.9227    1287.4476 
   24600    341.43455    33.308895    33.308895            0            0            0            0    33.308895    1329.1835    1362.4924 
   24800    302.91723    107.05224    107.05224            0            0            0            0    107.05224     1179.238    1286.2902 
   25000    299.33598    108.51795    108.51795            0            0            0            0    108.51795    1165.2964    1273.8143 
   25200     316.2195    113.98649    113.98649            0            0            0            0    113.98649    1231.0229    1345.0094 
   25400    282.95608    236.24291    236.24291            0            0            0            0    236.24291    1101.5305    1337.7734 
   25600     300.2109   -12.830107   -12.830107            0            0            0            0   -12.830107    1168.7024    1155.8723 
   25800    310.32775    85.798631    85.798631            0            0            0            0    85.798631    1208.0867    1293.8853 
   26000     323.7182    29.552218    29.552218            0            0            0            0    29.552218    1260.2148    1289.7671 
   26200    291.97278    92.016985    92.016985            0            0            0            0    92.016985    1136.6319    1228.6489 
   26400    316.26025    33.600775    33.600775            0            0            0            0    33.600775    1231.1815    1264.7823 
   26600    304.92098    30.515824    30.515824            0            0            0            0    30.515824    1187.0385    1217.5543 
   26800    263.63165    235.05561    235.05561            0            0            0            0    235.05561    1026.3016    1261.3572 
   27000    264.44582    201.10298    201.10298            0            0            0            0    201.10298    1029.4711    1230.5741 
   27200     296.9331   -4.4515226   -4.4515226            0            0            0            0   -4.4515226    1155.9421    1151.4906 
   27400    312.37766    205.75538    205.75538            0            0            0            0    205.75538    1216.0668    1421.8222 
   27600    319.40684    62.423338    62.423338            0            0            0            0    62.423338     1243.431    1305.8544 
   27800    317.33611    3.7654347    3.7654347            0            0            0            0    3.7654347    1235.3698    1239.1352 
   28000    310.24467    39.423604    39.423604            0            0            0            0    39.423604    1207.7632    1247.1868 
   28200    277.22471    189.96028    189.96028            0            0            0            0    189.96028    1079.2186    1269.1789 
   28400     312.5913     6.063639     6.063639            0            0            0            0     6.063639    1216.8985    1222.9622 
   28600     326.0545    123.69632    123.69632            0            0            0            0    123.69632    1269.3099    1393.0062 
   28800    309.92541    41.569186    41.569186            0            0            0            0    41.569186    1206.5204    1248.0896 
   29000    334.34124   -20.213328   -20.213328            0            0            0            0   -20.213328    1301.5697    1281.3564 
   29200    310.37125    84.384899    84.384899            0            0            0            0    84.384899     1208.256    1292.6409 
   29400    296.39521    78.952967    78.952967            0            0            0            0    78.952967    1153.8481    1232.8011 
   29600    292.89172    149.96849    149.96849            0            0            0            0    149.96849    1140.2093    1290.1778 
   29800     330.4803    43.757984    43.757984            0            0            0            0    43.757984    1286.5393    1330.2973 
   30000    318.46941    73.265086    73.265086            0            0            0            0    73.265086    1239.7816    1313.0467 
   30200    322.51461   -1.6864646   -1.6864646            0            0            0            0   -1.6864646    1255.5294    1253.8429 
   30400    323.66216   -2.4035775   -2.4035775            0            0            0            0   -2.4035775    1259.9967    1257.5931 
   30600    323.86818    25.752838    25.752838            0            0            0            0    25.752838    1260.7987    1286.5516 
   30800    276.83772    297.70301    297.70301            0            0            0            0    297.70301    1077.7121    1375.4151 
   31000    314.68468    139.75362    139.75362            0            0            0            0    139.75362    1225.0479    1364.8015 
   31200    295.90022    129.12346    129.12346            0            0            0            0    129.12346    1151.9212    1281.0447 
   31400    324.77969   -5.2794034   -5.2794034            0            0            0            0   -5.2794034    1264.3472    1259.0678 
   31600    300.59438    117.48173    117.48173            0            0            0            0    117.48173    1170.1953     1287.677 
   31800    297.01022    56.613851    56.613851            0            0            0            0    56.613851    1156.2424    1212.8562 
   32000    320.01531    107.82367    107.82367            0            0            0            0    107.82367    1245.7997    1353.6234 
   32200    314.56246    51.511801    51.511801            0            0            0            0    51.511801    1224.5721    1276.0839 
   32400    306.38117    131.63113    131.63113            0            0            0            0    131.63113    1192.7229     1324.354 
   32600    293.02356    70.357822    70.357822            0            0            0            0    70.357822    1140.7225    1211.0803 
   32800    279.68639    204.51195    204.51195            0            0            0            0    204.51195    1088.8018    1293.3137 
   33000    306.06384    55.364729    55.364729            0            0            0            0    55.364729    1191.4875    1246.8522 
   33200    309.13339    27.525441    27.525441            0            0            0            0    27.525441    1203.4371    1230.9626 
   33400    312.01348    1.6637778    1.6637778            0            0            0            0    1.6637778    1214.6491    1216.3129 
   33600    312.48817    84.966719    84.966719            0            0            0            0    84.966719    1216.4971    1301.4638 
   33800    303.06095    32.548669    32.548669            0            0            0            0    32.548669    1179.7975    1212.3461 
   34000    284.72248    115.17207    115.17207            0            0            0            0    115.17207    1108.4069     1223.579 
   34200    298.89562     37.07332     37.07332            0            0            0            0     37.07332    1163.5821    1200.6554 
   34400    300.31704    130.06428    130.06428            0            0            0            0    130.06428    1169.1156    1299.1799 
   34600    334.35122    3.8178476    3.8178476            0            0            0            0    3.8178476    1301.6086    1305.4264 
   34800    307.99096    5.7990923    5.7990923            0            0            0            0    5.7990923    1198.9897    1204.7888 
   35000    312.00834    126.34394    126.34394            0            0            0            0    126.34394    1214.6291     1340.973 
   35200    321.33967    62.350293    62.350293            0            0            0            0    62.350293    1250.9554    1313.3057 
   35400    317.25979   -19.128521   -19.128521            0            0            0            0   -19.128521    1235.0727    1215.9442 
   35600    324.15807    154.38421    154.38421            0            0            0            0    154.38421    1261.9272    1416.3115 
   35800    322.21665    43.721626    43.721626            0            0            0            0    43.721626    1254.3694     1298.091 
   36000    347.46746   -8.3519925   -8.3519925            0            0            0            0   -8.3519925    1352.6692    1344.3172 
   36200    264.69445    300.26795    300.26795            0            0            0            0    300.26795     1030.439     1330.707 
   36400     307.4964    17.087285    17.087285            0            0            0            0    17.087285    1197.0644    1214.1517 
   36600    308.03617    83.442947    83.442947            0            0            0            0    83.442947    1199.1657    1282.6087 
   36800    322.12259    87.158759    87.158759            0            0            0            0    87.158759    1254.0033     1341.162 
   37000    290.49157    75.414787    75.414787            0            0            0            0    75.414787    1130.8657    1206.2804 
   37200    306.54317   -24.002727   -24.002727            0            0            0            0   -24.002727    1193.3535    1169.3508 
   37400    321.51873     47.40397     47.40397            0            0            0            0     47.40397    1251.6525    1299.0564 
   37600    309.23596    87.899405    87.899405            0            0            0            0    87.899405    1203.8364    1291.7358 
   37800    305.91842   -12.818026   -12.818026            0            0            0            0   -12.818026    1190.9214    1178.1034 
   38000    341.21579     171.2986     171.2986            0            0            0            0     171.2986    1328.3319    1499.6305 
   38200    300.67693     41.78331     41.78331            0            0            0            0     41.78331    1170.5166    1212.2999 
   38400    321.70042    38.320554    38.320554            0            0            0            0    38.320554    1252.3598    1290.6803 
   38600    282.00501    278.47425    278.47425            0            0            0            0    278.47425     1097.828    1376.3022 
   38800    307.92157   -19.476892   -19.476892            0            0            0            0   -19.476892    1198.7196    1179.2427 
   39000    314.01094    43.935785    43.935785            0            0            0            0    43.935785    1222.4251    1266.3609 
   39200    325.30169    160.79482    160.79482            0            0            0            0    160.79482    1266.3793    1427.1741 
   39400    314.27763   -22.236192   -22.236192            0            0            0            0   -22.236192    1223.4633    1201.2271 
   39600    306.25141    54.467338    54.467338            0            0            0            0    54.467338    1192.2177    1246.6851 
   39800    286.00981     147.3937     147.3937            0            0            0            0     147.3937    1113.4184    1260.8121 
   40000    288.78553    80.585311    80.585311            0            0            0            0    80.585311    1124.2241    1204.8094 
   40200    282.51813    147.45517    147.45517            0            0            0            0    147.45517    1099.8256    1247.2807 
   40400    307.39468    2.4093827    2.4093827            0            0            0            0    2.4093827    1196.6684    1199.0778 
   40600    293.09879    73.388397    73.388397            0            0            0            0    73.388397    1141.0154    1214.4038 
   40800    302.86189    15.447561    15.447561            0            0            0            0    15.447561    1179.0225    1194.4701 
   41000    318.55272    57.928967    57.928967            0            0            0            0    57.928967     1240.106    1298.0349 
   41200    302.00764   -17.737597   -17.737597            0            0            0            0   -17.737597     1175.697    1157.9594 
   41400    325.71894   -16.853159   -16.853159            0            0            0            0   -16.853159    1268.0036    1251.1505 
   41600    298.55147    109.67962    109.67962            0            0            0            0    109.67962    1162.2423    1271.9219 
   41800    340.07985    96.094772    96.094772            0            0            0            0    96.094772    1323.9098    1420.0045 
   42000    309.22045    42.771134    42.771134            0            0            0            0    42.771134     1203.776    1246.5471 
   42200    288.73439    93.221494    93.221494            0            0            0            0    93.221494    1124.0251    1217.2465 
   42400    334.55172     21.33436     21.33436            0            0            0            0     21.33436    1302.3891    1323.7234 
   42600    314.36752    99.274069    99.274069            0            0            0            0    99.274069    1223.8132    1323.0873 
   42800    269.00127    274.74043    274.74043            0            0            0            0    274.74043    1047.2052    1321.9457 
   43000     302.9421    36.895679    36.895679            0            0            0            0    36.895679    1179.3348    1216.2305 
   43200    309.60992    108.07631    108.07631            0            0            0            0    108.07631    1205.2922    1313.3685 
   43400    296.39203    179.55683    179.55683            0            0            0            0    179.55683    1153.8358    1333.3926 
   43600     323.9224    22.439566    22.439566            0            0            0            0    22.439566    1261.0098    1283.4494 
   43800    322.49649    178.99917    178.99917            0            0            0            0    178.99917    1255.4588     1434.458 
   44000    293.03122    100.62974    100.62974            0            0            0            0    100.62974    1140.7523    1241.3821 
   44200    309.48147     135.5308     135.5308            0            0            0            0     135.5308    1204.7922     1340.323 
   44400    296.58114    97.592562    97.592562            0            0            0            0    97.592562     1154.572    1252.1645 
   44600    301.48859    117.83157    117.83157            0            0            0            0    117.83157    1173.6764    1291.5079 
   44800    322.37489    5.5977247    5.5977247            0            0            0            0    5.5977247    1254.9854    1260.5832 
   45000    294.70455    43.530752    43.530752            0            0            0            0    43.530752    1147.2665    1190.7973 
   45200    338.73527   -8.2103487   -8.2103487            0            0            0            0   -8.2103487    1318.6754     1310.465 
   45400    309.54662    76.450937    76.450937            0            0            0            0    76.450937    1205.0458    1281.4967 
   45600    313.88839   -14.555308   -14.555308            0            0            0            0   -14.555308     1221.948    1207.3927 
   45800    295.61413    10.758299    10.758299            0            0            0            0    10.758299    1150.8075    1161.5658 
   46000    332.34886    34.754424    34.754424            0            0            0            0    34.754424    1293.8135    1328.5679 
   46200    326.44909    72.535797    72.535797            0            0            0            0    72.535797     1270.846    1343.3818 
   46400    302.88757    24.299341    24.299341            0            0            0            0    24.299341    1179.1225    1203.4219 
   46600    341.37306    56.857349    56.857349            0            0            0            0    56.857349    1328.9441    1385.8015 
   46800     322.5936    -7.114974    -7.114974            0            0            0            0    -7.114974    1255.8369    1248.7219 
   47000    284.03458    132.69596    132.69596            0            0            0            0    132.69596     1105.729     1238.425 
   47200    287.98059    146.36513    146.36513            0            0            0            0    146.36513    1121.0905    1267.4557 
   47400    305.66779    154.35496    154.35496            0            0            0            0    154.35496    1189.9457    1344.3007 
   47600    320.54017    4.1457663    4.1457663            0            0            0            0    4.1457663     1247.843    1251.9888 
   47800    328.87166    98.061683    98.061683            0            0            0            0    98.061683     1280.277    1378.3387 
   48000    257.17048     306.6969     306.6969            0            0            0            0     306.6969    1001.1487    1307.8456 
   48200    326.31332    91.238717    91.238717            0            0            0            0    91.238717    1270.3175    1361.5562 
   48400    322.84558   -12.827074   -12.827074            0            0            0            0   -12.827074    1256.8178    1243.9907 
   48600    290.62001    127.41718    127.41718            0            0            0            0    127.41718    1131.3656    1258.7828 
   48800    342.54428    141.65361    141.65361            0            0            0            0    141.65361    1333.5036    1475.1572 
   49000    322.04636   -19.479441   -19.479441            0            0            0            0   -19.479441    1253.7065    1234.2271 
   49200    313.09991     53.95849     53.95849            0            0            0            0     53.95849    1218.8785     1272.837 
   49400     314.7477    155.25327    155.25327            0            0            0            0    155.25327    1225.2932    1380.5465 
   49600    299.45011    76.216685    76.216685            0            0            0            0    76.216685    1165.7407    1241.9574 
   49800    298.96193    129.68288    129.68288            0            0            0            0    129.68288    1163.8403    1293.5231 
   50000    332.72973    2.3002938    2.3002938            0            0            0            0    2.3002938    1295.2962    1297.5965 
   50200    323.65974    111.57674    111.57674            0            0            0            0    111.57674    1259.9873     1371.564 
   50400     307.0842   -7.2742781   -7.2742781            0            0            0            0   -7.2742781    1195.4597    1188.1854 
   50600    333.53409   -15.748337   -15.748337            0            0            0            0   -15.748337    1298.4275    1282.6792 
   50800    315.21116    86.272778    86.272778            0            0            0            0    86.272778    1227.0975    1313.3702 
   51000    310.27347     4.412147     4.412147            0            0            0            0     4.412147    1207.8754    1212.2875 
   51200    308.76876    70.410059    70.410059            0            0            0            0    70.410059    1202.0176    1272.4277 
   51400     308.3932    117.93682    117.93682            0            0            0            0    117.93682    1200.5556    1318.4924 
   51600    324.93865    8.6557832    8.6557832            0            0            0            0    8.6557832     1264.966    1273.6218 
   51800    312.27615     99.02008     99.02008            0            0            0            0     99.02008    1215.6717    1314.6917 
   52000    308.45898   -13.593535   -13.593535            0            0            0            0   -13.593535    1200.8117    1187.2181 
   52200    318.12712    117.21662    117.21662            0            0            0            0    117.21662    1238.4491    1355.6658 
   52400    307.54139     35.89294     35.89294            0            0            0            0     35.89294    1197.2395    1233.1325 
   52600    311.47665   -22.442769   -22.442769            0            0            0            0   -22.442769    1212.5593    1190.1165 
   52800    315.22295     222.5661     222.5661            0            0            0            0     222.5661    1227.1434    1449.7095 
   53000    283.67194    121.64703    121.64703            0            0            0            0    121.64703    1104.3173    1225.9643 
   53200    314.64336    154.90044    154.90044            0            0            0            0    154.90044    1224.8871    1379.7875 
   53400    319.75145    24.414296    24.414296            0            0            0            0    24.414296    1244.7725    1269.1868 
   53600    306.45221    83.504732    83.504732            0            0            0            0    83.504732    1192.9994    1276.5042 
   53800    322.75671    54.174849    54.174849            0            0            0            0    54.174849    1256.4718    1310.6467 
   54000    323.83368    15.843591    15.843591            0            0            0            0    15.843591    1260.6644     1276.508 
   54200    299.86158    109.27076    109.27076            0            0            0            0    109.27076    1167.3425    1276.6133 
   54400    302.81009   -3.7508801   -3.7508801            0            0            0            0   -3.7508801    1178.8209      1175.07 
   54600    297.75609     116.9024     116.9024            0            0            0            0     116.9024     1159.146    1276.0484 
   54800    303.76393    22.063744    22.063744            0            0            0            0    22.063744    1182.5341    1204.5979 
   55000    314.28973    72.763776    72.763776            0            0            0            0    72.763776    1223.5104    1296.2742 
   55200    308.33645     77.07628     77.07628            0            0            0            0     77.07628    1200.3347    1277.4109 
   55400    301.25376    8.9673836    8.9673836            0            0            0            0    8.9673836    1172.7622    1181.7296 
   55600    305.58554   0.10076282   0.10076282            0            0            0            0   0.10076282    1189.6255    1189.7263 
   55800    286.41967    146.63461    146.63461            0            0            0            0    146.63461     1115.014    1261.6486 
   56000    306.59021    134.54877    134.54877            0            0            0            0    134.54877    1193.5367    1328.0854 
   56200    302.87434    74.767689    74.767689            0            0            0            0    74.767689     1179.071    1253.8387 
   56400    299.66832    24.918219    24.918219            0            0            0            0    24.918219    1166.5902    1191.5084 
   56600    297.70455    171.28248    171.28248            0            0            0            0    171.28248    1158.9454    1330.2278 
   56800    296.23304    -2.770931    -2.770931            0            0            0            0    -2.770931    1153.2168    1150.4459 
   57000    293.76746    15.076047    15.076047            0            0            0            0    15.076047    1143.6185    1158.6945 
   57200    311.00815    13.105172    13.105172            0            0            0            0    13.105172    1210.7354    1223.8406 
   57400    290.30162    191.70878    191.70878            0            0            0            0    191.70878    1130.1262     1321.835 
   57600    291.40376    148.86438    148.86438            0            0            0            0    148.86438    1134.4167    1283.2811 
   57800    302.42807    2.4512157    2.4512157            0            0            0            0    2.4512157    1177.3337    1179.7849 
   58000    318.18013    3.5225301    3.5225301            0            0            0            0    3.5225301    1238.6555     1242.178 
   58200    326.28712    54.331261    54.331261            0            0            0            0    54.331261    1270.2155    1324.5468 
   58400    294.64545    82.586229    82.586229            0            0            0            0    82.586229    1147.0365    1229.6227 
   58600    324.77434    65.087248    65.087248            0            0            0            0    65.087248    1264.3263    1329.4136 
   58800    311.39072    43.748035    43.748035            0            0            0            0    43.748035    1212.2247    1255.9728 
   59000    313.56008    29.927225    29.927225            0            0            0            0    29.927225    1220.6699    1250.5972 
   59200    321.25489    22.450252    22.450252            0            0            0            0    22.450252    1250.6253    1273.0756 
   59400    315.42457    124.14986    124.14986            0            0            0            0    124.14986    1227.9283    1352.0781 
   59600    310.13911    1.0372686    1.0372686            0            0            0            0    1.0372686    1207.3523    1208.3896 
   59800    343.92016    51.941389    51.941389            0            0            0            0    51.941389    1338.8598    1390.8012 
   60000    348.97279    42.106824    42.106824            0            0            0            0    42.106824    1358.5294    1400.6362 
   60200    324.98501    41.338766    41.338766            0            0            0            0    41.338766    1265.1465    1306.4852 
   60400    304.30179    279.71208    279.71208            0            0            0            0    279.71208     1184.628    1464.3401 
   60600    338.68414    54.483041    54.483041            0            0            0            0    54.483041    1318.4763    1372.9594 
   60800    312.68013    2.1204087    2.1204087            0            0            0            0    2.1204087    1217.2444    1219.3648 
   61000    343.56905     44.79103     44.79103            0            0            0            0     44.79103     1337.493     1382.284 
   61200    285.42483    110.74817    110.74817            0            0            0            0    110.74817    1111.1412    1221.8893 
   61400    255.64269    284.39021    284.39021            0            0            0            0    284.39021    995.20113    1279.5913 
   61600    300.19507    39.154796    39.154796            0            0            0            0    39.154796    1168.6408    1207.7956 
   61800    307.47997    86.586422    86.586422            0            0            0            0    86.586422    1197.0004    1283.5868 
   62000    326.93316    82.712371    82.712371            0            0            0            0    82.712371    1272.7305    1355.4429 
   62200    310.24474    114.58608    114.58608            0            0            0            0    114.58608    1207.7635    1322.3496 
   62400    314.03021     41.71058     41.71058            0            0            0            0     41.71058    1222.5001    1264.2107 
   62600    300.38766    65.479872    65.479872            0            0            0            0    65.479872    1169.3905    1234.8704 
   62800    311.97816    76.072338    76.072338            0            0            0            0    76.072338    1214.5116    1290.5839 
   63000    305.78525    70.994966    70.994966            0            0            0            0    70.994966     1190.403     1261.398 
   63200    303.16512    68.799496    68.799496            0            0            0            0    68.799496     1180.203    1249.0025 
   63400    328.26439     26.50771     26.50771            0            0            0            0     26.50771    1277.9129    1304.4206 
   63600    300.96979    35.931529    35.931529            0            0            0            0    35.931529    1171.6567    1207.5883 
   63800    301.48852    61.278786    61.278786            0            0            0            0    61.278786    1173.6761    1234.9549 
   64000    307.23908    125.33349    125.33349            0            0            0            0    125.33349    1196.0627    1321.3962 
   64200    287.95061    76.647335    76.647335            0            0            0            0    76.647335    1120.9739    1197.6212 
   64400    333.04698    90.596776    90.596776            0            0            0            0    90.596776    1296.5312     1387.128 
   64600    310.62692    10.267224    10.267224            0            0            0            0    10.267224    1209.2513    1219.5185 
   64800     289.7334    183.77848    183.77848            0            0            0            0    183.77848    1127.9141    1311.6926 
   65000    324.21664   -3.7807496   -3.7807496            0            0            0            0   -3.7807496    1262.1553    1258.3745 
   65200    297.69313    73.059234    73.059234            0            0            0            0    73.059234    1158.9009    1231.9601 
   65400    337.22046    99.245522    99.245522            0            0            0            0    99.245522    1312.7783    1412.0238 
   65600    308.48086   -21.085784   -21.085784            0            0            0            0   -21.085784    1200.8968    1179.8111 
   65800    301.44557    65.084809    65.084809            0            0            0            0    65.084809    1173.5089    1238.5937 
   66000    322.77791    76.643726    76.643726            0            0            0            0    76.643726    1256.5544    1333.1981 
   66200    314.13287    4.7964045    4.7964045            0            0            0            0    4.7964045    1222.8998    1227.6962 
   66400    339.25647   -2.5673119   -2.5673119            0            0            0            0   -2.5673119    1320.7044    1318.1371 
   66600      317.625    70.904515    70.904515            0            0            0            0    70.904515    1236.4944    1307.3989 
   66800    306.52809    65.655082    65.655082            0            0            0            0    65.655082    1193.2948    1258.9499 
   67000    304.72026    36.883222    36.883222            0            0            0            0    36.883222    1186.2571    1223.1403 
   67200    332.44999   -10.931844   -10.931844            0            0            0            0   -10.931844    1294.2072    1283.2753 
   67400    335.93396    34.042933    34.042933            0            0            0            0    34.042933    1307.7701     1341.813 
   67600    304.78595    37.114471    37.114471            0            0            0            0    37.114471    1186.5128    1223.6272 
   67800    303.99406    101.51316    101.51316            0            0            0            0    101.51316      1183.43    1284.9432 
   68000    290.30276     132.1928     132.1928            0            0            0            0     132.1928    1130.1306    1262.3234 
   68200    308.62924   -18.630353   -18.630353            0            0            0            0   -18.630353    1201.4745    1182.8441 
   68400    329.42554    55.937088    55.937088            0            0            0            0    55.937088    1282.4332    1338.3703 
   68600    313.72741    93.898319    93.898319            0            0            0            0    93.898319    1221.3213    1315.2196 
   68800    323.47023   -17.165839   -17.165839            0            0            0            0   -17.165839    1259.2495    1242.0837 
   69000     300.1283    128.30258    128.30258            0            0            0            0    128.30258    1168.3808    1296.6834 
   69200    310.10807    86.178128    86.178128            0            0            0            0    86.178128    1207.2315    1293.4096 
   69400    315.95458    13.965878    13.965878            0            0            0            0    13.965878    1229.9916    1243.9575 
   69600    304.43409    169.50356    169.50356            0            0            0            0    169.50356     1185.143    1354.6466 
   69800    309.61838    124.06265    124.06265            0            0            0            0    124.06265    1205.3251    1329.3878 
   70000    308.56129    15.080412    15.080412            0            0            0            0    15.080412    1201.2099    1216.2904 
   70200    327.88389    13.497667    13.497667            0            0            0            0    13.497667    1276.4316    1289.9293 
   70400    297.45206    88.219122    88.219122            0            0            0            0    88.219122    1157.9624    1246.1815 
   70600    298.64675    80.268467    80.268467            0            0            0            0    80.268467    1162.6133    1242.8817 
   70800    299.29889    203.76133    203.76133            0            0            0            0    203.76133     1165.152    1368.9133 
   71000    330.14674    32.622474    32.622474            0            0            0            0    32.622474    1285.2407    1317.8632 
   71200    311.10364     61.52668     61.52668            0            0            0            0     61.52668    1211.1072    1272.6338 
   71400    261.49698    226.90173    226.90173            0            0            0            0    226.90173    1017.9915    1244.8932 
   71600    337.80592    46.657803    46.657803            0            0            0            0    46.657803    1315.0575    1361.7153 
   71800    326.65851   -0.1079372   -0.1079372            0            0            0            0   -0.1079372    1271.6613    1271.5534 
   72000    324.61306    162.07698    162.07698            0            0            0            0    162.07698    1263.6985    1425.7755 
   72200    310.89729    129.71122    129.71122            0            0            0            0    129.71122    1210.3038    1340.0151 
   72400    321.63583    70.898047    70.898047            0            0            0            0    70.898047    1252.1083    1323.0064 
   72600    336.00423     90.39462     90.39462            0            0            0            0     90.39462    1308.0436    1398.4382 
   72800    315.25837     122.6869     122.6869            0            0            0            0     122.6869    1227.2813    1349.9682 
   73000    325.96047   -2.6097873   -2.6097873            0            0            0            0   -2.6097873    1268.9439    1266.3341 
   73200     325.5012    43.230218    43.230218            0            0            0            0    43.230218     1267.156    1310.3862 
   73400    299.66539    201.95889    201.95889            0            0            0            0    201.95889    1166.5787    1368.5376 
   73600    318.11171    141.37549    141.37549            0            0            0            0    141.37549    1238.3891    1379.7646 
   73800    321.27933    1.1049277    1.1049277            0            0            0            0    1.1049277    1250.7205    1251.8254 
   74000    323.69567    117.50788    117.50788            0            0            0            0    117.50788    1260.1272     1377.635 
   74200     301.5887    120.23315    120.23315            0            0            0            0    120.23315    1174.0661    1294.2992 
   74400    341.60123    111.32268    111.32268            0            0            0            0    111.32268    1329.8324    1441.1551 
   74600    313.54792    50.868198    50.868198            0            0            0            0    50.868198    1220.6226    1271.4908 
   74800     299.2799    20.578057    20.578057            0            0            0            0    20.578057    1165.0781    1185.6561 
   75000    340.41804    45.944836    45.944836            0            0            0            0    45.944836    1325.2263    1371.1711 
   75200    314.21376  -0.90555448  -0.90555448            0            0            0            0  -0.90555448    1223.2147    1222.3091 
   75400    280.64422    124.85467    124.85467            0            0            0            0    124.85467    1092.5305    1217.3852 
   75600    285.45341    77.426146    77.426146            0            0            0            0    77.426146    1111.2524    1188.6785 
   75800    332.74803    62.467532    62.467532            0            0            0            0    62.467532    1295.3674     1357.835 
   76000     304.2746     32.86601     32.86601            0            0            0            0     32.86601    1184.5221    1217.3882 
   76200    306.97015    49.754561    49.754561            0            0            0            0    49.754561    1195.0157    1244.7703 
   76400    348.99697    132.48874    132.48874            0            0            0            0    132.48874    1358.6235    1491.1123 
   76600    312.99212    4.6987615    4.6987615            0            0            0            0    4.6987615    1218.4589    1223.1577 
   76800    348.19575    -5.312768    -5.312768            0            0            0            0    -5.312768    1355.5044    1350.1917 
   77000    335.14251     24.94174     24.94174            0            0            0            0     24.94174     1304.689    1329.6307 
   77200    312.06814     126.2193     126.2193            0            0            0            0     126.2193    1214.8619    1341.0812 
   77400     322.2077    48.991079    48.991079            0            0            0            0    48.991079    1254.3346    1303.3257 
   77600    320.62678    40.859877    40.859877            0            0            0            0    40.859877    1248.1802      1289.04 
   77800    304.85496    183.85657    183.85657            0            0            0            0    183.85657    1186.7814     1370.638 
   78000    336.52944    11.165452    11.165452            0            0            0            0    11.165452    1310.0882    1321.2537 
   78200    331.20397     40.45923     40.45923            0            0            0            0     40.45923    1289.3565    1329.8157 
   78400    281.11377    141.78087    141.78087            0            0            0            0    141.78087    1094.3585    1236.1393 
   78600    340.59547   -7.8060797   -7.8060797            0            0            0            0   -7.8060797     1325.917     1318.111 
   78800    316.43908   -10.792867   -10.792867            0            0            0            0   -10.792867    1231.8777    1221.0848 
   79000    316.47925    176.36175    176.36175            0            0            0            0    176.36175    1232.0341    1408.3958 
   79200     312.8842   -1.6142178   -1.6142178            0            0            0            0   -1.6142178    1218.0388    1216.4246 
   79400    319.69958    1.7577318    1.7577318            0            0            0            0    1.7577318    1244.5706    1246.3284 
   79600    293.16406    109.30798    109.30798            0            0            0            0    109.30798    1141.2695    1250.5775 
   79800    321.79328     67.03455     67.03455            0            0            0            0     67.03455    1252.7213    1319.7558 
   80000    270.65539    229.31765    229.31765            0            0            0            0    229.31765    1053.6446    1282.9623 
   80200    295.53665    122.10677    122.10677            0            0            0            0    122.10677    1150.5058    1272.6126 
   80400    310.19988  0.045754437  0.045754437            0            0            0            0  0.045754437    1207.5889    1207.6346 
   80600    327.52554    17.587789    17.587789            0            0            0            0    17.587789    1275.0366    1292.6244 
   80800    283.27469    116.85456    116.85456            0            0            0            0    116.85456    1102.7708    1219.6253 
   81000    330.56109    14.094251    14.094251            0            0            0            0    14.094251    1286.8538     1300.948 
   81200    302.15923    36.104218    36.104218            0            0            0            0    36.104218    1176.2871    1212.3914 
   81400    307.41942    82.081535    82.081535            0            0            0            0    82.081535    1196.7647    1278.8463 
   81600    302.28914   -1.3697724   -1.3697724            0            0            0            0   -1.3697724    1176.7928    1175.4231 
   81800    327.94896    62.998719    62.998719            0            0            0            0    62.998719     1276.685    1339.6837 
   82000    290.49555    97.370959    97.370959            0            0            0            0    97.370959    1130.8812    1228.2521 
   82200     312.9793    2.3942445    2.3942445            0            0            0            0    2.3942445     1218.409    1220.8032 
   82400    327.64174    23.472621    23.472621            0            0            0            0    23.472621    1275.4889    1298.9616 
   82600    318.59343   -5.4818517   -5.4818517            0            0            0            0   -5.4818517    1240.2644    1234.7826 
   82800    297.59498    118.86398    118.86398            0            0            0            0    118.86398    1158.5188    1277.3827 
   83000     331.3027    72.785811    72.785811            0            0            0            0    72.785811    1289.7408    1362.5267 
   83200    320.48812    29.952642    29.952642            0            0            0            0    29.952642    1247.6403     1277.593 
   83400    267.17591     158.0514     158.0514            0            0            0            0     158.0514    1040.0992    1198.1506 
   83600    310.86223     107.1853     107.1853            0            0            0            0     107.1853    1210.1673    1317.3526 
   83800    311.66885    171.93051    171.93051            0            0            0            0    171.93051    1213.3075     1385.238 
   84000    313.87119    -2.155767    -2.155767            0            0            0            0    -2.155767    1221.8811    1219.7253 
   84200    333.21737    95.300114    95.300114            0            0            0            0    95.300114    1297.1946    1392.4947 
   84400    319.60204     15.74268     15.74268            0            0            0            0     15.74268    1244.1909    1259.9336 
   84600    292.03691    125.33386    125.33386            0            0            0            0    125.33386    1136.8816    1262.2154 
   84800    318.11876    2.9966647    2.9966647            0            0            0            0    2.9966647    1238.4166    1241.4132 
   85000    348.32381    3.7041529    3.7041529            0            0            0            0    3.7041529     1356.003    1359.7071 
   85200    312.62736    132.79232    132.79232            0            0            0            0    132.79232    1217.0389    1349.8312 
   85400    247.27499     296.6875     296.6875            0            0            0            0     296.6875     962.6262    1259.3137 
   85600    299.68243    49.721639    49.721639            0            0            0            0    49.721639    1166.6451    1216.3667 
   85800    306.67416    16.723425    16.723425            0            0            0            0    16.723425    1193.8635    1210.5869 
   86000     319.1241    18.736722    18.736722            0            0            0            0    18.736722    1242.3303     1261.067 
   86200     302.2647    58.871288    58.871288            0            0            0            0    58.871288    1176.6977     1235.569 
   86400    291.74213    252.21653    252.21653            0            0            0            0    252.21653     1135.734    1387.9505 
   86600    294.41369    61.228152    61.228152            0            0            0            0    61.228152    1146.1342    1207.3624 
   86800    274.62651    173.16979    173.16979            0            0            0            0    173.16979    1069.1039    1242.2737 
   87000    320.72653    51.230586    51.230586            0            0            0            0    51.230586    1248.5685    1299.7991 
   87200    323.29071    42.572494    42.572494            0            0            0            0    42.572494    1258.5507    1301.1232 
   87400    298.18064    9.2175552    9.2175552            0            0            0            0    9.2175552    1160.7987    1170.0163 
   87600    314.56712    33.322744    33.322744            0            0            0            0    33.322744    1224.5903     1257.913 
   87800    325.98614    51.301433    51.301433            0            0            0            0    51.301433    1269.0438    1320.3453 
   88000    327.88626    1.5119955    1.5119955            0            0            0            0    1.5119955    1276.4408    1277.9528 
   88200    303.87358    151.17516    151.17516            0            0            0            0    151.17516     1182.961    1334.1361 
   88400     303.6323    176.32115    176.32115            0            0            0            0    176.32115    1182.0217    1358.3428 
   88600    311.36151   -3.5469868   -3.5469868            0            0            0            0   -3.5469868     1212.111    1208.5641 
   88800    315.54939    15.374137    15.374137            0            0            0            0    15.374137    1228.4142    1243.7883 
   89000    291.57144    118.13493    118.13493            0            0            0            0    118.13493    1135.0695    1253.2044 
   89200    307.17901    119.92666    119.92666            0            0            0            0    119.92666    1195.8288    1315.7555 
   89400    304.04369    69.703334    69.703334            0            0            0            0    69.703334    1183.6232    1253.3265 
   89600    319.27881    14.341472    14.341472            0            0            0            0    14.341472    1242.9326    1257.2741 
   89800    328.07214    143.55888    143.55888            0            0            0            0    143.55888    1277.1645    1420.7234 
   90000    305.51687    74.163502    74.163502            0            0            0            0    74.163502    1189.3582    1263.5217 
   90200    327.43264    -19.88909    -19.88909            0            0            0            0    -19.88909    1274.6749    1254.7859 
   90400    322.73816    44.004994    44.004994            0            0            0            0    44.004994    1256.3996    1300.4046 
   90600    285.49595    214.56638    214.56638            0            0            0            0    214.56638     1111.418    1325.9844 
   90800    321.28498   -20.385796   -20.385796            0            0            0            0   -20.385796    1250.7425    1230.3567 
   91000    312.33977    90.575711    90.575711            0            0            0            0    90.575711    1215.9193     1306.495 
   91200    285.46509    223.51181    223.51181            0            0            0            0    223.51181    1111.2979    1334.8097 
   91400    304.29813     1.434558     1.434558            0            0            0            0     1.434558    1184.6137    1186.0483 
   91600     296.4183    57.097511    57.097511            0            0            0            0    57.097511     1153.938    1211.0356 
   91800    329.01288    32.842777    32.842777            0            0            0            0    32.842777    1280.8267    1313.6695 
   92000    353.80069    68.243293    68.243293            0            0            0            0    68.243293    1377.3241    1445.5674 
   92200    319.73773    17.228318    17.228318            0            0            0            0    17.228318    1244.7191    1261.9475 
   92400    317.54075    21.907528    21.907528            0            0            0            0    21.907528    1236.1664    1258.0739 
   92600     342.2638    54.065171    54.065171            0            0            0            0    54.065171    1332.4117    1386.4769 
   92800    319.79117   -5.6680814   -5.6680814            0            0            0            0   -5.6680814    1244.9272    1239.2591 
   93000    283.02317    205.39026    205.39026            0            0            0            0    205.39026    1101.7917    1307.1819 
   93200    289.42663    122.60281    122.60281            0            0            0            0    122.60281    1126.7199    1249.3227 
   93400    303.67379    23.937009    23.937009            0            0            0            0    23.937009    1182.1832    1206.1202 
   93600    301.93527    241.54436    241.54436            0            0            0            0    241.54436    1175.4153    1416.9596 
   93800    308.96889    55.177317    55.177317            0            0            0            0    55.177317    1202.7967     1257.974 
   94000    327.50304    44.488328    44.488328            0            0            0            0    44.488328     1274.949    1319.4373 
   94200    312.58071    230.33317    230.33317            0            0            0            0    230.33317    1216.8573    1447.1905 
   94400    320.98342    31.945783    31.945783            0            0            0            0    31.945783    1249.5685    1281.5143 
   94600    317.57037    11.553255    11.553255            0            0            0            0    11.553255    1236.2818     1247.835 
   94800    295.80114    145.42288    145.42288            0            0            0            0    145.42288    1151.5355    1296.9584 
   95000     315.1227    59.970464    59.970464            0            0            0            0    59.970464    1226.7531    1286.7236 
   95200    339.15697    64.078662    64.078662            0            0            0            0    64.078662     1320.317    1384.3957 
   95400    307.09581    53.811388    53.811388            0            0            0            0    53.811388    1195.5049    1249.3163 
   95600    352.52834     115.6396     115.6396            0            0            0            0     115.6396    1372.3709    1488.0105 
   95800    289.04085    108.63981    108.63981            0            0            0            0    108.63981    1125.2181    1233.8579 
   96000    328.26102    6.3068928    6.3068928            0            0            0            0    6.3068928    1277.8998    1284.2067 
   96200    296.73888    195.41564    195.41564            0            0            0            0    195.41564    1155.1861    1350.6017 
   96400     304.4321    27.854061    27.854061            0            0            0            0    27.854061    1185.1353    1212.9893 
   96600    292.44444    30.631238    30.631238            0            0            0            0    30.631238    1138.4681    1169.0993 
   96800    318.58493    162.30304    162.30304            0            0            0            0    162.30304    1240.2314    1402.5344 
   97000    285.20388    80.869905    80.869905            0            0            0            0    80.869905     1110.281    1191.1509 
   97200    303.84973   -1.9974929   -1.9974929            0            0            0            0   -1.9974929    1182.8681    1180.8706 
   97400    309.81317    129.57549    129.57549            0            0            0            0    129.57549    1206.0834    1335.6589 
   97600    306.38072    134.07585    134.07585            0            0            0            0    134.07585    1192.7211     1326.797 
   97800    292.38974    89.843301    89.843301            0            0            0            0    89.843301    1138.2551    1228.0984 
   98000    303.61057    52.810795    52.810795            0            0            0            0    52.810795    1181.9371    1234.7479 
   98200    322.91333    37.874632    37.874632            0            0            0            0    37.874632    1257.0816    1294.9562 
   98400    333.68294    39.512872    39.512872            0            0            0            0    39.512872     1299.007    1338.5199 
   98600     308.2159    46.702699    46.702699            0            0            0            0    46.702699    1199.8654    1246.5681 
   98800    303.47001    84.029468    84.029468            0            0            0            0    84.029468    1181.3899    1265.4194 
   99000    305.77862    74.278317    74.278317            0            0            0            0    74.278317    1190.3772    1264.6555 
   99200    326.67786    124.13703    124.13703            0            0            0            0    124.13703    1271.7366    1395.8737 
   99400    299.72021    58.738311    58.738311            0            0            0            0    58.738311    1166.7922    1225.5305 
   99600    311.90286    230.63333    230.63333            0            0            0            0    230.63333    1214.2185    1444.8518 
   99800    308.94107    87.549693    87.549693            0            0            0            0    87.549693    1202.6884    1290.2381 
  100000    305.52608    107.74996    107.74996            0            0            0            0    107.74996    1189.3941     1297.144 
  100200    324.52086    174.15725    174.15725            0            0            0            0    174.15725    1263.3396    1437.4968 
  100400    293.77443    43.409747    43.409747            0            0            0            0    43.409747    1143.6456    1187.0554 
  100600    326.53723    22.469611    22.469611            0            0            0            0    22.469611    1271.1892    1293.6588 
  100800    303.32366    218.33909    218.33909            0            0            0            0    218.33909    1180.8202    1399.1593 
  101000    308.21424    61.846925    61.846925            0            0            0            0    61.846925    1199.8589    1261.7058 
  101200    322.38538   -12.957768   -12.957768            0            0            0            0   -12.957768    1255.0263    1242.0685 
  101400    268.95189    235.46569    235.46569            0            0            0            0    235.46569     1047.013    1282.4787 
  101600    307.22002    157.11997    157.11997            0            0            0            0    157.11997    1195.9885    1353.1084 
  101800    341.02529   -17.264505   -17.264505            0            0            0            0   -17.264505    1327.5903    1310.3258 
  102000    288.16446    173.73565    173.73565            0            0            0            0    173.73565    1121.8063     1295.542 
  102200    301.49538    155.21119    155.21119            0            0            0            0    155.21119    1173.7028     1328.914 
  102400    308.48153   -2.8758429   -2.8758429            0            0            0            0   -2.8758429    1200.8995    1198.0236 
  102600    330.38109   -14.961821   -14.961821            0            0            0            0   -14.961821    1286.1531    1271.1912 
  102800    319.70552    82.027997    82.027997            0            0            0            0    82.027997    1244.5938    1326.6217 
  103000    319.51818    10.723976    10.723976            0            0            0            0    10.723976    1243.8644    1254.5884 
  103200    311.76838   -1.0758384   -1.0758384            0            0            0            0   -1.0758384    1213.6949    1212.6191 
  103400     303.4593   -13.506398   -13.506398            0            0            0            0   -13.506398    1181.3482    1167.8418 
  103600    317.40132    24.417133    24.417133            0            0            0            0    24.417133    1235.6236    1260.0408 
  103800    304.80246   -2.7267567   -2.7267567            0            0            0            0   -2.7267567    1186.5771    1183.8503 
  104000    288.36344    92.164457    92.164457            0            0            0            0    92.164457     1122.581    1214.7454 
  104200    310.56549    75.976461    75.976461            0            0            0            0    75.976461    1209.0122    1284.9886 
  104400    310.93636   -3.3383349   -3.3383349            0            0            0            0   -3.3383349    1210.4559    1207.1176 
  104600    308.72918    98.218745    98.218745            0            0            0            0    98.218745    1201.8635    1300.0823 
  104800    343.14735    109.04583    109.04583            0            0            0            0    109.04583    1335.8513    1444.8971 
  105000    320.98047    22.134102    22.134102            0            0            0            0    22.134102     1249.557    1271.6911 
  105200    310.58748    17.329995    17.329995            0            0            0            0    17.329995    1209.0978    1226.4278 
  105400    349.35496    74.870461    74.870461            0            0            0            0    74.870461    1360.0172    1434.8876 
  105600    307.24592    122.20611    122.20611            0            0            0            0    122.20611    1196.0893    1318.2954 
  105800    326.14478   -3.5038177   -3.5038177            0            0            0            0   -3.5038177    1269.6614    1266.1576 
  106000    332.18868    66.916922    66.916922            0            0            0            0    66.916922    1293.1899    1360.1068 
  106200    278.64652    178.90062    178.90062            0            0            0            0    178.90062    1084.7536    1263.6542 
  106400    298.17625    110.64776    110.64776            0            0            0            0    110.64776    1160.7816    1271.4294 
  106600    282.20671    140.89555    140.89555            0            0            0            0    140.89555    1098.6132    1239.5087 
  106800    305.84267   -7.6554182   -7.6554182            0            0            0            0   -7.6554182    1190.6265    1182.9711 
  107000    289.93761     263.7418     263.7418            0            0            0            0     263.7418    1128.7091    1392.4509 
  107200    307.48551   -18.232895   -18.232895            0            0            0            0   -18.232895     1197.022    1178.7891 
  107400    326.09002     78.37802     78.37802            0            0            0            0     78.37802    1269.4482    1347.8262 
  107600     288.0054    149.29165    149.29165            0            0            0            0    149.29165    1121.1871    1270.4788 
  107800    303.79557   0.73372788   0.73372788            0            0            0            0   0.73372788    1182.6573     1183.391 
  108000    333.67528    128.57203    128.57203            0            0            0            0    128.57203    1298.9771    1427.5492 
  108200    291.72428    114.67817    114.67817            0            0            0            0    114.67817    1135.6645    1250.3427 
  108400    287.37176    144.81926    144.81926            0            0            0            0    144.81926    1118.7204    1263.5397 
  108600     308.5551    28.091886    28.091886            0            0            0            0    28.091886    1201.1858    1229.2777 
  108800    323.68002   -15.563245   -15.563245            0            0            0            0   -15.563245    1260.0662     1244.503 
  109000    298.00289    31.746838    31.746838            0            0            0            0    31.746838    1160.1067    1191.8536 
  109200    288.38358    67.044154    67.044154            0            0            0            0    67.044154    1122.6594    1189.7035 
  109400    309.95343    142.28691    142.28691            0            0            0            0    142.28691    1206.6295    1348.9164 
  109600    318.72365    37.806364    37.806364            0            0            0            0    37.806364    1240.7714    1278.5777 
  109800    322.48511    10.175395    10.175395            0            0            0            0    10.175395    1255.4145    1265.5899 
  110000    310.96989     10.10903     10.10903            0            0            0            0     10.10903    1210.5865    1220.6955 
  110200     304.2412    88.961977    88.961977            0            0            0            0    88.961977    1184.3921    1273.3541 
  110400    315.27688    131.39347    131.39347            0            0            0            0    131.39347    1227.3533    1358.7468 
  110600    328.39382    50.129163    50.129163            0            0            0            0    50.129163    1278.4168    1328.5459 
  110800    323.95154    -1.312944    -1.312944            0            0            0            0    -1.312944    1261.1232    1259.8103 
  111000     310.0654    31.143699    31.143699            0            0            0            0    31.143699    1207.0654     1238.209 
  111200    326.68834    133.60056    133.60056            0            0            0            0    133.60056    1271.7774     1405.378 
  111400    314.17191   -13.430718   -13.430718            0            0            0            0   -13.430718    1223.0517     1209.621 
  111600    311.70521   -29.707803   -29.707803            0            0            0            0   -29.707803     1213.449    1183.7412 
  111800    311.63855    188.72497    188.72497            0            0            0            0    188.72497    1213.1895    1401.9145 
  112000    303.47465    7.7961562    7.7961562            0            0            0            0    7.7961562     1181.408    1189.2041 
  112200    300.86889     12.64042     12.64042            0            0            0            0     12.64042    1171.2639    1183.9043 
  112400    274.26761    277.24488    277.24488            0            0            0            0    277.24488    1067.7068    1344.9517 
  112600    292.99798    124.03496    124.03496            0            0            0            0    124.03496     1140.623    1264.6579 
  112800    339.81912    40.860664    40.860664            0            0            0            0    40.860664    1322.8948    1363.7554 
  113000    316.68292    160.92189    160.92189            0            0            0            0    160.92189     1232.827    1393.7488 
  113200    332.08265   -13.290065   -13.290065            0            0            0            0   -13.290065    1292.7771    1279.4871 
  113400    313.31837    93.340294    93.340294            0            0            0            0    93.340294     1219.729    1313.0693 
  113600    327.75299    71.062665    71.062665            0            0            0            0    71.062665     1275.922    1346.9847 
  113800    313.21837   -9.1000559   -9.1000559            0            0            0            0   -9.1000559    1219.3397    1210.2396 
  114000    325.93077    55.564504    55.564504            0            0            0            0    55.564504    1268.8283    1324.3928 
  114200     294.6853    245.51664    245.51664            0            0            0            0    245.51664    1147.1916    1392.7082 
  114400    302.67285   -8.2357477   -8.2357477            0            0            0            0   -8.2357477    1178.2866    1170.0509 
  114600    298.31443    45.736516    45.736516            0            0            0            0    45.736516    1161.3196    1207.0561 
  114800    313.62072    86.381897    86.381897            0            0            0            0    86.381897     1220.906    1307.2879 
  115000    316.27694    68.012708    68.012708            0            0            0            0    68.012708    1231.2465    1299.2592 
  115200     310.9585      -22.726      -22.726            0            0            0            0      -22.726    1210.5421    1187.8161 
  115400    360.43308    100.04551    100.04551            0            0            0            0    100.04551    1403.1436    1503.1891 
  115600    294.36169    39.985097    39.985097            0            0            0            0    39.985097    1145.9318    1185.9169 
  115800    281.00284     184.5994     184.5994            0            0            0            0     184.5994    1093.9266     1278.526 
  116000    345.50688    11.686578    11.686578            0            0            0            0    11.686578    1345.0368    1356.7234 
  116200    296.55137    158.16422    158.16422            0            0            0            0    158.16422    1154.4561    1312.6203 
  116400    311.48434  -0.44261558  -0.44261558            0            0            0            0  -0.44261558    1212.5892    1212.1466 
  116600    337.19948   -16.192022   -16.192022            0            0            0            0   -16.192022    1312.6967    1296.5046 
  116800    319.54933    5.8125475    5.8125475            0            0            0            0    5.8125475    1243.9857    1249.7983 
  117000    296.57861    146.51968    146.51968            0            0            0            0    146.51968    1154.5621    1301.0818 
  117200     321.1354    140.92773    140.92773            0            0            0            0    140.92773    1250.1602    1391.0879 
  117400    293.70308    60.257972    60.257972            0            0            0            0    60.257972    1143.3678    1203.6258 
  117600    333.83544    4.3944657    4.3944657            0            0            0            0    4.3944657    1299.6006    1303.9951 
  117800    302.66181    157.33393    157.33393            0            0            0            0    157.33393    1178.2436    1335.5776 
  118000    324.29378    88.531024    88.531024            0            0            0            0    88.531024    1262.4556    1350.9866 
  118200    331.00597    49.565022    49.565022            0            0            0            0    49.565022    1288.5857    1338.1507 
  118400    319.16713    12.625964    12.625964            0            0            0            0    12.625964    1242.4978    1255.1238 
  118600    301.05574    15.178434    15.178434            0            0            0            0    15.178434    1171.9913    1187.1698 
  118800    292.61659    36.537933    36.537933            0            0            0            0    36.537933    1139.1382    1175.6762 
  119000    282.70688    123.03425    123.03425            0            0            0            0    123.03425    1100.5603    1223.5946 
  119200    325.20317    30.270544    30.270544            0            0            0            0    30.270544    1265.9958    1296.2663 
  119400    326.41384    39.333016    39.333016            0            0            0            0    39.333016    1270.7088    1310.0418 
  119600     339.9869    191.13342    191.13342            0            0            0            0    191.13342    1323.5479    1514.6813 
  119800    307.22456    63.574765    63.574765            0            0            0            0    63.574765    1196.0061    1259.5809 
  120000    326.45368    20.942549    20.942549            0            0            0            0    20.942549    1270.8639    1291.8065 
  120200    315.53198    4.5105336    4.5105336            0            0            0            0    4.5105336    1228.3464    1232.8569 
  120400    354.41411    149.88995    149.88995            0            0            0            0    149.88995    1379.7121    1529.6021 
  120600    333.52455     30.55306     30.55306            0            0            0            0     30.55306    1298.3904    1328.9434 
  120800    292.02895    141.61036    141.61036            0            0            0            0    141.61036    1136.8506    1278.4609 
  121000    298.94266    115.57828    115.57828            0            0            0            0    115.57828    1163.7652    1279.3435 
  121200     311.0572   -13.735714   -13.735714            0            0            0            0   -13.735714    1210.9264    1197.1907 
  121400    308.81288    142.37685    142.37685            0            0            0            0    142.37685    1202.1894    1344.5662 
  121600    308.44056    85.679677    85.679677            0            0            0            0    85.679677      1200.74    1286.4196 
  121800    305.58662   -23.837699   -23.837699            0            0            0            0   -23.837699    1189.6297     1165.792 
  122000    331.83627    193.58899    193.58899            0            0            0            0    193.58899     1291.818     1485.407 
  122200    344.52318    2.8118098    2.8118098            0            0            0            0    2.8118098    1341.2073    1344.0192 
  122400      316.893    95.869494    95.869494            0            0            0            0    95.869494    1233.6448    1329.5143 
  122600    291.18539    58.946091    58.946091            0            0            0            0    58.946091    1133.5667    1192.5127 
  122800    303.13727    12.242192    12.242192            0            0            0            0    12.242192    1180.0946    1192.3368 
  123000    323.50046    141.21348    141.21348            0            0            0            0    141.21348    1259.3672    1400.5807 
  123200    308.20989    5.7138237    5.7138237            0            0            0            0    5.7138237     1199.842    1205.5558 
  123400    322.59681    -15.18244    -15.18244            0            0            0            0    -15.18244    1255.8493    1240.6669 
  123600    290.40517    40.009747    40.009747            0            0            0            0    40.009747    1130.5293     1170.539 
  123800    304.92733    156.23333    156.23333            0            0            0            0    156.23333    1187.0632    1343.2965 
  124000    294.41842    103.83609    103.83609            0            0            0            0    103.83609    1146.1526    1249.9887 
  124200    294.48479    121.30135    121.30135            0            0            0            0    121.30135     1146.411    1267.7124 
  124400    316.13102    36.839555    36.839555            0            0            0            0    36.839555    1230.6784     1267.518 
  124600    299.36189    58.391163    58.391163            0            0            0            0    58.391163    1165.3973    1223.7884 
  124800    315.06629    76.648637    76.648637            0            0            0            0    76.648637    1226.5335    1303.1821 
  125000    309.09985    230.53973    230.53973            0            0            0            0    230.53973    1203.3065    1433.8463 
  125200    288.06745    109.83079    109.83079            0            0            0            0    109.83079    1121.4287    1231.2595 
  125400    298.84048    51.895582    51.895582            0            0            0            0    51.895582    1163.3675     1215.263 
  125600    304.04262    40.548096    40.548096            0            0            0            0    40.548096     1183.619    1224.1671 
  125800    311.17187   0.74444167   0.74444167            0            0            0            0   0.74444167    1211.3728    1212.1172 
  126000    312.26809    27.840433    27.840433            0            0            0            0    27.840433    1215.6403    1243.4807 
  126200      308.413    59.713891    59.713891            0            0            0            0    59.713891    1200.6327    1260.3466 
  126400    298.80251    99.093653    99.093653            0            0            0            0    99.093653    1163.2196    1262.3133 
  126600    312.74707    47.573446    47.573446            0            0            0            0    47.573446    1217.5049    1265.0784 
  126800    287.85393    124.29266    124.29266            0            0            0            0    124.29266    1120.5975    1244.8902 
  127000     318.1721    87.689966    87.689966            0            0            0            0    87.689966    1238.6242    1326.3142 
  127200    308.88661    -22.13937    -22.13937            0            0            0            0    -22.13937    1202.4764     1180.337 
  127400    247.99838     350.1191     350.1191            0            0            0            0     350.1191     965.4423    1315.5614 
  127600    296.47697   -6.9996321   -6.9996321            0            0            0            0   -6.9996321    1154.1664    1147.1668 
  127800    321.51859    22.323729    22.323729            0            0            0            0    22.323729    1251.6519    1273.9756 
  128000    326.71697    99.478871    99.478871            0            0            0            0    99.478871    1271.8889    1371.3678 
  128200      296.983    15.598592    15.598592            0            0            0            0    15.598592    1156.1364     1171.735 
  128400     292.3541    145.29547    145.29547            0            0            0            0    145.29547    1138.1164    1283.4118 
  128600    304.70316    192.70034    192.70034            0            0            0            0    192.70034    1186.1905    1378.8908 
  128800     293.0994    27.792317    27.792317            0            0            0            0    27.792317    1141.0178    1168.8101 
  129000    297.68936    116.50823    116.50823            0            0            0            0    116.50823    1158.8862    1275.3944 
  129200    334.08243     54.99378     54.99378            0            0            0            0     54.99378    1300.5622    1355.5559 
  129400    306.67126   -8.3801329   -8.3801329            0            0            0            0   -8.3801329    1193.8522     1185.472 
  129600    302.82025    187.26809    187.26809            0            0            0            0    187.26809    1178.8604    1366.1285 
  129800    279.89655    215.91015    215.91015            0            0            0            0    215.91015    1089.6199    1305.5301 
  130000    342.10949    93.376071    93.376071            0            0            0            0    93.376071     1331.811    1425.1871 
  130200    323.62299    10.538278    10.538278            0            0            0            0    10.538278    1259.8442    1270.3825 
  130400     342.5958    101.10206    101.10206            0            0            0            0    101.10206    1333.7042    1434.8063 
  130600    318.98985   -18.195128   -18.195128            0            0            0            0   -18.195128    1241.8077    1223.6125 
  130800    332.67668    33.475066    33.475066            0            0            0            0    33.475066    1295.0897    1328.5647 
  131000    307.86341    186.87943    186.87943            0            0            0            0    186.87943    1198.4931    1385.3726 
  131200    312.56217    102.34633    102.34633            0            0            0            0    102.34633    1216.7851    1319.1315 
  131400    335.17634   -14.165396   -14.165396            0            0            0            0   -14.165396    1304.8207    1290.6553 
  131600    304.04916    21.037317    21.037317            0            0            0            0    21.037317    1183.6445    1204.6818 
  131800    301.15651    72.820378    72.820378            0            0            0            0    72.820378    1172.3836     1245.204 
  132000    304.01962    101.10508    101.10508            0            0            0            0    101.10508    1183.5295    1284.6346 
  132200    320.13812    9.6908973    9.6908973            0            0            0            0    9.6908973    1246.2778    1255.9687 
  132400    279.05932    263.83054    263.83054            0            0            0            0    263.83054    1086.3606    1350.1911 
  132600    311.68467    55.922588    55.922588            0            0            0            0    55.922588    1213.3691    1269.2917 
  132800    311.29983    2.6400418    2.6400418            0            0            0            0    2.6400418    1211.8709    1214.5109 
  133000    322.43509    127.70094    127.70094            0            0            0            0    127.70094    1255.2198    1382.9207 
  133200    346.81916    34.616499    34.616499            0            0            0            0    34.616499    1350.1455     1384.762 
  133400     328.1508    40.266861    40.266861            0            0            0            0    40.266861    1277.4707    1317.7375 
  133600    295.27776    47.915784    47.915784            0            0            0            0    47.915784     1149.498    1197.4138 
  133800    313.61497     306.8931     306.8931            0            0            0            0     306.8931    1220.8836    1527.7767 
  134000    318.25196   -3.9296114   -3.9296114            0            0            0            0   -3.9296114    1238.9351    1235.0055 
  134200    318.29647     51.70282     51.70282            0            0            0            0     51.70282    1239.1084    1290.8112 
  134400    315.85222    176.32337    176.32337            0            0            0            0    176.32337    1229.5931    1405.9165 
  134600    310.86261    27.722389    27.722389            0            0            0            0    27.722389    1210.1688    1237.8912 
  134800    304.93806    34.222042    34.222042            0            0            0            0    34.222042    1187.1049     1221.327 
  135000    292.26643    102.05168    102.05168            0            0            0            0    102.05168    1137.7751    1239.8268 
  135200    300.75265    55.048913    55.048913            0            0            0            0    55.048913    1170.8114    1225.8603 
  135400    305.96343   -15.254431   -15.254431            0            0            0            0   -15.254431    1191.0966    1175.8422 
  135600    306.83689    70.937805    70.937805            0            0            0            0    70.937805     1194.497    1265.4348 
  135800    293.29738    21.988836    21.988836            0            0            0            0    21.988836    1141.7885    1163.7773 
  136000    287.37302    113.52368    113.52368            0            0            0            0    113.52368    1118.7253     1232.249 
  136200    292.20377    151.24565    151.24565            0            0            0            0    151.24565    1137.5312    1288.7768 
  136400    329.29152    4.5677762    4.5677762            0            0            0            0    4.5677762    1281.9115    1286.4792 
  136600     289.5113     109.7742     109.7742            0            0            0            0     109.7742    1127.0495    1236.8237 
  136800    304.51879    18.408312    18.408312            0            0            0            0    18.408312    1185.4727    1203.8811 
  137000    307.19353    166.14668    166.14668            0            0            0            0    166.14668    1195.8853     1362.032 
  137200    304.10262     35.25791     35.25791            0            0            0            0     35.25791    1183.8526    1219.1105 
  137400     305.9677    43.904592    43.904592            0            0            0            0    43.904592    1191.1133    1235.0179 
  137600    328.93998    124.01007    124.01007            0            0            0            0    124.01007    1280.5429     1404.553 
  137800    321.88706    8.6759552    8.6759552            0            0            0            0    8.6759552    1253.0863    1261.7623 
  138000    332.07523    121.76698    121.76698            0            0            0            0    121.76698    1292.7483    1414.5152 
  138200    323.88624     76.60453     76.60453            0            0            0            0     76.60453     1260.869    1337.4736 
  138400    325.88753    78.691504    78.691504            0            0            0            0    78.691504    1268.6599    1347.3514 
  138600    335.85992    29.045452    29.045452            0            0            0            0    29.045452    1307.4818    1336.5273 
  138800    321.58983    24.160219    24.160219            0            0            0            0    24.160219    1251.9293    1276.0895 
  139000    312.65554    150.88867    150.88867            0            0            0            0    150.88867    1217.1486    1368.0373 
  139200    319.83534     78.29259     78.29259            0            0            0            0     78.29259    1245.0991    1323.3917 
  139400    303.41143    112.23601    112.23601            0            0            0            0    112.23601    1181.1619    1293.3979 
  139600    329.42767   -20.832823   -20.832823            0            0            0            0   -20.832823    1282.4415    1261.6087 
  139800    293.74896     178.3832     178.3832            0            0            0            0     178.3832    1143.5465    1321.9297 
  140000    311.22661    25.899604    25.899604            0            0            0            0    25.899604    1211.5859    1237.4855 
  140200    313.46512   -1.0396823   -1.0396823            0            0            0            0   -1.0396823    1220.3002    1219.2606 
  140400    295.46336    165.96594    165.96594            0            0            0            0    165.96594    1150.2205    1316.1865 
  140600    291.08021    48.862882    48.862882            0            0            0            0    48.862882    1133.1572    1182.0201 
  140800    322.72014    41.610936    41.610936            0            0            0            0    41.610936    1256.3295    1297.9404 
  141000    318.30258    116.93014    116.93014            0            0            0            0    116.93014    1239.1322    1356.0623 
  141200    322.09533    100.42366    100.42366            0            0            0            0    100.42366    1253.8971    1354.3208 
  141400    342.93014    6.0373661    6.0373661            0            0            0            0    6.0373661    1335.0057    1341.0431 
  141600    338.63444     19.36676     19.36676            0            0            0            0     19.36676    1318.2828    1337.6496 
  141800    314.85848    24.614195    24.614195            0            0            0            0    24.614195    1225.7245    1250.3387 
  142000    330.41845    13.298098    13.298098            0            0            0            0    13.298098    1286.2985    1299.5966 
  142200    277.98043    410.09328    410.09328            0            0            0            0    410.09328    1082.1605    1492.2538 
  142400    314.49496  -0.15573957  -0.15573957            0            0            0            0  -0.15573957    1224.3094    1224.1536 
  142600     295.4775    170.27313    170.27313            0            0            0            0    170.27313    1150.2756    1320.5487 
  142800    259.67387    317.89171    317.89171            0            0            0            0    317.89171    1010.8943     1328.786 
  143000    302.99876   -16.263692   -16.263692            0            0            0            0   -16.263692    1179.5554    1163.2917 
  143200    321.74434    68.753695    68.753695            0            0            0            0    68.753695    1252.5307    1321.2844 
  143400    268.33788    277.62453    277.62453            0            0            0            0    277.62453    1044.6227    1322.2472 
  143600    302.00651   -11.899517   -11.899517            0            0            0            0   -11.899517    1175.6926    1163.7931 
  143800    302.52527    47.879314    47.879314            0            0            0            0    47.879314    1177.7121    1225.5914 
  144000     285.8522    152.03138    152.03138            0            0            0            0    152.03138    1112.8049    1264.8363 
  144200    278.00112    184.33323    184.33323            0            0            0            0    184.33323    1082.2411    1266.5743 
  144400     309.1964    40.799494    40.799494            0            0            0            0    40.799494    1203.6824    1244.4819 
  144600    315.58099    72.917387    72.917387            0            0            0            0    72.917387    1228.5372    1301.4546 
  144800    315.83333    148.86956    148.86956            0            0            0            0    148.86956    1229.5195    1378.3891 
  145000    310.90922   -6.1684758   -6.1684758            0            0            0            0   -6.1684758    1210.3503    1204.1818 
  145200    322.47249    43.200826    43.200826            0            0            0            0    43.200826    1255.3654    1298.5662 
  145400    297.65286    145.03881    145.03881            0            0            0            0    145.03881    1158.7441    1303.7829 
  145600    321.46839    83.858408    83.858408            0            0            0            0    83.858408    1251.4565    1335.3149 
  145800    322.14739    140.79489    140.79489            0            0            0            0    140.79489    1254.0998    1394.8947 
  146000    307.76609    101.28739    101.28739            0            0            0            0    101.28739    1198.1143    1299.4017 
  146200    303.35986    48.525039    48.525039            0            0            0            0    48.525039    1180.9611    1229.4861 
  146400    325.23124   -9.3391927   -9.3391927            0            0            0            0   -9.3391927     1266.105    1256.7658 
  146600    315.28657     21.22354     21.22354            0            0            0            0     21.22354    1227.3911    1248.6146 
  146800    322.03738   -15.937517   -15.937517            0            0            0            0   -15.937517    1253.6715     1237.734 
  147000    299.23618     47.93555     47.93555            0            0            0            0     47.93555    1164.9079    1212.8434 
  147200     298.6605    127.77001    127.77001            0            0            0            0    127.77001    1162.6668    1290.4368 
  147400    322.28438   -1.2746622   -1.2746622            0            0            0            0   -1.2746622    1254.6331    1253.3584 
  147600    313.48468     77.62059     77.62059            0            0            0            0     77.62059    1220.3764     1297.997 
  147800    301.78504    12.577981    12.577981            0            0            0            0    12.577981    1174.8304    1187.4084 
  148000    319.47971    97.409556    97.409556            0            0            0            0    97.409556    1243.7147    1341.1242 
  148200    304.57063    15.229923    15.229923            0            0            0            0    15.229923    1185.6746    1200.9045 
  148400     310.9153   -22.420772   -22.420772            0            0            0            0   -22.420772    1210.3739    1187.9532 
  148600    305.64476     187.7359     187.7359            0            0            0            0     187.7359    1189.8561     1377.592 
  148800     291.2766    47.056906    47.056906            0            0            0            0    47.056906    1133.9217    1180.9786 
  149000      299.853   -6.5393557   -6.5393557            0            0            0            0   -6.5393557    1167.3091    1160.7698 
  149200    267.38552    201.04183    201.04183            0            0            0            0    201.04183    1040.9152    1241.9571 
  149400    300.24203   -17.747598   -17.747598            0            0            0            0   -17.747598    1168.8236     1151.076 
  149600    310.88731    59.115596    59.115596            0            0            0            0    59.115596     1210.265    1269.3806 
  149800    364.56185    10.157542    10.157542            0            0            0            0    10.157542    1419.2167    1429.3742 
  150000    310.56798    83.235052    83.235052            0            0            0            0    83.235052    1209.0219    1292.2569 
  150200    338.89959     51.26609     51.26609            0            0            0            0     51.26609    1319.3151    1370.5812 
  150400    325.79071    85.537445    85.537445            0            0            0            0    85.537445     1268.283    1353.8205 
  150600    323.00072    37.677188    37.677188            0            0            0            0    37.677188    1257.4218    1295.0989 
  150800    304.41547    159.39004    159.39004            0            0            0            0    159.39004    1185.0705    1344.4606 
  151000    317.47593    26.970648    26.970648            0            0            0            0    26.970648    1235.9141    1262.8847 
  151200    319.67725    27.848867    27.848867            0            0            0            0    27.848867    1244.4837    1272.3326 
  151400    345.82027    104.74655    104.74655            0            0            0            0    104.74655    1346.2568    1451.0034 
  151600    302.88168    19.788634    19.788634            0            0            0            0    19.788634    1179.0996    1198.8882 
  151800    303.50086    36.554119    36.554119            0            0            0            0    36.554119      1181.51    1218.0641 
  152000    303.06922    102.66163    102.66163            0            0            0            0    102.66163    1179.8297    1282.4913 
  152200    309.83962    109.47777    109.47777            0            0            0            0    109.47777    1206.1864    1315.6642 
  152400    322.78744    7.7218507    7.7218507            0            0            0            0    7.7218507    1256.5915    1264.3133 
  152600    316.05049    17.304726    17.304726            0            0            0            0    17.304726    1230.3649    1247.6697 
  152800    310.70015    24.598337    24.598337            0            0            0            0    24.598337    1209.5364    1234.1347 
  153000     306.3428    70.529944    70.529944            0            0            0            0    70.529944    1192.5735    1263.1035 
  153200    323.19358    30.957919    30.957919            0            0            0            0    30.957919    1258.1725    1289.1304 
  153400    295.94406    144.92357    144.92357            0            0            0            0    144.92357    1152.0918    1297.0154 
  153600    299.55797    54.326865    54.326865            0            0            0            0    54.326865    1166.1606    1220.4874 
  153800     304.6884   -3.6870125   -3.6870125            0            0            0            0   -3.6870125     1186.133     1182.446 
  154000    321.56303   -16.755845   -16.755845            0            0            0            0   -16.755845    1251.8249    1235.0691 
  154200    317.92942    51.562479    51.562479            0            0            0            0    51.562479    1237.6795     1289.242 
  154400    305.81831    65.676908    65.676908            0            0            0            0    65.676908    1190.5317    1256.2086 
  154600    299.36011    26.246026    26.246026            0            0            0            0    26.246026    1165.3903    1191.6364 
  154800    322.23167    29.690802    29.690802            0            0            0            0    29.690802    1254.4279    1284.1187 
  155000    310.19764   -21.362306   -21.362306            0            0            0            0   -21.362306    1207.5802    1186.2179 
  155200    313.46911     35.31014     35.31014            0            0            0            0     35.31014    1220.3158    1255.6259 
  155400    327.65521     25.39872     25.39872            0            0            0            0     25.39872    1275.5414    1300.9401 
  155600    308.66247    7.8807631    7.8807631            0            0            0            0    7.8807631    1201.6038    1209.4846 
  155800    287.60595     105.4889     105.4889            0            0            0            0     105.4889    1119.6321     1225.121 
  156000    322.63703     13.26872     13.26872            0            0            0            0     13.26872    1256.0059    1269.2746 
  156200    298.67967    201.19596    201.19596            0            0            0            0    201.19596    1162.7414    1363.9374 
  156400    299.58794   -25.227547   -25.227547            0            0            0            0   -25.227547    1166.2773    1141.0497 
  156600    302.57987    50.014192    50.014192            0            0            0            0    50.014192    1177.9247    1227.9389 
  156800    313.38852    168.83351    168.83351            0            0            0            0    168.83351     1220.002    1388.8356 
  157000    338.24488  -0.84613401  -0.84613401            0            0            0            0  -0.84613401    1316.7663    1315.9202 
  157200    279.01419    228.18725    228.18725            0            0            0            0    228.18725    1086.1849    1314.3722 
  157400    323.93559    47.730803    47.730803            0            0            0            0    47.730803    1261.0611    1308.7919 
  157600    318.61524    20.058872    20.058872            0            0            0            0    20.058872    1240.3493    1260.4082 
  157800    341.79601    64.204186    64.204186            0            0            0            0    64.204186    1330.5906    1394.7948 
  158000    294.56051    57.954282    57.954282            0            0            0            0    57.954282    1146.7058      1204.66 
  158200    285.80669    128.79818    128.79818            0            0            0            0    128.79818    1112.6277    1241.4259 
  158400    307.26703    45.226361    45.226361            0            0            0            0    45.226361    1196.1715    1241.3979 
  158600     306.1821    6.3050418    6.3050418            0            0            0            0    6.3050418    1191.9479     1198.253 
  158800    315.27677    49.043851    49.043851            0            0            0            0    49.043851    1227.3529    1276.3967 
  159000    307.01649   -24.573195   -24.573195            0            0            0            0   -24.573195    1195.1961    1170.6229 
  159200    308.11261    149.37143    149.37143            0            0            0            0    149.37143    1199.4633    1348.8347 
  159400    316.99018    37.677627    37.677627            0            0            0            0    37.677627    1234.0231    1271.7007 
  159600    318.33115   -18.429299   -18.429299            0            0            0            0   -18.429299    1239.2434    1220.8141 
  159800    320.12968    146.23877    146.23877            0            0            0            0    146.23877     1246.245    1392.4838 
  160000    320.72891    133.35759    133.35759            0            0            0            0    133.35759    1248.5777    1381.9353 
  160200    313.49111 0.0031005698 0.0031005698            0            0            0            0 0.0031005698    1220.4014    1220.4045 
  160400    341.77475   -2.7139511   -2.7139511            0            0            0            0   -2.7139511    1330.5079    1327.7939 
  160600    275.42211    240.56398    240.56398            0            0            0            0    240.56398    1072.2012    1312.7652 
  160800    303.62794   -19.755539   -19.755539            0            0            0            0   -19.755539    1182.0047    1162.2492 
  161000    301.74936    113.93904    113.93904            0            0            0            0    113.93904    1174.6915    1288.6306 
  161200    305.59336    77.901525    77.901525            0            0            0            0    77.901525     1189.656    1267.5575 
  161400    313.73518    85.291727    85.291727            0            0            0            0    85.291727    1221.3516    1306.6433 
  161600    288.77013     143.2034     143.2034            0            0            0            0     143.2034    1124.1642    1267.3676 
  161800    305.60948    102.41006    102.41006            0            0            0            0    102.41006    1189.7187    1292.1288 
  162000    299.04522    66.723333    66.723333            0            0            0            0    66.723333    1164.1645    1230.8878 
  162200    333.12528    39.175951    39.175951            0            0            0            0    39.175951     1296.836     1336.012 
  162400    319.72623     199.9067     199.9067            0            0            0            0     199.9067    1244.6744    1444.5811 
  162600    317.24893    25.330923    25.330923            0            0            0            0    25.330923    1235.0304    1260.3613 
  162800    293.92035    176.85602    176.85602            0            0            0            0    176.85602    1144.2137    1321.0697 
  163000    327.66903    1.2205618    1.2205618            0            0            0            0    1.2205618    1275.5952    1276.8158 
  163200    294.45788    172.37697    172.37697            0            0            0            0    172.37697    1146.3062    1318.6832 
  163400    231.12374    467.00304    467.00304            0            0            0            0    467.00304    899.75039    1366.7534 
  163600    315.64033    4.7942308    4.7942308            0            0            0            0    4.7942308    1228.7682    1233.5624 
  163800    310.71443   -27.029712   -27.029712            0            0            0            0   -27.029712     1209.592    1182.5623 
  164000     319.6054    41.244506    41.244506            0            0            0            0    41.244506     1244.204    1285.4485 
  164200    308.81943    74.166881    74.166881            0            0            0            0    74.166881    1202.2149    1276.3818 
  164400     279.4925    228.15533    228.15533            0            0            0            0    228.15533     1088.047    1316.2023 
  164600    349.17747    57.735345    57.735345            0            0            0            0    57.735345    1359.3262    1417.0616 
  164800    302.77578    78.920251    78.920251            0            0            0            0    78.920251    1178.6873    1257.6076 
  165000    295.36778    12.566409    12.566409            0            0            0            0    12.566409    1149.8484    1162.4148 
  165200    297.41866    121.81939    121.81939            0            0            0            0    121.81939    1157.8324    1279.6517 
  165400    318.03982    37.211897    37.211897            0            0            0            0    37.211897    1238.1093    1275.3212 
  165600    312.86635     53.93392     53.93392            0            0            0            0     53.93392    1217.9693    1271.9032 
  165800    311.33073    131.80574    131.80574            0            0            0            0    131.80574    1211.9912     1343.797 
  166000    303.30681    9.7171896    9.7171896            0            0            0            0    9.7171896    1180.7546    1190.4718 
  166200    293.07514    58.287317    58.287317            0            0            0            0    58.287317    1140.9233    1199.2106 
  166400    311.43969   -14.914749   -14.914749            0            0            0            0   -14.914749    1212.4154    1197.5006 
  166600    332.12112     65.60968     65.60968            0            0            0            0     65.60968    1292.9269    1358.5366 
  166800    314.48982    22.530331    22.530331            0            0            0            0    22.530331    1224.2894    1246.8197 
  167000    316.83687   -7.5174503   -7.5174503            0            0            0            0   -7.5174503    1233.4263    1225.9088 
  167200    283.77747    152.67704    152.67704            0            0            0            0    152.67704    1104.7281    1257.4051 
  167400     315.7407     25.17439     25.17439            0            0            0            0     25.17439     1229.159    1254.3333 
  167600    319.01283    28.975534    28.975534            0            0            0            0    28.975534    1241.8971    1270.8727 
  167800     294.2321    213.17955    213.17955            0            0            0            0    213.17955    1145.4273    1358.6068 
  168000    310.15181    4.2942472    4.2942472            0            0            0            0    4.2942472    1207.4018     1211.696 
  168200    316.79485   -2.1895974   -2.1895974            0            0            0            0   -2.1895974    1233.2627    1231.0731 
  168400    304.38188    47.984474    47.984474            0            0            0            0    47.984474    1184.9398    1232.9242 
  168600     296.8732    146.58715    146.58715            0            0            0            0    146.58715    1155.7089    1302.2961 
  168800    301.12812    5.5240218    5.5240218            0            0            0            0    5.5240218    1172.2731    1177.7971 
  169000    316.41913    14.252975    14.252975            0            0            0            0    14.252975       1231.8     1246.053 
  169200    298.07822     115.9445     115.9445            0            0            0            0     115.9445       1160.4    1276.3445 
  169400    320.94147    11.629744    11.629744            0            0            0            0    11.629744    1249.4052     1261.035 
  169600     315.6729    77.641596    77.641596            0            0            0            0    77.641596     1228.895    1306.5366 
  169800    306.17237    7.7776587    7.7776587            0            0            0            0    7.7776587      1191.91    1199.6877 
  170000    294.68822    127.30148    127.30148            0            0            0            0    127.30148    1147.2029    1274.5044 
  170200     326.0811    35.898172    35.898172            0            0            0            0    35.898172    1269.4135    1305.3117 
  170400    316.95381    130.57969    130.57969            0            0            0            0    130.57969    1233.8815    1364.4612 
  170600    303.18803    235.96443    235.96443            0            0            0            0    235.96443    1180.2922    1416.2566 
  170800    320.89692    4.1833196    4.1833196            0            0            0            0    4.1833196    1249.2318    1253.4151 
  171000    306.27731    61.870734    61.870734            0            0            0            0    61.870734    1192.3186    1254.1893 
  171200    296.32588     52.74504     52.74504            0            0            0            0     52.74504    1153.5782    1206.3233 
  171400    310.22295     62.52712     62.52712            0            0            0            0     62.52712    1207.6787    1270.2058 
  171600    299.78037    19.834695    19.834695            0            0            0            0    19.834695    1167.0264    1186.8611 
  171800    278.84455    130.29297    130.29297            0            0            0            0    130.29297    1085.5245    1215.8175 
  172000     304.6043   -19.732034   -19.732034            0            0            0            0   -19.732034    1185.8056    1166.0736 
  172200    312.45085    73.844653    73.844653            0            0            0            0    73.844653    1216.3518    1290.1964 
  172400    283.77982    263.10185    263.10185            0            0            0            0    263.10185    1104.7372    1367.8391 
  172600    298.62354   -9.5603809   -9.5603809            0            0            0            0   -9.5603809    1162.5229    1152.9625 
  172800    304.66464   -18.594198   -18.594198            0            0            0            0   -18.594198    1186.0405    1167.4463 
  173000    254.38188    224.22011    224.22011            0            0            0            0    224.22011    990.29287     1214.513 
  173200    290.04124    193.83154    193.83154            0            0            0            0    193.83154    1129.1125    1322.9441 
  173400     323.7767    39.646333    39.646333            0            0            0            0    39.646333    1260.4426    1300.0889 
  173600    311.97928   -25.802709   -25.802709            0            0            0            0   -25.802709     1214.516    1188.7133 
  173800    325.34246   -6.4676258   -6.4676258            0            0            0            0   -6.4676258     1266.538    1260.0704 
  174000    297.79502    27.775188    27.775188            0            0            0            0    27.775188    1159.2975    1187.0727 
  174200    324.80097    46.047076    46.047076            0            0            0            0    46.047076      1264.43    1310.4771 
  174400    321.19894    77.769026    77.769026            0            0            0            0    77.769026    1250.4075    1328.1766 
  174600    303.99633    152.96707    152.96707            0            0            0            0    152.96707    1183.4388    1336.4059 
  174800    308.38333    107.38786    107.38786            0            0            0            0    107.38786    1200.5172     1307.905 
  175000    318.29883   -20.485563   -20.485563            0            0            0            0   -20.485563    1239.1176     1218.632 
  175200    308.74954     87.56475     87.56475            0            0            0            0     87.56475    1201.9428    1289.5075 
  175400    316.47356    84.943622    84.943622            0            0            0            0    84.943622    1232.0119    1316.9555 
  175600    327.45342    19.564121    19.564121            0            0            0            0    19.564121    1274.7559      1294.32 
  175800    323.62104   -16.775898   -16.775898            0            0            0            0   -16.775898    1259.8366    1243.0607 
  176000    292.55536    139.69955    139.69955            0            0            0            0    139.69955    1138.8998    1278.5994 
  176200    289.97029    97.203456    97.203456            0            0            0            0    97.203456    1128.8363    1226.0398 
  176400    314.66418    11.268458    11.268458            0            0            0            0    11.268458    1224.9681    1236.2366 
  176600    320.26032    4.3796244    4.3796244            0            0            0            0    4.3796244    1246.7535    1251.1332 
  176800    314.86515   -0.3784493   -0.3784493            0            0            0            0   -0.3784493    1225.7505     1225.372 
  177000    302.29663    6.9137725    6.9137725            0            0            0            0    6.9137725     1176.822    1183.7358 
  177200    299.94534    86.817937    86.817937            0            0            0            0    86.817937    1167.6686    1254.4865 
  177400    285.29515    102.85367    102.85367            0            0            0            0    102.85367    1110.6363      1213.49 
  177600    326.43606    27.871641    27.871641            0            0            0            0    27.871641    1270.7953     1298.667 
  177800     299.8554    164.69066    164.69066            0            0            0            0    164.69066    1167.3184    1332.0091 
  178000    305.15386   -17.729743   -17.729743            0            0            0            0   -17.729743     1187.945    1170.2153 
  178200    309.22687   -3.9702993   -3.9702993            0            0            0            0   -3.9702993     1203.801    1199.8307 
  178400     345.2287    38.724478    38.724478            0            0            0            0    38.724478    1343.9539    1382.6784 
  178600    323.41588     56.23726     56.23726            0            0            0            0     56.23726    1259.0379    1315.2752 
  178800    323.24567    -13.50853    -13.50853            0            0            0            0    -13.50853    1258.3753    1244.8668 
  179000    342.88751    20.775172    20.775172            0            0            0            0    20.775172    1334.8398     1355.615 
  179200    295.04547    72.143233    72.143233            0            0            0            0    72.143233    1148.5937    1220.7369 
  179400    313.98177    73.991365    73.991365            0            0            0            0    73.991365    1222.3115    1296.3029 
  179600    325.49163    33.954398    33.954398            0            0            0            0    33.954398    1267.1187    1301.0731 
  179800    309.21805   -12.505637   -12.505637            0            0            0            0   -12.505637    1203.7667     1191.261 
  180000    315.12777    126.72618    126.72618            0            0            0            0    126.72618    1226.7728     1353.499 
  180200    318.08243     56.17786     56.17786            0            0            0            0     56.17786    1238.2751     1294.453 
  180400    305.16731   -11.239206   -11.239206            0            0            0            0   -11.239206    1187.9974    1176.7582 
  180600    292.61452    135.18582    135.18582            0            0            0            0    135.18582    1139.1302     1274.316 
  180800    300.85785    19.067092    19.067092            0            0            0            0    19.067092    1171.2209     1190.288 
  181000    314.20408    42.310494    42.310494            0            0            0            0    42.310494     1223.177    1265.4875 
  181200      295.001    147.51371    147.51371            0            0            0            0    147.51371    1148.4206    1295.9343 
  181400    313.28583   -4.4300871   -4.4300871            0            0            0            0   -4.4300871    1219.6023    1215.1722 
  181600    305.13189    47.162136    47.162136            0            0            0            0    47.162136    1187.8595    1235.0216 
  181800    312.60899    54.678687    54.678687            0            0            0            0    54.678687    1216.9674    1271.6461 
  182000    291.92034    86.150305    86.150305            0            0            0            0    86.150305    1136.4278    1222.5781 
  182200    313.65469    101.54129    101.54129            0            0            0            0    101.54129    1221.0383    1322.5795 
  182400    311.09855    137.36002    137.36002            0            0            0            0    137.36002    1211.0873    1348.4474 
  182600    309.38524    4.7862593    4.7862593            0            0            0            0    4.7862593    1204.4175    1209.2038 
  182800    335.47379     9.363102     9.363102            0            0            0            0     9.363102    1305.9786    1315.3417 
  183000    339.87346   -15.319273   -15.319273            0            0            0            0   -15.319273    1323.1063     1307.787 
  183200    296.24879    58.810815    58.810815            0            0            0            0    58.810815    1153.2782     1212.089 
  183400    316.32566    11.867966    11.867966            0            0            0            0    11.867966    1231.4362    1243.3041 
  183600    320.45453   -1.8359466   -1.8359466            0            0            0            0   -1.8359466    1247.5096    1245.6736 
  183800    309.61347    12.153734    12.153734            0            0            0            0    12.153734     1205.306    1217.4598 
  184000    331.71405    97.404835    97.404835            0            0            0            0    97.404835    1291.3422     1388.747 
  184200    300.20188    146.80068    146.80068            0            0            0            0    146.80068    1168.6673     1315.468 
  184400    312.22565   -25.199916   -25.199916            0            0            0            0   -25.199916    1215.4751    1190.2752 
  184600    314.86753    80.535995    80.535995            0            0            0            0    80.535995    1225.7598    1306.2958 
  184800    322.23492    163.36961    163.36961            0            0            0            0    163.36961    1254.4405    1417.8101 
  185000    304.59849   -13.523573   -13.523573            0            0            0            0   -13.523573     1185.783    1172.2594 
  185200    342.02261     72.78564     72.78564            0            0            0            0     72.78564    1331.4728    1404.2584 
  185400    306.34516    20.085354    20.085354            0            0            0            0    20.085354    1192.5827     1212.668 
  185600    330.03809    -23.81157    -23.81157            0            0            0            0    -23.81157    1284.8178    1261.0062 
  185800    278.72278    274.37442    274.37442            0            0            0            0    274.37442    1085.0505    1359.4249 
  186000    303.01601    29.099935    29.099935            0            0            0            0    29.099935    1179.6225    1208.7225 
  186200    323.11616    76.439118    76.439118            0            0            0            0    76.439118    1257.8711    1334.3103 
  186400    309.18327   -6.7303999   -6.7303999            0            0            0            0   -6.7303999    1203.6313    1196.9009 
  186600    334.42657    137.63453    137.63453            0            0            0            0    137.63453    1301.9019    1439.5364 
  186800    310.38776   -4.8598165   -4.8598165            0            0            0            0   -4.8598165    1208.3203    1203.4605 
  187000    330.58666   -26.754781   -26.754781            0            0            0            0   -26.754781    1286.9533    1260.1986 
  187200    328.77055    24.818261    24.818261            0            0            0            0    24.818261    1279.8833    1304.7016 
  187400    291.06745    65.868186    65.868186            0            0            0            0    65.868186    1133.1075    1198.9757 
  187600    319.38479    7.9872949    7.9872949            0            0            0            0    7.9872949    1243.3452    1251.3325 
  187800    307.07792    92.137436    92.137436            0            0            0            0    92.137436    1195.4353    1287.5727 
  188000    302.35247   -1.0057746   -1.0057746            0            0            0            0   -1.0057746    1177.0394    1176.0336 
  188200    313.70648    -28.54715    -28.54715            0            0            0            0    -28.54715    1221.2399    1192.6927 
  188400    333.61085    17.336156    17.336156            0            0            0            0    17.336156    1298.7263    1316.0625 
  188600    309.92274   -26.746195   -26.746195            0            0            0            0   -26.746195      1206.51    1179.7638 
  188800    334.64294    105.61837    105.61837            0            0            0            0    105.61837    1302.7442    1408.3626 
  189000    330.62077    -8.803139    -8.803139            0            0            0            0    -8.803139    1287.0861     1278.283 
  189200    320.85528   -0.9712338   -0.9712338            0            0            0            0   -0.9712338    1249.0697    1248.0985 
  189400    301.65266    40.325814    40.325814            0            0            0            0    40.325814    1174.3151    1214.6409 
  189600    296.48395     85.35683     85.35683            0            0            0            0     85.35683    1154.1936    1239.5504 
  189800    307.73454    23.843311    23.843311            0            0            0            0    23.843311    1197.9915    1221.8348 
  190000    305.09137    144.47222    144.47222            0            0            0            0    144.47222    1187.7018     1332.174 
  190200     333.3253   -1.2173136   -1.2173136            0            0            0            0   -1.2173136    1297.6147    1296.3974 
  190400    320.66882   -6.2110492   -6.2110492            0            0            0            0   -6.2110492    1248.3438    1242.1328 
  190600     298.5102      16.5984      16.5984            0            0            0            0      16.5984    1162.0817    1178.6801 
  190800    306.76759    6.8502162    6.8502162            0            0            0            0    6.8502162    1194.2272    1201.0774 
  191000    288.01566    165.21729    165.21729            0            0            0            0    165.21729    1121.2271    1286.4444 
  191200    312.69266     9.977493     9.977493            0            0            0            0     9.977493    1217.2931    1227.2706 
  191400    314.31373    31.764156    31.764156            0            0            0            0    31.764156    1223.6038     1255.368 
  191600    353.01074   -1.7036447   -1.7036447            0            0            0            0   -1.7036447    1374.2489    1372.5453 
  191800    288.92673    185.82649    185.82649            0            0            0            0    185.82649    1124.7738    1310.6003 
  192000    304.58451   -11.121914   -11.121914            0            0            0            0   -11.121914    1185.7286    1174.6067 
  192200    312.55885    9.8169489    9.8169489            0            0            0            0    9.8169489    1216.7722    1226.5892 
  192400    313.31945    104.19571    104.19571            0            0            0            0    104.19571    1219.7332    1323.9289 
  192600    332.78512    25.047406    25.047406            0            0            0            0    25.047406    1295.5118    1320.5592 
  192800    284.84329     168.9266     168.9266            0            0            0            0     168.9266    1108.8773    1277.8039 
  193000     299.5606    33.013892    33.013892            0            0            0            0    33.013892    1166.1708    1199.1847 
  193200     292.6368    72.821019    72.821019            0            0            0            0    72.821019    1139.2169    1212.0379 
  193400    314.06503   0.76682509   0.76682509            0            0            0            0   0.76682509    1222.6357    1223.4025 
  193600    308.74595    1.2606198    1.2606198            0            0            0            0    1.2606198    1201.9288    1203.1894 
  193800    313.61997    152.97995    152.97995            0            0            0            0    152.97995    1220.9031     1373.883 
  194000    305.78688   -22.219769   -22.219769            0            0            0            0   -22.219769    1190.4093    1168.1896 
  194200    315.03434    185.91432    185.91432            0            0            0            0    185.91432    1226.4091    1412.3234 
  194400    325.82356    14.484416    14.484416            0            0            0            0    14.484416    1268.4109    1282.8953 
  194600    333.01041   -14.617648   -14.617648            0            0            0            0   -14.617648    1296.3889    1281.7712 
  194800    310.23202    128.71444    128.71444            0            0            0            0    128.71444     1207.714    1336.4284 
  195000    297.38815    174.63423    174.63423            0            0            0            0    174.63423    1157.7136    1332.3478 
  195200    320.99716   -10.715058   -10.715058            0            0            0            0   -10.715058     1249.622     1238.907 
  195400    319.60334    97.404974    97.404974            0            0            0            0    97.404974     1244.196    1341.6009 
  195600     340.4388    104.95289    104.95289            0            0            0            0    104.95289    1325.3071      1430.26 
  195800    325.65811    109.49566    109.49566            0            0            0            0    109.49566    1267.7668    1377.2624 
  196000     288.1113    147.04492    147.04492            0            0            0            0    147.04492    1121.5994    1268.6443 
  196200    334.89274    14.568645    14.568645            0            0            0            0    14.568645    1303.7167    1318.2853 
  196400    344.69619    62.667991    62.667991            0            0            0            0    62.667991    1341.8809    1404.5489 
  196600    306.78034    50.080902    50.080902            0            0            0            0    50.080902    1194.2768    1244.3577 
  196800    306.76064    15.313411    15.313411            0            0            0            0    15.313411    1194.2001    1209.5135 
  197000    313.64224    98.496736    98.496736            0            0            0            0    98.496736    1220.9898    1319.4865 
  197200    305.41327    8.3283865    8.3283865            0            0            0            0    8.3283865    1188.9549    1197.2833 
  197400    333.51644     8.806189     8.806189            0            0            0            0     8.806189    1298.3588     1307.165 
  197600    300.06933    147.08742    147.08742            0            0            0            0    147.08742    1168.1513    1315.2387 
  197800    310.24371    32.956818    32.956818            0            0            0            0    32.956818    1207.7595    1240.7163 
  198000    326.05152    35.356239    35.356239            0            0            0            0    35.356239    1269.2983    1304.6546 
  198200    280.13164    183.80559    183.80559            0            0            0            0    183.80559    1090.5351    1274.3407 
  198400    329.25837    9.8594689    9.8594689            0            0            0            0    9.8594689    1281.7824    1291.6419 
  198600    295.45901    152.59307    152.59307            0            0            0            0    152.59307    1150.2036    1302.7967 
  198800    305.25845   -24.395053   -24.395053            0            0            0            0   -24.395053    1188.3522    1163.9572 
  199000     307.1949    147.17799    147.17799            0            0            0            0    147.17799    1195.8907    1343.0687 
  199200    305.93885   -13.144991   -13.144991            0            0            0            0   -13.144991    1191.0009     1177.856 
  199400     302.6138    1.1744287    1.1744287            0            0            0            0    1.1744287    1178.0568    1179.2312 
  199600       296.52    28.013865    28.013865            0            0            0            0    28.013865    1154.3339    1182.3478 
  199800    325.31983    4.7647476    4.7647476            0            0            0            0    4.7647476    1266.4499    1271.2147 
  200000    303.37361    112.35515    112.35515            0            0            0            0    112.35515    1181.0146    1293.3698 
  200200    312.60805   -12.447316   -12.447316            0            0            0            0   -12.447316    1216.9637    1204.5164 
  200400    333.94686    64.925859    64.925859            0            0            0            0    64.925859    1300.0344    1364.9603 
  200600    311.23156    -8.860329    -8.860329            0            0            0            0    -8.860329    1211.6051    1202.7448 
  200800    306.69151   -20.401052   -20.401052            0            0            0            0   -20.401052     1193.931      1173.53 
  201000    315.78084    58.249207    58.249207            0            0            0            0    58.249207    1229.3152    1287.5644 
  201200    323.34138    71.668011    71.668011            0            0            0            0    71.668011    1258.7479    1330.4159 
  201400    282.50392    115.99554    115.99554            0            0            0            0    115.99554    1099.7702    1215.7657 
  201600    302.72977    5.9770704    5.9770704            0            0            0            0    5.9770704    1178.5082    1184.4853 
  201800    328.54117    69.380689    69.380689            0            0            0            0    69.380689    1278.9904    1348.3711 
  202000     330.0507    106.26198    106.26198            0            0            0            0    106.26198    1284.8669    1391.1289 
  202200    274.04759    175.16354    175.16354            0            0            0            0    175.16354    1066.8503    1242.0138 
  202400    288.81996    156.00266    156.00266            0            0            0            0    156.00266    1124.3582    1280.3608 
  202600     329.3566    13.834921    13.834921            0            0            0            0    13.834921    1282.1648    1295.9997 
  202800    294.85382    42.923997    42.923997            0            0            0            0    42.923997    1147.8476    1190.7716 
  203000    298.53428    80.111845    80.111845            0            0            0            0    80.111845    1162.1754    1242.2873 
  203200    301.00379   -11.624773   -11.624773            0            0            0            0   -11.624773    1171.7891    1160.1643 
  203400    322.18564    53.351903    53.351903            0            0            0            0    53.351903    1254.2487    1307.6006 
  203600    330.15065    70.649774    70.649774            0            0            0            0    70.649774     1285.256    1355.9058 
  203800    302.98454    89.845821    89.845821            0            0            0            0    89.845821       1179.5    1269.3458 
  204000    315.38087   -18.844006   -18.844006            0            0            0            0   -18.844006    1227.7582    1208.9142 
  204200    319.44993    49.715329    49.715329            0            0            0            0    49.715329    1243.5987    1293.3141 
  204400    306.54046    72.393352    72.393352            0            0            0            0    72.393352     1193.343    1265.7363 
  204600     315.6879    91.042066    91.042066            0            0            0            0    91.042066    1228.9534    1319.9955 
  204800    312.12385    -14.32379    -14.32379            0            0            0            0    -14.32379    1215.0788     1200.755 
  205000    287.47454    105.42653    105.42653            0            0            0            0    105.42653    1119.1205    1224.5471 
  205200     332.6701    133.18758    133.18758            0            0            0            0    133.18758     1295.064    1428.2516 
  205400    320.72225    -9.431404    -9.431404            0            0            0            0    -9.431404    1248.5518    1239.1204 
  205600    330.82778    55.033878    55.033878            0            0            0            0    55.033878     1287.892    1342.9259 
  205800    297.46636     54.34693     54.34693            0            0            0            0     54.34693    1158.0181     1212.365 
  206000    336.93806     42.51143     42.51143            0            0            0            0     42.51143     1311.679    1354.1904 
  206200    318.52634    51.928104    51.928104            0            0            0            0    51.928104    1240.0033    1291.9314 
  206400    318.12259     81.87652     81.87652            0            0            0            0     81.87652    1238.4315     1320.308 
  206600    315.21249    83.978925    83.978925            0            0            0            0    83.978925    1227.1027    1311.0816 
  206800     317.6568    227.87609    227.87609            0            0            0            0    227.87609    1236.6182    1464.4943 
  207000    288.38285     134.8308     134.8308            0            0            0            0     134.8308    1122.6565    1257.4873 
  207200     303.6219   -20.634645   -20.634645            0            0            0            0   -20.634645    1181.9812    1161.3465 
  207400    370.95447    68.117519    68.117519            0            0            0            0    68.117519    1444.1027    1512.2202 
  207600    294.39019    72.273874    72.273874            0            0            0            0    72.273874    1146.0427    1218.3166 
  207800    330.45923   -17.484715   -17.484715            0            0            0            0   -17.484715    1286.4573    1268.9726 
  208000    274.93196    230.18818    230.18818            0            0            0            0    230.18818    1070.2931    1300.4812 
  208200    305.44511    44.717565    44.717565            0            0            0            0    44.717565    1189.0788    1233.7964 
  208400    295.47957     102.6457     102.6457            0            0            0            0     102.6457    1150.2836    1252.9293 
  208600    331.65493    38.548607    38.548607            0            0            0            0    38.548607    1291.1121    1329.6607 
  208800    298.34866    132.79059    132.79059            0            0            0            0    132.79059    1161.4528    1294.2434 
  209000    313.80956  -0.72255244  -0.72255244            0            0            0            0  -0.72255244    1221.6411    1220.9186 
  209200    321.75311    96.095606    96.095606            0            0            0            0    96.095606    1252.5649    1348.6605 
  209400    303.73505    -3.012578    -3.012578            0            0            0            0    -3.012578    1182.4217    1179.4091 
  209600    308.36326    62.467357    62.467357            0            0            0            0    62.467357     1200.439    1262.9064 
  209800    315.45557   -8.0599717   -8.0599717            0            0            0            0   -8.0599717     1228.049     1219.989 
  210000    319.51473    79.438777    79.438777            0            0            0            0    79.438777     1243.851    1323.2898 
  210200    319.61567   -13.100951   -13.100951            0            0            0            0   -13.100951    1244.2439     1231.143 
  210400    315.00805    130.47532    130.47532            0            0            0            0    130.47532    1226.3068    1356.7821 
  210600     287.1431    237.11112    237.11112            0            0            0            0    237.11112    1117.8303    1354.9414 
  210800     303.5353   -9.9381005   -9.9381005            0            0            0            0   -9.9381005    1181.6441     1171.706 
  211000    273.03544    145.81312    145.81312            0            0            0            0    145.81312      1062.91    1208.7231 
  211200    317.53118    53.193614    53.193614            0            0            0            0    53.193614    1236.1292    1289.3228 
  211400    298.11808    47.341641    47.341641            0            0            0            0    47.341641    1160.5552    1207.8968 
  211600    325.34218     57.21125     57.21125            0            0            0            0     57.21125    1266.5369    1323.7482 
  211800      322.169     18.50907     18.50907            0            0            0            0     18.50907    1254.1839     1272.693 
  212000    310.11868    46.728951    46.728951            0            0            0            0    46.728951    1207.2728    1254.0017 
  212200    307.24137    64.083289    64.083289            0            0            0            0    64.083289    1196.0716    1260.1549 
  212400    292.96052    144.30088    144.30088            0            0            0            0    144.30088    1140.4771     1284.778 
  212600    321.20884   -3.9207424   -3.9207424            0            0            0            0   -3.9207424    1250.4461    1246.5253 
  212800    293.67203    134.82722    134.82722            0            0            0            0    134.82722     1143.247    1278.0742 
  213000    315.15389    77.648946    77.648946            0            0            0            0    77.648946    1226.8745    1304.5235 
  213200    309.49358   0.92393793   0.92393793            0            0            0            0   0.92393793    1204.8393    1205.7632 
  213400    307.18328    95.972828    95.972828            0            0            0            0    95.972828    1195.8454    1291.8183 
  213600    310.96136      4.22319      4.22319            0            0            0            0      4.22319    1210.5533    1214.7765 
  213800    315.73085    27.516767    27.516767            0            0            0            0    27.516767    1229.1206    1256.6374 
  214000    258.46039    329.04959    329.04959            0            0            0            0    329.04959    1006.1702    1335.2198 
  214200    289.74999    53.473056    53.473056            0            0            0            0    53.473056    1127.9787    1181.4518 
  214400    299.07796    80.219453    80.219453            0            0            0            0    80.219453    1164.2919    1244.5114 
  214600    323.76357    107.78931    107.78931            0            0            0            0    107.78931    1260.3915    1368.1808 
  214800    318.84883    68.011158    68.011158            0            0            0            0    68.011158    1241.2587    1309.2699 
  215000    303.56329    11.828593    11.828593            0            0            0            0    11.828593     1181.753    1193.5816 
  215200    310.55539    27.819068    27.819068            0            0            0            0    27.819068    1208.9729    1236.7919 
  215400    311.34161    31.898455    31.898455            0            0            0            0    31.898455    1212.0336     1243.932 
  215600    326.76793   -10.117637   -10.117637            0            0            0            0   -10.117637    1272.0873    1261.9696 
  215800    318.87189    80.432802    80.432802            0            0            0            0    80.432802    1241.3485    1321.7813 
  216000    308.09009    86.848765    86.848765            0            0            0            0    86.848765    1199.3756    1286.2244 
  216200     325.0461     71.67569     71.67569            0            0            0            0     71.67569    1265.3843      1337.06 
  216400    296.18901    89.202663    89.202663            0            0            0            0    89.202663    1153.0454    1242.2481 
  216600    326.65826   -13.214403   -13.214403            0            0            0            0   -13.214403    1271.6603    1258.4459 
  216800    297.30933    183.84683    183.84683            0            0            0            0    183.84683    1157.4068    1341.2536 
  217000    287.40624    136.88656    136.88656            0            0            0            0    136.88656    1118.8547    1255.7412 
  217200    299.09543    72.182486    72.182486            0            0            0            0    72.182486    1164.3599    1236.5424 
  217400     312.1981    43.831607    43.831607            0            0            0            0    43.831607    1215.3678    1259.1994 
  217600    321.71887    50.764401    50.764401            0            0            0            0    50.764401    1252.4316     1303.196 
  217800    317.17054    105.01687    105.01687            0            0            0            0    105.01687    1234.7252    1339.7421 
  218000     298.0972    77.926356    77.926356            0            0            0            0    77.926356    1160.4739    1238.4002 
  218200    292.62989    112.33645    112.33645            0            0            0            0    112.33645      1139.19    1251.5265 
  218400    304.98726    28.572443    28.572443            0            0            0            0    28.572443    1187.2965    1215.8689 
  218600    311.34655    27.559074    27.559074            0            0            0            0    27.559074    1212.0528    1239.6119 
  218800    317.70152    26.052528    26.052528            0            0            0            0    26.052528    1236.7923    1262.8448 
  219000     301.4211    160.01911    160.01911            0            0            0            0    160.01911    1173.4136    1333.4328 
  219200     305.1178    38.311084    38.311084            0            0            0            0    38.311084    1187.8047    1226.1157 
  219400    313.51273    -21.09015    -21.09015            0            0            0            0    -21.09015    1220.4856    1199.3954 
  219600    314.03997    98.212398    98.212398            0            0            0            0    98.212398    1222.5381    1320.7505 
  219800     293.1107    95.573036    95.573036            0            0            0            0    95.573036    1141.0618    1236.6348 
  220000    322.29922    14.399062    14.399062            0            0            0            0    14.399062    1254.6909    1269.0899 
  220200    313.86972    40.269966    40.269966            0            0            0            0    40.269966    1221.8753    1262.1453 
  220400    351.69726    30.852547    30.852547            0            0            0            0    30.852547    1369.1356    1399.9882 
  220600    311.81433    96.945049    96.945049            0            0            0            0    96.945049    1213.8738    1310.8189 
  220800     330.8292    29.620289    29.620289            0            0            0            0    29.620289    1287.8975    1317.5178 
  221000    332.40177    56.125443    56.125443            0            0            0            0    56.125443    1294.0195    1350.1449 
  221200    331.28093     24.31444     24.31444            0            0            0            0     24.31444    1289.6561    1313.9705 
  221400    298.64493    120.93726    120.93726            0            0            0            0    120.93726    1162.6062    1283.5434 
  221600    305.58058    125.58478    125.58478            0            0            0            0    125.58478    1189.6062     1315.191 
  221800    323.08187    36.484396    36.484396            0            0            0            0    36.484396    1257.7377    1294.2221 
  222000    298.09624    226.71906    226.71906            0            0            0            0    226.71906    1160.4701    1387.1892 
  222200    334.61897    14.702649    14.702649            0            0            0            0    14.702649    1302.6509    1317.3535 
  222400     314.6942    79.118642    79.118642            0            0            0            0    79.118642     1225.085    1304.2036 
  222600    308.90351    128.07008    128.07008            0            0            0            0    128.07008    1202.5422    1330.6123 
  222800     326.0148   -8.8087072   -8.8087072            0            0            0            0   -8.8087072    1269.1554    1260.3467 
  223000    301.80065    115.71635    115.71635            0            0            0            0    115.71635    1174.8912    1290.6076 
  223200    284.35248    94.671321    94.671321            0            0            0            0    94.671321    1106.9665    1201.6379 
  223400     336.7369    19.872311    19.872311            0            0            0            0    19.872311    1310.8959    1330.7682 
  223600    308.77328   -9.4755384   -9.4755384            0            0            0            0   -9.4755384    1202.0352    1192.5597 
  223800    309.57904    137.95473    137.95473            0            0            0            0    137.95473     1205.172    1343.1267 
  224000    334.60738     3.737734     3.737734            0            0            0            0     3.737734    1302.6058    1306.3435 
  224200    285.98808    84.668763    84.668763            0            0            0            0    84.668763    1113.3339    1198.0026 
  224400    300.66734    161.32252    161.32252            0            0            0            0    161.32252    1170.4793    1331.8018 
  224600    330.97507    35.078493    35.078493            0            0            0            0    35.078493    1288.4654    1323.5439 
  224800    304.42835    8.7412391    8.7412391            0            0            0            0    8.7412391    1185.1207    1193.8619 
  225000      290.005    156.38256    156.38256            0            0            0            0    156.38256    1128.9715     1285.354 
  225200    295.27713    102.00239    102.00239            0            0            0            0    102.00239    1149.4955    1251.4979 
  225400    306.01218    24.392595    24.392595            0            0            0            0    24.392595    1191.2864     1215.679 
  225600    291.16203    102.96387    102.96387            0            0            0            0    102.96387    1133.4757    1236.4396 
  225800    310.64983   -22.294576   -22.294576            0            0            0            0   -22.294576    1209.3405    1187.0459 
  226000    287.96106    150.55329    150.55329            0            0            0            0    150.55329    1121.0145    1271.5678 
  226200    305.70021    60.001373    60.001373            0            0            0            0    60.001373    1190.0719    1250.0733 
  226400    304.40998    68.874517    68.874517            0            0            0            0    68.874517    1185.0492    1253.9237 
  226600    304.88116    124.21704    124.21704            0            0            0            0    124.21704    1186.8834    1311.1005 
  226800    301.75428    167.37625    167.37625            0            0            0            0    167.37625    1174.7107    1342.0869 
  227000    290.58491     226.8492     226.8492            0            0            0            0     226.8492     1131.229    1358.0782 
  227200    319.41351    100.08383    100.08383            0            0            0            0    100.08383     1243.457    1343.5408 
  227400    335.68589    40.235462    40.235462            0            0            0            0    40.235462    1306.8043    1347.0398 
  227600    311.73087   -1.3645793   -1.3645793            0            0            0            0   -1.3645793    1213.5489    1212.1843 
  227800    344.04002    168.24155    168.24155            0            0            0            0    168.24155    1339.3264     1507.568 
  228000    292.70052     139.6107     139.6107            0            0            0            0     139.6107     1139.465    1279.0757 
  228200    303.37256    74.241968    74.241968            0            0            0            0    74.241968    1181.0105    1255.2525 
  228400    312.36288    17.099526    17.099526            0            0            0            0    17.099526    1216.0093    1233.1088 
  228600     312.0698   -15.496348   -15.496348            0            0            0            0   -15.496348    1214.8683     1199.372 
  228800    352.84253    44.827626    44.827626            0            0            0            0    44.827626    1373.5941    1418.4217 
  229000     298.6877   -18.998809   -18.998809            0            0            0            0   -18.998809    1162.7727    1143.7739 
  229200    309.72964   -2.4893559   -2.4893559            0            0            0            0   -2.4893559    1205.7582    1203.2689 
  229400     332.4671    129.44783    129.44783            0            0            0            0    129.44783    1294.2738    1423.7216 
  229600     325.0874    85.426521    85.426521            0            0            0            0    85.426521    1265.5451    1350.9716 
  229800      297.055    44.070585    44.070585            0            0            0            0    44.070585    1156.4167    1200.4872 
  230000    323.47956    44.334664    44.334664            0            0            0            0    44.334664    1259.2859    1303.6205 
  230200     316.5586    5.0028191    5.0028191            0            0            0            0    5.0028191     1232.343    1237.3458 
  230400    322.88977     52.18039     52.18039            0            0            0            0     52.18039    1256.9898    1309.1702 
  230600    344.04427    40.886085    40.886085            0            0            0            0    40.886085     1339.343    1380.2291 
  230800    322.07643    19.824448    19.824448            0            0            0            0    19.824448    1253.8236     1273.648 
  231000    300.18616    31.040579    31.040579            0            0            0            0    31.040579    1168.6061    1199.6467 
  231200    323.04103    34.982007    34.982007            0            0            0            0    34.982007    1257.5787    1292.5607 
  231400    296.99131    166.92958    166.92958            0            0            0            0    166.92958    1156.1687    1323.0983 
  231600    323.93203    4.0530544    4.0530544            0            0            0            0    4.0530544    1261.0473    1265.1003 
  231800    297.02574    190.04596    190.04596            0            0            0            0    190.04596    1156.3028    1346.3487 
  232000    285.65596    215.29708    215.29708            0            0            0            0    215.29708    1112.0409     1327.338 
  232200    298.64328    23.499858    23.499858            0            0            0            0    23.499858    1162.5998    1186.0996 
  232400     308.2018    64.295072    64.295072            0            0            0            0    64.295072    1199.8105    1264.1055 
  232600    322.75851     87.43556     87.43556            0            0            0            0     87.43556    1256.4788    1343.9144 
  232800    316.36945    18.656111    18.656111            0            0            0            0    18.656111    1231.6066    1250.2627 
  233000    308.73502   -22.998866   -22.998866            0            0            0            0   -22.998866    1201.8863    1178.8874 
  233200    323.48243    207.20369    207.20369            0            0            0            0    207.20369     1259.297    1466.5007 
  233400    306.00201    48.609258    48.609258            0            0            0            0    48.609258    1191.2468    1239.8561 
  233600    309.60721   -19.024358   -19.024358            0            0            0            0   -19.024358    1205.2816    1186.2573 
  233800    229.28347    360.25158    360.25158            0            0            0            0    360.25158    892.58631    1252.8379 
  234000    356.67361    8.2690091    8.2690091            0            0            0            0    8.2690091    1388.5082    1396.7772 
  234200    314.97748     62.89883     62.89883            0            0            0            0     62.89883    1226.1878    1289.0866 
  234400    275.71076    287.52429    287.52429            0            0            0            0    287.52429    1073.3249    1360.8492 
  234600    316.89257    6.0159634    6.0159634            0            0            0            0    6.0159634    1233.6431    1239.6591 
  234800    301.25249    35.545533    35.545533            0            0            0            0    35.545533    1172.7572    1208.3028 
  235000    326.22561     -23.4573     -23.4573            0            0            0            0     -23.4573    1269.9761    1246.5188 
  235200    290.97339    93.783179    93.783179            0            0            0            0    93.783179    1132.7414    1226.5245 
  235400    315.79397    98.610402    98.610402            0            0            0            0    98.610402    1229.3663    1327.9767 
  235600    303.70479    -8.280939    -8.280939            0            0            0            0    -8.280939    1182.3039     1174.023 
  235800    306.09201    248.97068    248.97068            0            0            0            0    248.97068    1191.5972    1440.5679 
  236000    341.73372   -17.458707   -17.458707            0            0            0            0   -17.458707    1330.3481    1312.8894 
  236200    307.40596    77.531417    77.531417            0            0            0            0    77.531417    1196.7123    1274.2437 
  236400     297.4444    79.392711    79.392711            0            0            0            0    79.392711    1157.9326    1237.3253 
  236600    304.80516    25.145837    25.145837            0            0            0            0    25.145837    1186.5876    1211.7334 
  236800    298.15076    40.284402    40.284402            0            0            0            0    40.284402    1160.6824    1200.9668 
  237000    336.86281    31.653901    31.653901            0            0            0            0    31.653901     1311.386    1343.0399 
  237200    351.51552   -5.4230298   -5.4230298            0            0            0            0   -5.4230298    1368.4281    1363.0051 
  237400    333.40768    35.518574    35.518574            0            0            0            0    35.518574    1297.9354     1333.454 
  237600    313.54623    39.738961    39.738961            0            0            0            0    39.738961     1220.616     1260.355 
  237800    340.48885    102.34744    102.34744            0            0            0            0    102.34744     1325.502    1427.8494 
  238000    303.79696    5.6120019    5.6120019            0            0            0            0    5.6120019    1182.6627    1188.2747 
  238200    308.64204    -7.856391    -7.856391            0            0            0            0    -7.856391    1201.5243    1193.6679 
  238400    347.33303    130.69002    130.69002            0            0            0            0    130.69002    1352.1459    1482.8359 
  238600    318.70093    -18.35922    -18.35922            0            0            0            0    -18.35922    1240.6829    1222.3237 
  238800    315.01734    165.69638    165.69638            0            0            0            0    165.69638     1226.343    1392.0393 
  239000    295.00771    53.390528    53.390528            0            0            0            0    53.390528    1148.4467    1201.8372 
  239200    306.73583    190.80664    190.80664            0            0            0            0    190.80664    1194.1035    1384.9102 
  239400    295.25074    52.891779    52.891779            0            0            0            0    52.891779    1149.3928    1202.2846 
  239600    270.63109    199.66075    199.66075            0            0            0            0    199.66075      1053.55    1253.2108 
  239800    288.26677    89.958706    89.958706            0            0            0            0    89.958706    1122.2046    1212.1633 
  240000    303.18446    49.808631    49.808631            0            0            0            0    49.808631    1180.2783    1230.0869 
  240200    316.50864    80.014451    80.014451            0            0            0            0    80.014451    1232.1485    1312.1629 
  240400    301.06548    9.9371074    9.9371074            0            0            0            0    9.9371074    1172.0292    1181.9663 
  240600    318.06812    -6.971729    -6.971729            0            0            0            0    -6.971729    1238.2194    