LAMMPS (30 Jul 2016)

# ----------------- Init Section -----------------

units real
processors 1 1 1
newton off
atom_style full
atom_modify sort 0 10.0

# ----------------- Atom Definition Section -----------------

read_data "MgMOF74-Pressure50000.data"
  orthogonal box = (0.4447 0.31425 -0.401771) to (26.5587 45.5442 27.2652)
  1 by 1 by 1 MPI processor grid
  reading atoms ...
  1307 atoms
  0 = max # of 1-2 neighbors
  0 = max # of 1-3 neighbors
  0 = max # of 1-4 neighbors
  1 = max # of special neighbors

# ----------------- Settings Section -----------------

#include "MgMOF74-Pressure50000.in.settings"

# ----------------- Run Section -----------------

# define groups
group GUEST type 1
11 atoms in group GUEST
group MOF type 2 3 4 5 6 7 8 9 10
1296 atoms in group MOF

# define computes
compute comT all com
compute comG GUEST com
compute comM MOF com

# settings
timestep           0.25
thermo             200
thermo_style       custom step temp epair emol etotal c_comT[1] c_comT[2] c_comT[3] c_comG[1] c_comG[2] c_comG[3] c_comM[1] c_comM[2] c_comM[3]
restart            2000000 sim.restart

# reset box to start at 0
change_box         all x delta $(-xlo) $(-xlo) y delta $(-ylo) $(-ylo) z delta $(-zlo) $(-zlo) remap units box
change_box         all x delta -0.44469999999999998419 $(-xlo) y delta $(-ylo) $(-ylo) z delta $(-zlo) $(-zlo) remap units box
change_box         all x delta -0.44469999999999998419 -0.44469999999999998419 y delta $(-ylo) $(-ylo) z delta $(-zlo) $(-zlo) remap units box
change_box         all x delta -0.44469999999999998419 -0.44469999999999998419 y delta -0.3142499999999999738 $(-ylo) z delta $(-zlo) $(-zlo) remap units box
change_box         all x delta -0.44469999999999998419 -0.44469999999999998419 y delta -0.3142499999999999738 -0.3142499999999999738 z delta $(-zlo) $(-zlo) remap units box
change_box         all x delta -0.44469999999999998419 -0.44469999999999998419 y delta -0.3142499999999999738 -0.3142499999999999738 z delta 0.40177099999999998925 $(-zlo) remap units box
change_box         all x delta -0.44469999999999998419 -0.44469999999999998419 y delta -0.3142499999999999738 -0.3142499999999999738 z delta 0.40177099999999998925 0.40177099999999998925 remap units box
  orthogonal box = (0 0.31425 -0.401771) to (26.114 45.5442 27.2652)
  orthogonal box = (0 0 -0.401771) to (26.114 45.23 27.2652)
  orthogonal box = (0 0 0) to (26.114 45.23 27.667)
write_data         data_changebox.data

# get rid of overlapping atoms
run                0
WARNING: No fixes defined, atoms won't move (../verlet.cpp:55)
Memory usage per processor = 0.478851 Mbytes
Step Temp E_pair E_mol TotEng comT[1] comT[2] comT[3] comG[1] comG[2] comG[3] comM[1] comM[2] comM[3] 
       0            0            0            0            0    12.683318    22.424053    14.189073    19.734246    34.636249    9.6241346    12.612127     22.30075    14.235163 
Loop time of 1.19209e-06 on 1 procs for 0 steps with 1307 atoms

0.0% CPU use with 1 MPI tasks x no OpenMP threads

MPI task timing breakdown:
Section |  min time  |  avg time  |  max time  |%varavg| %total
---------------------------------------------------------------
Pair    | 0          | 0          | 0          |   0.0 |  0.00
Bond    | 0          | 0          | 0          |   0.0 |  0.00
Neigh   | 0          | 0          | 0          |   0.0 |  0.00
Comm    | 0          | 0          | 0          |   0.0 |  0.00
Output  | 0          | 0          | 0          |   0.0 |  0.00
Modify  | 0          | 0          | 0          |   0.0 |  0.00
Other   |            | 1.192e-06  |            |       |100.00

Nlocal:    1307 ave 1307 max 1307 min
Histogram: 1 0 0 0 0 0 0 0 0 0
Nghost:    0 ave 0 max 0 min
Histogram: 1 0 0 0 0 0 0 0 0 0
Neighs:    0 ave 0 max 0 min
Histogram: 1 0 0 0 0 0 0 0 0 0

Total # of neighbors = 0
Ave neighs/atom = 0
Ave special neighs/atom = 0
Neighbor list builds = 0
Dangerous builds = 0
velocity           GUEST create 313.0 1738991
fix                1 GUEST nvt temp 313.0 313.0 25.0
compute            allTemp all temp
fix_modify         1 temp allTemp
pair_style         soft 5.0
pair_coeff         * * 0.0 5.0
kspace_style       none
variable           prefactor equal ramp(1.0,20.0)
fix                2 all adapt 1 pair soft a * * v_prefactor
dump               1 all custom 200 dump-1.lammpstrj element x y z
dump_modify        1 element 1 2 3 4 5 6 7 8 9 10
run                10000
Neighbor list info ...
  1 neighbor list requests
  update every 1 steps, delay 10 steps, check yes
  max neighbors/atom: 2000, page size: 100000
  master list distance cutoff = 7
  ghost atom cutoff = 7
  binsize = 3.5 -> bins = 8 13 8
Memory usage per processor = 6.73162 Mbytes
Step Temp E_pair E_mol TotEng comT[1] comT[2] comT[3] comG[1] comG[2] comG[3] comM[1] comM[2] comM[3] 
       0    2.3966309    8995.3087            0    9004.6386    12.683318    22.424053    14.189073    19.734246    34.636249    9.6241346    12.612127     22.30075    14.235163 
     200    5.6854642     12411.12            0    12433.253     12.68332    22.424063    14.189066    19.734448    34.637228    9.6235212    12.612127     22.30075    14.235163 
     400    20.913398    15813.007            0    15894.422     12.68333    22.424173    14.189025    19.735425    34.648257    9.6193781    12.612127     22.30075    14.235163 
     600    88.069946    19154.959            0     19497.81    12.683315    22.424679    14.188984    19.733899    34.698904    9.6152761    12.612127     22.30075    14.235163 
     800    254.58199    22483.842            0    23474.914    12.683192    22.426417    14.189097    19.721618    34.872743    9.6265631    12.612127     22.30075    14.235163 
    1000    346.12224     25970.83            0    27318.262    12.683407    22.430067    14.189355    19.743187    35.237913    9.6523689    12.612127     22.30075    14.235163 
    1200    278.34821    29569.341            0    30652.933    12.684051    22.435273     14.18964    19.807604    35.758706    9.6808606    12.612127     22.30075    14.235163 
    1400    360.36333    32900.728            0      34303.6    12.685183    22.440409    14.190452    19.920833    36.272566    9.7621222    12.612127     22.30075    14.235163 
    1600     283.2774    36216.458            0    37319.239     12.68584    22.446022    14.191453    19.986581    36.834014    9.8622366    12.612127     22.30075    14.235163 
    1800    338.78952    39546.402            0    40865.289    12.688808    22.453964    14.192542    20.283493    37.628563    9.9712408    12.612127     22.30075    14.235163 
    2000    289.80345    42967.537            0    44095.724    12.693301    22.460023    14.193775    20.732979    38.234757     10.09455    12.612127     22.30075    14.235163 
    2200    331.55599    46300.034            0    47590.761    12.697845    22.462627    14.194527    21.187602     38.49521    10.169833    12.612127     22.30075    14.235163 
    2400    292.38227    49688.805            0    50827.031    12.702125    22.465475     14.19521    21.615719    38.780156    10.238151    12.612127     22.30075    14.235163 
    2600    320.00365    53246.012            0    54491.766    12.704526    22.467283    14.196279    21.855971     38.96106     10.34504    12.612127     22.30075    14.235163 
    2800    313.59289    56669.725            0    57890.522    12.705408    22.466886    14.197731    21.944205    38.921287    10.490368    12.612127     22.30075    14.235163 
    3000    327.64281    59979.404            0    61254.897    12.703412    22.465741    14.199703    21.744486    38.806786    10.687676    12.612127     22.30075    14.235163 
    3200    295.33514    63313.754            0    64463.475    12.702257    22.466767    14.201742    21.628983    38.909469    10.891598    12.612127     22.30075    14.235163 
    3400    291.93115    66773.022            0    67909.492    12.702918    22.471139    14.203572    21.695038    39.346817    11.074677    12.612127     22.30075    14.235163 
    3600    361.87446    70108.178            0    71516.933     12.70463    22.476041    14.205346    21.866305    39.837242    11.252121    12.612127     22.30075    14.235163 
    3800     269.9549    73524.192            0     74575.11    12.708959    22.482576     14.20711    22.299431    40.490972    11.428638    12.612127     22.30075    14.235163 
    4000    333.74693    77017.705            0    78316.961    12.713784     22.48979    14.208552     22.78213    41.212735     11.57286    12.612127     22.30075    14.235163 
    4200    346.74963    80493.878            0    81843.753    12.716936    22.498695    14.210292    23.097484    42.103557    11.746988    12.612127     22.30075    14.235163 
    4400    303.96345    83490.042            0    84673.352    12.716996    22.504238    14.212267    23.103459    42.658074    11.944595    12.612127     22.30075    14.235163 
    4600    250.50882    87229.224            0    88204.439    12.713303    22.503875    14.214699    22.734027    42.621826    12.187817    12.612127     22.30075    14.235163 
    4800     338.4089     90798.67            0    92116.075    12.703706    22.497993    14.217511    21.773951    42.033365    12.469144    12.612127     22.30075    14.235163 
    5000    347.52935    93767.801            0    95120.711    12.694922     22.49113    14.221264    20.895104    41.346766     12.84463    12.612127     22.30075    14.235163 
    5200    281.84769     97032.46            0    98129.675    12.693048    22.486098    14.224925    20.707655    40.843325    13.210901    12.612127     22.30075    14.235163 
    5400    273.90139    100816.19            0    101882.47    12.697398    22.482847    14.228834    21.142798    40.518088    13.601999    12.612127     22.30075    14.235163 
    5600    343.34366    104467.85            0    105804.46    12.708329    22.483902    14.234151    22.236361    40.623659    14.133835    12.612127     22.30075    14.235163 
    5800    341.99256    107437.16            0    108768.52    12.719658    22.489256    14.239178    23.369732    41.159274    14.636762    12.612127     22.30075    14.235163 
    6000    276.42233    110595.02            0    111671.12    12.726636    22.497615    14.243076    24.067864    41.995492    15.026795    12.612127     22.30075    14.235163 
    6200    290.24952     114276.2            0    115406.12     12.72854    22.507103    14.246386    24.258347    42.944728    15.357876    12.612127     22.30075    14.235163 
    6400    353.28262    117845.71            0    119221.02    12.725577    22.516183    14.249538    23.961889    43.853076    15.673193    12.612127     22.30075    14.235163 
    6600    295.89829    121054.52            0    122206.43    12.724454    22.519325    14.252429    23.849532    44.167405    15.962474    12.612127     22.30075    14.235163 
    6800     292.7701    124443.11            0    125582.85    12.727004    22.519812    14.255134    24.104686    44.216112    16.233079    12.612127     22.30075    14.235163 
    7000    326.78498    128092.69            0    129364.84     12.72849    22.519024    14.258243     24.25331    44.137348    16.544138    12.612127     22.30075    14.235163 
    7200    358.14318    131393.62            0    132787.85    12.733419    22.518958    14.261059    24.746418    44.130688    16.825856    12.612127     22.30075    14.235163 
    7400    288.29607    134591.84            0    135714.16    12.742578     22.52298    14.263608    25.662763    44.533115    17.080829    12.612127     22.30075    14.235163 
    7600    296.79158    137858.67            0    139014.06     12.74721    22.528013    14.265173    26.126165    45.036612    17.237431    12.612127     22.30075    14.235163 
    7800    359.87476    141228.53            0     142629.5    12.746336    22.528431    14.266683    26.038667    45.078436    17.388427    12.612127     22.30075    14.235163 
    8000    267.15134    144885.13            0    145925.13    12.741237    22.525406    14.268636    25.528537     44.77582    17.583781    12.612127     22.30075    14.235163 
    8200    311.21737    148458.67            0    149670.21    12.737222    22.523361    14.270184     25.12691    44.571232    17.738656    12.612127     22.30075    14.235163 
    8400    334.67396    152097.14            0       153400    12.732129    22.529933    14.273874    24.617423    45.228649    18.107813    12.612127     22.30075    14.235163 
    8600    377.62247     154790.5            0    156260.56    12.726715    22.546253    14.278607    24.075732    46.861339    18.581357    12.612127     22.30075    14.235163 
    8800    304.10245    157861.37            0    159045.22    12.725459    22.559965    14.282885    23.950141    48.233166    19.009288    12.612127     22.30075    14.235163 
    9000    260.80985    161606.87            0    162622.19    12.724874    22.563996    14.286406    23.891636     48.63642    19.361619    12.612127     22.30075    14.235163 
    9200    335.35572    165034.37            0    166339.89    12.728064    22.552827    14.288849    24.210738    47.519083    19.605935    12.612127     22.30075    14.235163 
    9400    346.94448    168156.92            0    169507.56    12.731666    22.537665    14.289275    24.571062    46.002203    19.648583    12.612127     22.30075    14.235163 
    9600    265.99453    171669.86            0    172705.36    12.734198    22.529372    14.289697    24.824387    45.172607    19.690793    12.612127     22.30075    14.235163 
    9800     330.6627    175104.26            0    176391.51    12.732391    22.536419    14.290906    24.643633    45.877587     19.81181    12.612127     22.30075    14.235163 
   10000     349.8988       178472            0    179834.14    12.730009    22.552196    14.291713    24.405272    47.455908    19.892473    12.612127     22.30075    14.235163 
Loop time of 18.8212 on 1 procs for 10000 steps with 1307 atoms

Performance: 11.476 ns/day, 2.091 hours/ns, 531.316 timesteps/s
99.3% CPU use with 1 MPI tasks x no OpenMP threads

MPI task timing breakdown:
Section |  min time  |  avg time  |  max time  |%varavg| %total
---------------------------------------------------------------
Pair    | 17.358     | 17.358     | 17.358     |   0.0 | 92.22
Bond    | 0.0011256  | 0.0011256  | 0.0011256  |   0.0 |  0.01
Neigh   | 1.0015     | 1.0015     | 1.0015     |   0.0 |  5.32
Comm    | 0.099709   | 0.099709   | 0.099709   |   0.0 |  0.53
Output  | 0.15346    | 0.15346    | 0.15346    |   0.0 |  0.82
Modify  | 0.15191    | 0.15191    | 0.15191    |   0.0 |  0.81
Other   |            | 0.05577    |            |       |  0.30

Nlocal:    1307 ave 1307 max 1307 min
Histogram: 1 0 0 0 0 0 0 0 0 0
Nghost:    2720 ave 2720 max 2720 min
Histogram: 1 0 0 0 0 0 0 0 0 0
Neighs:    53363 ave 53363 max 53363 min
Histogram: 1 0 0 0 0 0 0 0 0 0

Total # of neighbors = 53363
Ave neighs/atom = 40.8286
Ave special neighs/atom = 0
Neighbor list builds = 270
Dangerous builds = 0
undump             1
unfix              2
write_data         data_overlap.data

# reset force field parameters
# Set 1-2, 1-3, and 1-4 pairwise interactions to zero; not needed if no bonded terms
#special_bonds      lj/coul 0.0 0.0 0.0
#kspace_style       pppm/disp 1.0e-6
neigh_modify       delay 0 every 1 check yes
neigh_modify       exclude molecule MOF
neigh_modify       exclude molecule GUEST
include "MgMOF74-Pressure50000.in.settings"
# UFF parameters for all atoms not defined by force field
pair_style         hybrid lj/cut 12.8 buck 12.8
pair_modify        mix arithmetic shift yes
pair_coeff         7 7 lj/cut 0.111 2.691
pair_coeff         2 2 lj/cut 0.105 3.431
pair_coeff         3 3 lj/cut 0.105 3.431
pair_coeff         4 4 lj/cut 0.105 3.431
pair_coeff         5 5 lj/cut 0.105 3.431
pair_coeff         6 6 lj/cut 0.044 2.571
pair_coeff         8 8 lj/cut 0.060 3.118
pair_coeff         9 9 lj/cut 0.060 3.118
pair_coeff         10 10 lj/cut 0.060 3.118
pair_coeff         1 1 lj/cut 0.294 3.730
# Lennard-Jones parameters from force field
pair_coeff         1 6 lj/cut 0.114 3.15
# Buckingham parameters from force field
pair_coeff         1 7 buck 503735.46 0.2035 869.75957
pair_coeff         1 8 buck 36618.413 0.3373 943.43844
pair_coeff         1 9 buck 40336.705 0.3063 943.43844
pair_coeff         1 10 buck 20010.424 0.3584 943.43844
pair_coeff         1 2 buck 151480.54 0.2503 1627.7890
pair_coeff         1 3 buck 70571.228 0.3049 1627.7890
pair_coeff         1 4 buck 460219.42 0.2288 1627.7890
pair_coeff         1 5 buck 5085.8640 0.4320 1627.7890

# equilibration
thermo_style       custom step temp epair evdwl ecoul elong etail emol pe ke etotal
#velocity           GUEST create 313.0 1738
#run                0
#velocity           GUEST scale 313.0
dump               2 all custom 200 dump-2.lammpstrj element x y z
dump_modify        2 element 1 2 3 4 5 6 7 8 9 10
run                10000000
Neighbor list info ...
  3 neighbor list requests
  update every 1 steps, delay 0 steps, check yes
  max neighbors/atom: 2000, page size: 100000
  master list distance cutoff = 14.8
  ghost atom cutoff = 14.8
  binsize = 7.4 -> bins = 4 7 4
Memory usage per processor = 7.08504 Mbytes
Step Temp E_pair E_vdwl E_coul E_long E_tail E_mol PotEng KinEng TotEng 
   10000     349.8988    114.60988    114.60988            0            0            0            0    114.60988    1362.1343    1476.7442 
   10200    296.95529    6.0697709    6.0697709            0            0            0            0    6.0697709    1156.0285    1162.0983 
   10400    355.06848    20.170303    20.170303            0            0            0            0    20.170303    1382.2595    1402.4298 
   10600    295.24936    62.463706    62.463706            0            0            0            0    62.463706    1149.3874    1211.8511 
   10800     325.8705     90.42939     90.42939            0            0            0            0     90.42939    1268.5936     1359.023 
   11000    323.18662   -6.4161685   -6.4161685            0            0            0            0   -6.4161685    1258.1454    1251.7293 
   11200    336.60583    38.961827    38.961827            0            0            0            0    38.961827    1310.3856    1349.3474 
   11400    316.26138    52.940211    52.940211            0            0            0            0    52.940211    1231.1859    1284.1261 
   11600    336.37088    7.8152056    7.8152056            0            0            0            0    7.8152056    1309.4709    1317.2862 
   11800    318.02359    41.474976    41.474976            0            0            0            0    41.474976    1238.0461    1279.5211 
   12000    343.59944    32.798686    32.798686            0            0            0            0    32.798686    1337.6113      1370.41 
   12200    307.15811    28.161998    28.161998            0            0            0            0    28.161998    1195.7475    1223.9095 
   12400    261.36677    318.34333    318.34333            0            0            0            0    318.34333    1017.4846    1335.8279 
   12600     313.4882    101.40483    101.40483            0            0            0            0    101.40483    1220.3901    1321.7949 
   12800      297.398    6.9784867    6.9784867            0            0            0            0    6.9784867     1157.752    1164.7304 
   13000    315.86074    159.92319    159.92319            0            0            0            0    159.92319    1229.6262    1389.5494 
   13200    303.27751    45.966426    45.966426            0            0            0            0    45.966426    1180.6405    1226.6069 
   13400     294.6901    74.746204    74.746204            0            0            0            0    74.746204    1147.2103    1221.9565 
   13600    308.69965    196.21218    196.21218            0            0            0            0    196.21218    1201.7486    1397.9607 
   13800    320.67809   -1.9272325   -1.9272325            0            0            0            0   -1.9272325    1248.3799    1246.4527 
   14000    261.99392    245.79231    245.79231            0            0            0            0    245.79231    1019.9261    1265.7184 
   14200    328.27772   -14.771259   -14.771259            0            0            0            0   -14.771259    1277.9648    1263.1935 
   14400    291.99512    36.680323    36.680323            0            0            0            0    36.680323    1136.7189    1173.3992 
   14600    335.02737    45.680038    45.680038            0            0            0            0    45.680038    1304.2407    1349.9208 
   14800    297.32709    71.337876    71.337876            0            0            0            0    71.337876    1157.4759    1228.8138 
   15000    310.68143    50.866096    50.866096            0            0            0            0    50.866096    1209.4635    1260.3296 
   15200     332.2959    20.369172    20.369172            0            0            0            0    20.369172    1293.6073    1313.9765 
   15400    307.87983    44.107058    44.107058            0            0            0            0    44.107058    1198.5571    1242.6641 
   15600    309.12249    42.231327    42.231327            0            0            0            0    42.231327    1203.3947     1245.626 
   15800    331.39768   -7.2852151   -7.2852151            0            0            0            0   -7.2852151    1290.1106    1282.8254 
   16000    306.64807    23.034538    23.034538            0            0            0            0    23.034538    1193.7619    1216.7964 
   16200     297.1848    145.60602    145.60602            0            0            0            0    145.60602     1156.922     1302.528 
   16400    311.94081    52.368889    52.368889            0            0            0            0    52.368889    1214.3662    1266.7351 
   16600    329.16157    18.015178    18.015178            0            0            0            0    18.015178    1281.4056    1299.4208 
   16800    309.28878     60.37073     60.37073            0            0            0            0     60.37073     1204.042    1264.4128 
   17000    325.70128    28.649634    28.649634            0            0            0            0    28.649634    1267.9349    1296.5845 
   17200    283.36873    132.35377    132.35377            0            0            0            0    132.35377    1103.1369    1235.4906 
   17400    311.34512    59.172461    59.172461            0            0            0            0    59.172461    1212.0472    1271.2197 
   17600    322.81006   -5.5300365   -5.5300365            0            0            0            0   -5.5300365    1256.6795    1251.1495 
   17800    306.10873    1.7539622    1.7539622            0            0            0            0    1.7539622    1191.6623    1193.4162 
   18000    300.04274    96.815017    96.815017            0            0            0            0    96.815017    1168.0478    1264.8628 
   18200    338.75907   -22.048872   -22.048872            0            0            0            0   -22.048872     1318.768    1296.7192 
   18400    320.73492    19.449986    19.449986            0            0            0            0    19.449986    1248.6011    1268.0511 
   18600    291.69603    65.084128    65.084128            0            0            0            0    65.084128    1135.5546    1200.6387 
   18800    274.28905    232.19139    232.19139            0            0            0            0    232.19139    1067.7902    1299.9816 
   19000     336.4255    39.606327    39.606327            0            0            0            0    39.606327    1309.6836    1349.2899 
   19200    294.86976    43.632275    43.632275            0            0            0            0    43.632275    1147.9097     1191.542 
   19400    346.05303    1.4805871    1.4805871            0            0            0            0    1.4805871     1347.163    1348.6436 
   19600    311.98712    49.219105    49.219105            0            0            0            0    49.219105    1214.5465    1263.7656 
   19800    266.46743    206.21822    206.21822            0            0            0            0    206.21822    1037.3412    1243.5594 
   20000     312.0493     120.7564     120.7564            0            0            0            0     120.7564    1214.7886     1335.545 
   20200    303.24083    17.288595    17.288595            0            0            0            0    17.288595    1180.4977    1197.7863 
   20400    311.47119    100.21416    100.21416            0            0            0            0    100.21416     1212.538    1312.7522 
   20600    312.15805    72.807395    72.807395            0            0            0            0    72.807395    1215.2119    1288.0193 
   20800    304.19203   -11.833884   -11.833884            0            0            0            0   -11.833884    1184.2007    1172.3668 
   21000    322.58283    44.532903    44.532903            0            0            0            0    44.532903    1255.7949    1300.3278 
   21200    313.75262   -5.1615898   -5.1615898            0            0            0            0   -5.1615898    1221.4195    1216.2579 
   21400    314.52839    99.744465    99.744465            0            0            0            0    99.744465    1224.4395     1324.184 
   21600    341.81757    2.4654229    2.4654229            0            0            0            0    2.4654229    1330.6746      1333.14 
   21800    291.04109     44.15346     44.15346            0            0            0            0     44.15346    1133.0049    1177.1584 
   22000    344.39427    9.5098132    9.5098132            0            0            0            0    9.5098132    1340.7055    1350.2153 
   22200    318.62544    26.878028    26.878028            0            0            0            0    26.878028    1240.3891    1267.2671 
   22400     347.4007    -3.963971    -3.963971            0            0            0            0    -3.963971    1352.4094    1348.4454 
   22600    287.42389    103.08974    103.08974            0            0            0            0    103.08974    1118.9234    1222.0131 
   22800    320.46474    46.906712    46.906712            0            0            0            0    46.906712    1247.5493    1294.4561 
   23000    307.74717    96.147747    96.147747            0            0            0            0    96.147747    1198.0406    1294.1884 
   23200    355.35753   -18.690716   -18.690716            0            0            0            0   -18.690716    1383.3848    1364.6941 
   23400    305.24313   -3.0773023   -3.0773023            0            0            0            0   -3.0773023    1188.2926    1185.2153 
   23600    316.39807    62.172544    62.172544            0            0            0            0    62.172544    1231.7181    1293.8906 
   23800     316.9598   -1.6626352   -1.6626352            0            0            0            0   -1.6626352    1233.9048    1232.2422 
   24000    316.91061    40.644639    40.644639            0            0            0            0    40.644639    1233.7133     1274.358 
   24200    322.38703   0.68228489   0.68228489            0            0            0            0   0.68228489    1255.0327     1255.715 
   24400     307.4095    46.789848    46.789848            0            0            0            0    46.789848    1196.7261     1243.516 
   24600    310.63448    84.485602    84.485602            0            0            0            0    84.485602    1209.2808    1293.7664 
   24800    293.75409    136.58842    136.58842            0            0            0            0    136.58842    1143.5664    1280.1548 
   25000    299.06711     46.80707     46.80707            0            0            0            0     46.80707    1164.2497    1211.0568 
   25200    331.98754    47.779046    47.779046            0            0            0            0    47.779046    1292.4069    1340.1859 
   25400    312.11374    1.2774102    1.2774102            0            0            0            0    1.2774102    1215.0394    1216.3168 
   25600    336.63551   -12.809147   -12.809147            0            0            0            0   -12.809147    1310.5011     1297.692 
   25800    337.35373    7.6777194    7.6777194            0            0            0            0    7.6777194    1313.2971    1320.9749 
   26000    311.52316    18.554744    18.554744            0            0            0            0    18.554744    1212.7403    1231.2951 
   26200     345.3315    9.7406504    9.7406504            0            0            0            0    9.7406504    1344.3541    1354.0947 
   26400    299.00451    93.118838    93.118838            0            0            0            0    93.118838     1164.006    1257.1248 
   26600     324.8199    54.338318    54.338318            0            0            0            0    54.338318    1264.5037     1318.842 
   26800    308.47131    95.292008    95.292008            0            0            0            0    95.292008    1200.8597    1296.1517 
   27000    311.13896    37.701435    37.701435            0            0            0            0    37.701435    1211.2446    1248.9461 
   27200    317.26533    21.380598    21.380598            0            0            0            0    21.380598    1235.0943    1256.4749 
   27400    322.96117    51.076145    51.076145            0            0            0            0    51.076145    1257.2678    1308.3439 
   27600     315.6613    62.293926    62.293926            0            0            0            0    62.293926    1228.8499    1291.1438 
   27800    350.44597   -22.889804   -22.889804            0            0            0            0   -22.889804    1364.2644    1341.3746 
   28000    291.33441    126.04766    126.04766            0            0            0            0    126.04766    1134.1468    1260.1944 
   28200    291.91292    108.92003    108.92003            0            0            0            0    108.92003    1136.3989    1245.3189 
   28400    337.59656    46.906151    46.906151            0            0            0            0    46.906151    1314.2424    1361.1486 
   28600    312.31348    24.187926    24.187926            0            0            0            0    24.187926     1215.817    1240.0049 
   28800     325.2936   -8.1891151   -8.1891151            0            0            0            0   -8.1891151    1266.3478    1258.1587 
   29000    349.18971   -0.8450072   -0.8450072            0            0            0            0   -0.8450072    1359.3739    1358.5289 
   29200    313.29901    -23.44257    -23.44257            0            0            0            0    -23.44257    1219.6536     1196.211 
   29400    309.91145    35.171784    35.171784            0            0            0            0    35.171784     1206.466    1241.6378 
   29600    336.24709    1.7627707    1.7627707            0            0            0            0    1.7627707    1308.9891    1310.7518 
   29800    301.03105    169.25287    169.25287            0            0            0            0    169.25287    1171.8952    1341.1481 
   30000    320.70187    8.2456806    8.2456806            0            0            0            0    8.2456806    1248.4725    1256.7182 
   30200    315.06306    81.096592    81.096592            0            0            0            0    81.096592    1226.5209    1307.6175 
   30400    334.51901    67.645515    67.645515            0            0            0            0    67.645515    1302.2617    1369.9073 
   30600    309.82053    15.150877    15.150877            0            0            0            0    15.150877    1206.1121     1221.263 
   30800    288.75732    174.09362    174.09362            0            0            0            0    174.09362    1124.1143    1298.2079 
   31000    341.15486    33.887947    33.887947            0            0            0            0    33.887947    1328.0947    1361.9826 
   31200     298.2745    49.346308    49.346308            0            0            0            0    49.346308    1161.1641    1210.5104 
   31400    300.93311    134.86558    134.86558            0            0            0            0    134.86558    1171.5139    1306.3795 
   31600    339.04439    21.150585    21.150585            0            0            0            0    21.150585    1319.8788    1341.0294 
   31800    280.48923     142.6843     142.6843            0            0            0            0     142.6843    1091.9272    1234.6114 
   32000    345.79381   -16.186715   -16.186715            0            0            0            0   -16.186715    1346.1539    1329.9671 
   32200    320.69249    113.92357    113.92357            0            0            0            0    113.92357    1248.4359    1362.3595 
   32400    286.60201    134.73396    134.73396            0            0            0            0    134.73396    1115.7238    1250.4578 
   32600    316.22543    16.590627    16.590627            0            0            0            0    16.590627     1231.046    1247.6366 
   32800    344.20953    11.760813    11.760813            0            0            0            0    11.760813    1339.9863    1351.7472 
   33000    302.21572    34.889253    34.889253            0            0            0            0    34.889253     1176.507    1211.3963 
   33200    325.23687    54.468043    54.468043            0            0            0            0    54.468043    1266.1269     1320.595 
   33400    334.78725    19.355813    19.355813            0            0            0            0    19.355813     1303.306    1322.6618 
   33600    303.02746    51.390226    51.390226            0            0            0            0    51.390226    1179.6671    1231.0573 
   33800    324.42435    55.976411    55.976411            0            0            0            0    55.976411    1262.9638    1318.9403 
   34000    323.16609   -2.4309951   -2.4309951            0            0            0            0   -2.4309951    1258.0655    1255.6345 
   34200    295.24167    43.737864    43.737864            0            0            0            0    43.737864    1149.3575    1193.0954 
   34400    323.36298    37.510815    37.510815            0            0            0            0    37.510815     1258.832    1296.3428 
   34600    304.73703    62.460563    62.460563            0            0            0            0    62.460563    1186.3223    1248.7829 
   34800    316.60474   -20.619724   -20.619724            0            0            0            0   -20.619724    1232.5226    1211.9029 
   35000     244.1076    279.90331    279.90331            0            0            0            0    279.90331    950.29573     1230.199 
   35200    328.55333    25.742026    25.742026            0            0            0            0    25.742026    1279.0377    1304.7797 
   35400    287.42405    94.871245    94.871245            0            0            0            0    94.871245     1118.924    1213.7952 
   35600    307.83445    153.07461    153.07461            0            0            0            0    153.07461    1198.3804     1351.455 
   35800    294.06959    78.394216    78.394216            0            0            0            0    78.394216    1144.7947    1223.1889 
   36000    338.52526    32.181686    32.181686            0            0            0            0    32.181686    1317.8578    1350.0395 
   36200    305.49905    19.968801    19.968801            0            0            0            0    19.968801    1189.2888    1209.2576 
   36400    312.43686    63.030902    63.030902            0            0            0            0    63.030902    1216.2973    1279.3282 
   36600    350.25927    50.249282    50.249282            0            0            0            0    50.249282    1363.5376    1413.7869 
   36800    322.07689   -11.747533   -11.747533            0            0            0            0   -11.747533    1253.8254    1242.0778 
   37000    292.97315     62.69356     62.69356            0            0            0            0     62.69356    1140.5263    1203.2199 
   37200     344.5967   -1.4367748   -1.4367748            0            0            0            0   -1.4367748    1341.4936    1340.0568 
   37400    298.64209    7.0074006    7.0074006            0            0            0            0    7.0074006    1162.5951    1169.6025 
   37600    313.53285    90.713436    90.713436            0            0            0            0    90.713436    1220.5639    1311.2773 
   37800    334.28175    71.121122    71.121122            0            0            0            0    71.121122    1301.3381    1372.4592 
   38000    299.61996    44.980837    44.980837            0            0            0            0    44.980837    1166.4019    1211.3827 
   38200    322.90308    95.551851    95.551851            0            0            0            0    95.551851    1257.0416    1352.5935 
   38400    338.08298    11.026429    11.026429            0            0            0            0    11.026429    1316.1361    1327.1625 
   38600    296.59325    69.179099    69.179099            0            0            0            0    69.179099    1154.6191    1223.7982 
   38800    306.15522    142.99157    142.99157            0            0            0            0    142.99157    1191.8433    1334.8348 
   39000    348.86621   -16.864818   -16.864818            0            0            0            0   -16.864818    1358.1145    1341.2497 
   39200    320.86334    50.409861    50.409861            0            0            0            0    50.409861    1249.1011    1299.5109 
   39400    332.31732    29.118504    29.118504            0            0            0            0    29.118504    1293.6907    1322.8092 
   39600    324.74963    3.8233999    3.8233999            0            0            0            0    3.8233999    1264.2302    1268.0536 
   39800    330.86449   -23.059683   -23.059683            0            0            0            0   -23.059683    1288.0349    1264.9752 
   40000    282.90827    110.11738    110.11738            0            0            0            0    110.11738    1101.3443    1211.4617 
   40200    326.20585    80.741014    80.741014            0            0            0            0    80.741014    1269.8991    1350.6401 
   40400    295.48496     86.03042     86.03042            0            0            0            0     86.03042    1150.3046     1236.335 
   40600     278.4041    142.72214    142.72214            0            0            0            0    142.72214    1083.8099     1226.532 
   40800    295.78476    95.191356    95.191356            0            0            0            0    95.191356    1151.4717    1246.6631 
   41000    320.47888    15.443827    15.443827            0            0            0            0    15.443827    1247.6044    1263.0482 
   41200    291.35651    160.68068    160.68068            0            0            0            0    160.68068    1134.2328    1294.9135 
   41400    340.28352    94.323999    94.323999            0            0            0            0    94.323999    1324.7026    1419.0266 
   41600    311.18355    6.6774585    6.6774585            0            0            0            0    6.6774585    1211.4182    1218.0957 
   41800    322.16332    74.281033    74.281033            0            0            0            0    74.281033    1254.1618    1328.4428 
   42000     303.1271    92.123747    92.123747            0            0            0            0    92.123747     1180.055    1272.1787 
   42200    302.46399    162.19521    162.19521            0            0            0            0    162.19521    1177.4735    1339.6687 
   42400    337.68419    6.8294725    6.8294725            0            0            0            0    6.8294725    1314.5836    1321.4131 
   42600    299.04845    52.294715    52.294715            0            0            0            0    52.294715     1164.177    1216.4718 
   42800    315.97008    112.64424    112.64424            0            0            0            0    112.64424    1230.0519    1342.6961 
   43000    303.25104    54.408837    54.408837            0            0            0            0    54.408837    1180.5375    1234.9463 
   43200    319.91028    39.903224    39.903224            0            0            0            0    39.903224    1245.3909    1285.2941 
   43400    337.01005  -0.65358408  -0.65358408            0            0            0            0  -0.65358408    1311.9592    1311.3056 
   43600    325.37832    23.015695    23.015695            0            0            0            0    23.015695    1266.6776    1289.6933 
   43800    276.97237    155.24798    155.24798            0            0            0            0    155.24798    1078.2362    1233.4842 
   44000    267.41699    250.65447    250.65447            0            0            0            0    250.65447    1041.0378    1291.6922 
   44200    299.86179    94.274945    94.274945            0            0            0            0    94.274945    1167.3433    1261.6183 
   44400    345.81493   -12.686685   -12.686685            0            0            0            0   -12.686685    1346.2361    1333.5494 
   44600     334.0871    37.559543    37.559543            0            0            0            0    37.559543    1300.5803    1338.1399 
   44800    322.58237    24.853565    24.853565            0            0            0            0    24.853565    1255.7931    1280.6467 
   45000      347.082   -2.3769973   -2.3769973            0            0            0            0   -2.3769973    1351.1687    1348.7917 
   45200    313.04461    124.60675    124.60675            0            0            0            0    124.60675    1218.6632      1343.27 
   45400    271.14005    194.30513    194.30513            0            0            0            0    194.30513    1055.5314    1249.8365 
   45600    319.55005    43.902606    43.902606            0            0            0            0    43.902606    1243.9885    1287.8911 
   45800     279.0779     211.0993     211.0993            0            0            0            0     211.0993    1086.4329    1297.5322 
   46000    318.09735     10.13583     10.13583            0            0            0            0     10.13583    1238.3332    1248.4691 
   46200    288.64447    157.15588    157.15588            0            0            0            0    157.15588     1123.675    1280.8309 
   46400    289.89255    173.18578    173.18578            0            0            0            0    173.18578    1128.5337    1301.7195 
   46600    322.38143    35.972157    35.972157            0            0            0            0    35.972157    1255.0109    1290.9831 
   46800    305.53159     163.3327     163.3327            0            0            0            0     163.3327    1189.4155    1352.7482 
   47000    292.92671    96.204707    96.204707            0            0            0            0    96.204707    1140.3455    1236.5502 
   47200    303.10349    36.248201    36.248201            0            0            0            0    36.248201    1179.9631    1216.2113 
   47400    329.89788    94.080375    94.080375            0            0            0            0    94.080375     1284.272    1378.3523 
   47600    320.34617    27.425914    27.425914            0            0            0            0    27.425914    1247.0878    1274.5137 
   47800     313.1028    3.7361028    3.7361028            0            0            0            0    3.7361028    1218.8898    1222.6259 
   48000    295.33362    158.43983    158.43983            0            0            0            0    158.43983    1149.7155    1308.1553 
   48200     314.9649     69.23364     69.23364            0            0            0            0     69.23364    1226.1388    1295.3725 
   48400    289.96256    133.18227    133.18227            0            0            0            0    133.18227    1128.8062    1261.9885 
   48600    274.62414    208.98506    208.98506            0            0            0            0    208.98506    1069.0947    1278.0798 
   48800    327.63361    72.782491    72.782491            0            0            0            0    72.782491    1275.4573    1348.2398 
   49000    323.24616   -18.330175   -18.330175            0            0            0            0   -18.330175    1258.3772    1240.0471 
   49200    319.55532    -9.169163    -9.169163            0            0            0            0    -9.169163     1244.009    1234.8399 
   49400    333.48021    105.23634    105.23634            0            0            0            0    105.23634    1298.2178    1403.4541 
   49600    318.01274    16.723348    16.723348            0            0            0            0    16.723348    1238.0039    1254.7272 
   49800    309.33256   -22.241344   -22.241344            0            0            0            0   -22.241344    1204.2125    1181.9711 
   50000    316.33246    115.73413    115.73413            0            0            0            0    115.73413    1231.4626    1347.1968 
   50200    303.49346    61.285244    61.285244            0            0            0            0    61.285244    1181.4812    1242.7664 
   50400    292.37045    81.315615    81.315615            0            0            0            0    81.315615      1138.18    1219.4956 
   50600    292.82453    242.50504    242.50504            0            0            0            0    242.50504    1139.9477    1382.4528 
   50800    304.85106    58.366512    58.366512            0            0            0            0    58.366512    1186.7662    1245.1328 
   51000    324.05793    -4.799051    -4.799051            0            0            0            0    -4.799051    1261.5374    1256.7383 
   51200     297.3641     106.7363     106.7363            0            0            0            0     106.7363      1157.62    1264.3563 
   51400    331.78761    85.892742    85.892742            0            0            0            0    85.892742    1291.6286    1377.5213 
   51600    288.77777    115.93498    115.93498            0            0            0            0    115.93498    1124.1939    1240.1289 
   51800    303.38043    60.795163    60.795163            0            0            0            0    60.795163    1181.0412    1241.8364 
   52000    310.93784    105.72821    105.72821            0            0            0            0    105.72821    1210.4617    1316.1899 
   52200    297.91735    90.305084    90.305084            0            0            0            0    90.305084    1159.7737    1250.0788 
   52400    340.85368   -15.426107   -15.426107            0            0            0            0   -15.426107    1326.9222    1311.4961 
   52600    316.14996    67.810027    67.810027            0            0            0            0    67.810027    1230.7522    1298.5622 
   52800    347.29585   -21.575326   -21.575326            0            0            0            0   -21.575326    1352.0012    1330.4259 
   53000    261.08138    298.25884    298.25884            0            0            0            0    298.25884    1016.3736    1314.6324 
   53200    363.53563   -13.906886   -13.906886            0            0            0            0   -13.906886    1415.2216    1401.3148 
   53400    305.71683   -16.489803   -16.489803            0            0            0            0   -16.489803    1190.1366    1173.6468 
   53600    279.48795    171.70174    171.70174            0            0            0            0    171.70174    1088.0292     1259.731 
   53800    345.32061   -3.6208929   -3.6208929            0            0            0            0   -3.6208929    1344.3117    1340.6908 
   54000    300.22635    73.642948    73.642948            0            0            0            0    73.642948    1168.7626    1242.4055 
   54200    335.05243    27.685001    27.685001            0            0            0            0    27.685001    1304.3383    1332.0233 
   54400    300.37699    41.997566    41.997566            0            0            0            0    41.997566     1169.349    1211.3465 
   54600     331.5905     26.94716     26.94716            0            0            0            0     26.94716    1290.8612    1317.8084 
   54800    297.85654    74.937015    74.937015            0            0            0            0    74.937015     1159.537     1234.474 
   55000      293.814    164.98082    164.98082            0            0            0            0    164.98082    1143.7997    1308.7805 
   55200    311.02207     72.76224     72.76224            0            0            0            0     72.76224    1210.7896    1283.5518 
   55400    314.85866      56.8195      56.8195            0            0            0            0      56.8195    1225.7252    1282.5447 
   55600     302.8308    62.958427    62.958427            0            0            0            0    62.958427    1178.9015    1241.8599 
   55800    330.24045    49.297608    49.297608            0            0            0            0    49.297608    1285.6056    1334.9032 
   56000    332.38514    5.4559718    5.4559718            0            0            0            0    5.4559718    1293.9547    1299.4107 
   56200    333.77435   -16.313835   -16.313835            0            0            0            0   -16.313835    1299.3628     1283.049 
   56400    311.15318    40.159765    40.159765            0            0            0            0    40.159765       1211.3    1251.4598 
   56600    325.39799    68.594777    68.594777            0            0            0            0    68.594777    1266.7542     1335.349 
   56800    329.93636   -19.372254   -19.372254            0            0            0            0   -19.372254    1284.4218    1265.0495 
   57000    314.79092    26.751381    26.751381            0            0            0            0    26.751381    1225.4615    1252.2129 
   57200    322.59605    75.575123    75.575123            0            0            0            0    75.575123    1255.8464    1331.4215 
   57400    329.13537    13.830431    13.830431            0            0            0            0    13.830431    1281.3036     1295.134 
   57600    303.84074    151.18659    151.18659            0            0            0            0    151.18659    1182.8331    1334.0197 
   57800    315.00973    10.170123    10.170123            0            0            0            0    10.170123    1226.3133    1236.4834 
   58000    308.02686    49.722622    49.722622            0            0            0            0    49.722622    1199.1294     1248.852 
   58200    333.09198   -7.0141086   -7.0141086            0            0            0            0   -7.0141086    1296.7064    1289.6923 
   58400    340.24249   -2.7325292   -2.7325292            0            0            0            0   -2.7325292    1324.5429    1321.8103 
   58600    317.58596   -3.6764147   -3.6764147            0            0            0            0   -3.6764147    1236.3424     1232.666 
   58800    325.55126    4.6903639    4.6903639            0            0            0            0    4.6903639    1267.3508    1272.0412 
   59000    326.35941    103.81136    103.81136            0            0            0            0    103.81136    1270.4969    1374.3083 
   59200    320.07502    -10.08348    -10.08348            0            0            0            0    -10.08348    1246.0322    1235.9487 
   59400     284.0247     246.2929     246.2929            0            0            0            0     246.2929    1105.6905    1351.9834 
   59600    278.40119    176.50503    176.50503            0            0            0            0    176.50503    1083.7986    1260.3036 
   59800    305.95336    26.486866    26.486866            0            0            0            0    26.486866    1191.0574    1217.5443 
   60000    315.44798    125.83907    125.83907            0            0            0            0    125.83907    1228.0194    1353.8585 
   60200    322.48745    19.648527    19.648527            0            0            0            0    19.648527    1255.4236    1275.0721 
   60400    283.92146    73.350384    73.350384            0            0            0            0    73.350384    1105.2886     1178.639 
   60600    333.64074    59.175346    59.175346            0            0            0            0    59.175346    1298.8427     1358.018 
   60800    323.06335   -11.769107   -11.769107            0            0            0            0   -11.769107    1257.6656    1245.8965 
   61000    292.55177    75.969101    75.969101            0            0            0            0    75.969101    1138.8859     1214.855 
   61200    318.43764    97.641001    97.641001            0            0            0            0    97.641001     1239.658     1337.299 
   61400     312.5636    20.903394    20.903394            0            0            0            0    20.903394    1216.7907    1237.6941 
   61600    274.38524    175.74519    175.74519            0            0            0            0    175.74519    1068.1647    1243.9099 
   61800    336.29413    6.7591648    6.7591648            0            0            0            0    6.7591648    1309.1722    1315.9313 
   62000    326.45295   -11.987543   -11.987543            0            0            0            0   -11.987543    1270.8611    1258.8735 
   62200    333.51305    16.269077    16.269077            0            0            0            0    16.269077    1298.3456    1314.6147 
   62400    318.23079    40.620294    40.620294            0            0            0            0    40.620294    1238.8527     1279.473 
   62600    285.66314    187.66711    187.66711            0            0            0            0    187.66711    1112.0689     1299.736 
   62800    297.48299    115.59805    115.59805            0            0            0            0    115.59805    1158.0828    1273.6809 
   63000    322.31219    102.92304    102.92304            0            0            0            0    102.92304    1254.7413    1357.6644 
   63200    314.94545    100.68549    100.68549            0            0            0            0    100.68549    1226.0631    1326.7486 
   63400    291.00745     139.1633     139.1633            0            0            0            0     139.1633    1132.8739    1272.0372 
   63600    330.52447    20.780735    20.780735            0            0            0            0    20.780735    1286.7112     1307.492 
   63800     266.7478    288.42521    288.42521            0            0            0            0    288.42521    1038.4326    1326.8578 
   64000    296.34053    93.975726    93.975726            0            0            0            0    93.975726    1153.6353     1247.611 
   64200    313.38046   -17.920769   -17.920769            0            0            0            0   -17.920769    1219.9707    1202.0499 
   64400    318.99348   -24.127193   -24.127193            0            0            0            0   -24.127193    1241.8218    1217.6946 
   64600    313.49749    115.34803    115.34803            0            0            0            0    115.34803    1220.4263    1335.7743 
   64800    355.11264   -18.108739   -18.108739            0            0            0            0   -18.108739    1382.4314    1364.3227 
   65000    305.02658   -21.378188   -21.378188            0            0            0            0   -21.378188    1187.4495    1166.0714 
   65200    320.19659    36.809006    36.809006            0            0            0            0    36.809006    1246.5055    1283.3145 
   65400    352.35014    2.8366845    2.8366845            0            0            0            0    2.8366845    1371.6772    1374.5139 
   65600    304.65509    89.053269    89.053269            0            0            0            0    89.053269    1186.0033    1275.0566 
   65800    347.61693    29.745878    29.745878            0            0            0            0    29.745878    1353.2511     1382.997 
   66000    291.42203     138.3603     138.3603            0            0            0            0     138.3603    1134.4879    1272.8482 
   66200    312.07078    108.95195    108.95195            0            0            0            0    108.95195    1214.8722    1323.8241 
   66400     285.8405    171.24553    171.24553            0            0            0            0    171.24553    1112.7593    1284.0049 
   66600     309.4189    48.611176    48.611176            0            0            0            0    48.611176    1204.5486    1253.1598 
   66800    344.04488   -16.668584   -16.668584            0            0            0            0   -16.668584    1339.3454    1322.6768 
   67000    338.27879   -20.269445   -20.269445            0            0            0            0   -20.269445    1316.8983    1296.6289 
   67200    312.47034    170.13468    170.13468            0            0            0            0    170.13468    1216.4276    1386.5623 
   67400    300.11584    91.027739    91.027739            0            0            0            0    91.027739    1168.3323    1259.3601 
   67600    326.63596   -14.471677   -14.471677            0            0            0            0   -14.471677    1271.5735    1257.1018 
   67800    334.23141    22.461493    22.461493            0            0            0            0    22.461493    1301.1421    1323.6036 
   68000    328.44721    14.958399    14.958399            0            0            0            0    14.958399    1278.6246     1293.583 
   68200    284.29518    232.46796    232.46796            0            0            0            0    232.46796    1106.7435    1339.2115 
   68400    327.24157    23.952625    23.952625            0            0            0            0    23.952625    1273.9311    1297.8838 
   68600     269.0985    134.06795    134.06795            0            0            0            0    134.06795    1047.5838    1181.6517 
   68800     313.8412    50.524912    50.524912            0            0            0            0    50.524912    1221.7643    1272.2892 
   69000    321.39795    31.690691    31.690691            0            0            0            0    31.690691    1251.1823     1282.873 
   69200    316.60087    39.558108    39.558108            0            0            0            0    39.558108    1232.5075    1272.0656 
   69400    293.66432     68.76551     68.76551            0            0            0            0     68.76551     1143.217    1211.9825 
   69600     318.6267    83.292342    83.292342            0            0            0            0    83.292342     1240.394    1323.6863 
   69800    320.23641    90.188228    90.188228            0            0            0            0    90.188228    1246.6605    1336.8487 
   70000    317.90905    29.688316    29.688316            0            0            0            0    29.688316    1237.6002    1267.2885 
   70200    240.19809    298.35262    298.35262            0            0            0            0    298.35262    935.07624    1233.4289 
   70400    275.27857    182.95567    182.95567            0            0            0            0    182.95567    1071.6424    1254.5981 
   70600    341.21177    14.392453    14.392453            0            0            0            0    14.392453    1328.3162    1342.7087 
   70800       314.51     76.76185     76.76185            0            0            0            0     76.76185    1224.3679    1301.1298 
   71000    297.25982     111.3462     111.3462            0            0            0            0     111.3462     1157.214    1268.5602 
   71200    331.02382    41.023837    41.023837            0            0            0            0    41.023837    1288.6552     1329.679 
   71400    304.66236    78.043074    78.043074            0            0            0            0    78.043074    1186.0317    1264.0747 
   71600    300.01327    71.724912    71.724912            0            0            0            0    71.724912     1167.933     1239.658 
   71800     322.0729    59.478891    59.478891            0            0            0            0    59.478891    1253.8098    1313.2887 
   72000    313.98748   -24.506286   -24.506286            0            0            0            0   -24.506286    1222.3338    1197.8275 
   72200    285.58558    159.18896    159.18896            0            0            0            0    159.18896     1111.767    1270.9559 
   72400    314.67876    77.863088    77.863088            0            0            0            0    77.863088    1225.0249     1302.888 
   72600    327.57678    7.0576092    7.0576092            0            0            0            0    7.0576092    1275.2361    1282.2937 
   72800    301.98684     100.8279     100.8279            0            0            0            0     100.8279     1175.616    1276.4439 
   73000    338.52776   -12.881775   -12.881775            0            0            0            0   -12.881775    1317.8676    1304.9858 
   73200    318.75504   -4.6224914   -4.6224914            0            0            0            0   -4.6224914    1240.8936    1236.2711 
   73400    312.99824     51.97185     51.97185            0            0            0            0     51.97185    1218.4827    1270.4546 
   73600    332.89694   -17.657699   -17.657699            0            0            0            0   -17.657699    1295.9471    1278.2894 
   73800    332.08759    5.1794222    5.1794222            0            0            0            0    5.1794222    1292.7964    1297.9758 
   74000    325.78329    49.291802    49.291802            0            0            0            0    49.291802    1268.2541    1317.5459 
   74200    337.59444   -10.174932   -10.174932            0            0            0            0   -10.174932    1314.2342    1304.0593 
   74400    300.67439    126.90944    126.90944            0            0            0            0    126.90944    1170.5067    1297.4162 
   74600    329.91453    108.08905    108.08905            0            0            0            0    108.08905    1284.3368    1392.4258 
   74800    315.80598    25.513729    25.513729            0            0            0            0    25.513729    1229.4131    1254.9268 
   75000    285.69555    196.49329    196.49329            0            0            0            0    196.49329     1112.195    1308.6883 
   75200    298.29445    133.06297    133.06297            0            0            0            0    133.06297    1161.2418    1294.3048 
   75400    309.87493   -1.5735843   -1.5735843            0            0            0            0   -1.5735843    1206.3239    1204.7503 
   75600    286.53027    141.29355    141.29355            0            0            0            0    141.29355    1115.4445    1256.7381 
   75800    334.65772     86.41971     86.41971            0            0            0            0     86.41971    1302.8017    1389.2214 
   76000     309.7209    29.640073    29.640073            0            0            0            0    29.640073    1205.7243    1235.3643 
   76200    304.13491    12.964799    12.964799            0            0            0            0    12.964799    1183.9783    1196.9431 
   76400    295.34579    152.01114    152.01114            0            0            0            0    152.01114    1149.7628     1301.774 
   76600    308.47961    74.900697    74.900697            0            0            0            0    74.900697     1200.892    1275.7927 
   76800    328.38076   -2.5375775   -2.5375775            0            0            0            0   -2.5375775    1278.3659    1275.8283 
   77000    306.69102     46.95634     46.95634            0            0            0            0     46.95634    1193.9291    1240.8854 
   77200    335.74404   -9.0407237   -9.0407237            0            0            0            0   -9.0407237    1307.0307      1297.99 
   77400    248.85018    305.50075    305.50075            0            0            0            0    305.50075    968.75832    1274.2591 
   77600    310.32808    76.635984    76.635984            0            0            0            0    76.635984     1208.088    1284.7239 
   77800    321.81451   -4.4488801   -4.4488801            0            0            0            0   -4.4488801    1252.8039     1248.355 
   78000    295.75618    100.62955    100.62955            0            0            0            0    100.62955    1151.3605      1251.99 
   78200    343.68959    64.295922    64.295922            0            0            0            0    64.295922    1337.9622    1402.2582 
   78400    298.26042    70.369513    70.369513            0            0            0            0    70.369513    1161.1093    1231.4788 
   78600    307.84621    48.098509    48.098509            0            0            0            0    48.098509    1198.4262    1246.5247 
   78800    313.11401    59.689537    59.689537            0            0            0            0    59.689537    1218.9334    1278.6229 
   79000    336.20176    -20.49009    -20.49009            0            0            0            0    -20.49009    1308.8126    1288.3225 
   79200    280.41882    97.223271    97.223271            0            0            0            0    97.223271    1091.6531    1188.8763 
   79400    338.79827    47.199107    47.199107            0            0            0            0    47.199107    1318.9206    1366.1197 
   79600    298.84168    33.629546    33.629546            0            0            0            0    33.629546    1163.3721    1197.0017 
   79800    307.62362    69.611359    69.611359            0            0            0            0    69.611359    1197.5597     1267.171 
   80000    321.06131    79.674964    79.674964            0            0            0            0    79.674964    1249.8718    1329.5467 
   80200    308.67231    11.548066    11.548066            0            0            0            0    11.548066    1201.6422    1213.1902 
   80400    323.25187    37.473773    37.473773            0            0            0            0    37.473773    1258.3995    1295.8732 
   80600    335.97504    67.391668    67.391668            0            0            0            0    67.391668      1307.93    1375.3216 
   80800    322.49776   -21.412633   -21.412633            0            0            0            0   -21.412633    1255.4638    1234.0511 
   81000    315.85686    49.770774    49.770774            0            0            0            0    49.770774    1229.6111    1279.3819 
   81200     323.4346    50.909242    50.909242            0            0            0            0    50.909242    1259.1108    1310.0201 
   81400     318.5184    11.746673    11.746673            0            0            0            0    11.746673    1239.9723     1251.719 
   81600    306.04374    82.567827    82.567827            0            0            0            0    82.567827    1191.4093    1273.9771 
   81800    274.06047    213.52875    213.52875            0            0            0            0    213.52875    1066.9004    1280.4291 
   82000    298.31559    85.734625    85.734625            0            0            0            0    85.734625    1161.3241    1247.0587 
   82200    306.69497    123.09201    123.09201            0            0            0            0    123.09201    1193.9445    1317.0365 
   82400    323.08044   -14.392402   -14.392402            0            0            0            0   -14.392402    1257.7321    1243.3397 
   82600    314.31826    26.676483    26.676483            0            0            0            0    26.676483    1223.6215     1250.298 
   82800    326.14994    71.755043    71.755043            0            0            0            0    71.755043    1269.6815    1341.4365 
   83000    323.66452    26.496935    26.496935            0            0            0            0    26.496935    1260.0059    1286.5028 
   83200    279.72121    157.92012    157.92012            0            0            0            0    157.92012    1088.9373    1246.8574 
   83400    293.37542    187.20665    187.20665            0            0            0            0    187.20665    1142.0923    1329.2989 
   83600     322.4372    -15.98836    -15.98836            0            0            0            0    -15.98836     1255.228    1239.2397 
   83800    328.42597     17.41832     17.41832            0            0            0            0     17.41832    1278.5419    1295.9602 
   84000    345.49577    2.6748841    2.6748841            0            0            0            0    2.6748841    1344.9936    1347.6685 
   84200    252.88949    225.00545    225.00545            0            0            0            0    225.00545    984.48309    1209.4885 
   84400    349.65684    14.822467    14.822467            0            0            0            0    14.822467    1361.1924    1376.0148 
   84600    294.86805    54.020665    54.020665            0            0            0            0    54.020665     1147.903    1201.9237 
   84800    268.34443    259.63825    259.63825            0            0            0            0    259.63825    1044.6482    1304.2865 
   85000    291.59641    138.33893    138.33893            0            0            0            0    138.33893    1135.1667    1273.5056 
   85200    310.64599   -19.409484   -19.409484            0            0            0            0   -19.409484    1209.3255    1189.9161 
   85400    302.77134    107.94302    107.94302            0            0            0            0    107.94302      1178.67    1286.6131 
   85600    308.26103    88.898058    88.898058            0            0            0            0    88.898058    1200.0411    1288.9391 
   85800    262.68251     186.1832     186.1832            0            0            0            0     186.1832    1022.6067    1208.7899 
   86000    291.86149    210.67042    210.67042            0            0            0            0    210.67042    1136.1987    1346.8691 
   86200    317.22274    26.814417    26.814417            0            0            0            0    26.814417    1234.9284    1261.7428 
   86400    281.91897    173.49697    173.49697            0            0            0            0    173.49697    1097.4931      1270.99 
   86600     302.0273    73.512263    73.512263            0            0            0            0    73.512263    1175.7735    1249.2858 
   86800    302.88815    24.803009    24.803009            0            0            0            0    24.803009    1179.1248    1203.9278 
   87000      316.104    97.221821    97.221821            0            0            0            0    97.221821    1230.5733    1327.7951 
   87200    319.67275    23.810454    23.810454            0            0            0            0    23.810454    1244.4662    1268.2766 
   87400    303.38659     55.90163     55.90163            0            0            0            0     55.90163    1181.0652    1236.9668 
   87600    349.85942    30.429587    30.429587            0            0            0            0    30.429587     1361.981    1392.4106 
   87800    268.85563    205.78427    205.78427            0            0            0            0    205.78427    1046.6383    1252.4225 
   88000    295.86895    165.50169    165.50169            0            0            0            0    165.50169    1151.7995    1317.3012 
   88200    288.22351    106.62593    106.62593            0            0            0            0    106.62593    1122.0362    1228.6621 
   88400    280.54093    161.19668    161.19668            0            0            0            0    161.19668    1092.1284    1253.3251 
   88600    336.17639    45.296118    45.296118            0            0            0            0    45.296118    1308.7138    1354.0099 
   88800    289.05115    105.47299    105.47299            0            0            0            0    105.47299    1125.2582    1230.7312 
   89000    332.67371    7.2753685    7.2753685            0            0            0            0    7.2753685    1295.0781    1302.3535 
   89200    345.04762     2.672877     2.672877            0            0            0            0     2.672877     1343.249    1345.9218 
   89400    289.24307    87.900222    87.900222            0            0            0            0    87.900222    1126.0053    1213.9056 
   89600    292.60126    138.40375    138.40375            0            0            0            0    138.40375    1139.0785    1277.4823 
   89800    325.16458     103.3006     103.3006            0            0            0            0     103.3006    1265.8455    1369.1461 
   90000     330.7074   -16.283953   -16.283953            0            0            0            0   -16.283953    1287.4234    1271.1394 
   90200    308.59937    54.966088    54.966088            0            0            0            0    54.966088    1201.3582    1256.3243 
   90400    332.82926   -20.310964   -20.310964            0            0            0            0   -20.310964    1295.6836    1275.3727 
   90600    334.90981   -14.806474   -14.806474            0            0            0            0   -14.806474    1303.7831    1288.9766 
   90800     335.0177     27.00598     27.00598            0            0            0            0     27.00598    1304.2031    1331.2091 
   91000    328.82395   -9.3186853   -9.3186853            0            0            0            0   -9.3186853    1280.0912    1270.7725 
   91200    296.85984    128.10485    128.10485            0            0            0            0    128.10485    1155.6569    1283.7618 
   91400    295.73207    136.48332    136.48332            0            0            0            0    136.48332    1151.2666    1287.7499 
   91600     325.2655    67.848459    67.848459            0            0            0            0    67.848459    1266.2384    1334.0869 
   91800     354.8455   0.70726715   0.70726715            0            0            0            0   0.70726715    1381.3915    1382.0988 
   92000    304.04798    30.121257    30.121257            0            0            0            0    30.121257    1183.6399    1213.7612 
   92200    309.81158    135.66341    135.66341            0            0            0            0    135.66341    1206.0772    1341.7407 
   92400    292.70178    99.040217    99.040217            0            0            0            0    99.040217    1139.4699    1238.5101 
   92600    335.89198   -17.106695   -17.106695            0            0            0            0   -17.106695    1307.6066       1290.5 
   92800    293.96883    74.615907    74.615907            0            0            0            0    74.615907    1144.4024    1219.0183 
   93000    248.87655    316.36787    316.36787            0            0            0            0    316.36787    968.86095    1285.2288 
   93200    340.40707   0.62752816   0.62752816            0            0            0            0   0.62752816    1325.1836    1325.8111 
   93400    299.18191    73.156762    73.156762            0            0            0            0    73.156762    1164.6966    1237.8534 
   93600     323.3388    46.170801    46.170801            0            0            0            0    46.170801    1258.7379    1304.9087 
   93800    308.82793    3.1421479    3.1421479            0            0            0            0    3.1421479    1202.2479    1205.3901 
   94000     307.9192    105.25697    105.25697            0            0            0            0    105.25697    1198.7103    1303.9673 
   94200    320.63219      44.7745      44.7745            0            0            0            0      44.7745    1248.2012    1292.9757 
   94400    330.20082   -6.1496589   -6.1496589            0            0            0            0   -6.1496589    1285.4513    1279.3016 
   94600    296.46786    100.22844    100.22844            0            0            0            0    100.22844     1154.131    1254.3594 
   94800    332.35352     25.79201     25.79201            0            0            0            0     25.79201    1293.8316    1319.6237 
   95000    323.21998    16.215923    16.215923            0            0            0            0    16.215923    1258.2753    1274.4913 
   95200     292.4424    164.91502    164.91502            0            0            0            0    164.91502    1138.4601    1303.3751 
   95400    312.22145    51.709074    51.709074            0            0            0            0    51.709074    1215.4587    1267.1678 
   95600    283.57444    98.125471    98.125471            0            0            0            0    98.125471    1103.9377    1202.0632 
   95800    312.42132    87.763316    87.763316            0            0            0            0    87.763316    1216.2368    1304.0001 
   96000    309.89961    99.882284    99.882284            0            0            0            0    99.882284      1206.42    1306.3022 
   96200    319.19414    107.71087    107.71087            0            0            0            0    107.71087     1242.603    1350.3138 
   96400    320.16865    6.8040351    6.8040351            0            0            0            0    6.8040351    1246.3967    1253.2007 
   96600    305.88235    72.074991    72.074991            0            0            0            0    72.074991     1190.781     1262.856 
   96800    320.60357     65.07572     65.07572            0            0            0            0     65.07572    1248.0898    1313.1655 
   97000    319.32747    19.342191    19.342191            0            0            0            0    19.342191     1243.122    1262.4642 
   97200    320.92196    76.466363    76.466363            0            0            0            0    76.466363    1249.3293    1325.7956 
   97400     303.2673    90.457526    90.457526            0            0            0            0    90.457526    1180.6008    1271.0583 
   97600    329.41212  -0.62781684  -0.62781684            0            0            0            0  -0.62781684    1282.3809    1281.7531 
   97800    266.53337    200.53833    200.53833            0            0            0            0    200.53833    1037.5979    1238.1362 
   98000    285.18856    164.99556    164.99556            0            0            0            0    164.99556    1110.2214    1275.2169 
   98200    307.48593    120.84029    120.84029            0            0            0            0    120.84029    1197.0237    1317.8639 
   98400     297.3049     86.31571     86.31571            0            0            0            0     86.31571    1157.3895    1243.7052 
   98600    330.16443    15.526289    15.526289            0            0            0            0    15.526289    1285.3096    1300.8359 
   98800    345.49148   -21.849647   -21.849647            0            0            0            0   -21.849647    1344.9769    1323.1272 
   99000    303.64691    141.16444    141.16444            0            0            0            0    141.16444    1182.0786     1323.243 
   99200    323.61869   -11.689941   -11.689941            0            0            0            0   -11.689941    1259.8275    1248.1375 
   99400    324.35172    65.019561    65.019561            0            0            0            0    65.019561    1262.6811    1327.7007 
   99600    293.11633    50.559952    50.559952            0            0            0            0    50.559952    1141.0837    1191.6436 
   99800    338.21449    35.551963    35.551963            0            0            0            0    35.551963     1316.648       1352.2 
  100000     318.7614    69.920931    69.920931            0            0            0            0    69.920931    1240.9184    1310.8393 
  100200    296.60449    83.355803    83.355803            0            0            0            0    83.355803    1154.6629    1238.0187 
  100400    297.65235    202.73104    202.73104            0            0            0            0    202.73104    1158.7421    1361.4732 
  100600    309.11361    55.320945    55.320945            0            0            0            0    55.320945    1203.3601     1258.681 
  100800     321.7575    20.548247    20.548247            0            0            0            0    20.548247     1252.582    1273.1302 
  101000    317.57019    63.267829    63.267829            0            0            0            0    63.267829     1236.281    1299.5489 
  101200    328.06301    11.818112    11.818112            0            0            0            0    11.818112    1277.1289     1288.947 
  101400    312.63663    117.10076    117.10076            0            0            0            0    117.10076     1217.075    1334.1758 
  101600    300.63949    88.089338    88.089338            0            0            0            0    88.089338    1170.3709    1258.4602 
  101800    286.30224    128.54174    128.54174            0            0            0            0    128.54174    1114.5569    1243.0986 
  102000    295.05225    143.20531    143.20531            0            0            0            0    143.20531    1148.6201    1291.8254 
  102200    302.16139    88.193951    88.193951            0            0            0            0    88.193951    1176.2956    1264.4895 
  102400    286.03551    169.55531    169.55531            0            0            0            0    169.55531    1113.5185    1283.0738 
  102600    314.95141    86.193972    86.193972            0            0            0            0    86.193972    1226.0863    1312.2803 
  102800    287.56477    116.58271    116.58271            0            0            0            0    116.58271    1119.4718    1236.0545 
  103000     305.4432    88.055501    88.055501            0            0            0            0    88.055501    1189.0714    1277.1269 
  103200    329.73294    28.099736    28.099736            0            0            0            0    28.099736    1283.6299    1311.7296 
  103400    318.49028   -7.4616765   -7.4616765            0            0            0            0   -7.4616765    1239.8629    1232.4012 
  103600    276.66517    169.43509    169.43509            0            0            0            0    169.43509    1077.0403    1246.4754 
  103800    299.90004    96.036784    96.036784            0            0            0            0    96.036784    1167.4922     1263.529 
  104000    316.77614    41.371363    41.371363            0            0            0            0    41.371363    1233.1898    1274.5612 
  104200     334.3699    46.051228    46.051228            0            0            0            0    46.051228    1301.6813    1347.7325 
  104400    302.44436    46.528344    46.528344            0            0            0            0    46.528344    1177.3971    1223.9255 
  104600     311.7809    106.97293    106.97293            0            0            0            0    106.97293    1213.7437    1320.7166 
  104800    316.56376    90.246282    90.246282            0            0            0            0    90.246282    1232.3631    1322.6093 
  105000     314.8345    11.043094    11.043094            0            0            0            0    11.043094    1225.6312    1236.6742 
  105200     331.4357    14.899412    14.899412            0            0            0            0    14.899412    1290.2586     1305.158 
  105400    308.46402    9.5698048    9.5698048            0            0            0            0    9.5698048    1200.8313    1210.4011 
  105600    290.17809    170.74654    170.74654            0            0            0            0    170.74654    1129.6453    1300.3918 
  105800    322.91369   -17.202276   -17.202276            0            0            0            0   -17.202276    1257.0829    1239.8807 
  106000    277.54889    170.97415    170.97415            0            0            0            0    170.97415    1080.4806    1251.4548 
  106200    312.64518    100.46612    100.46612            0            0            0            0    100.46612    1217.1083    1317.5744 
  106400     313.3459     21.69154     21.69154            0            0            0            0     21.69154    1219.8361    1241.5277 
  106600    331.83471     21.09972     21.09972            0            0            0            0     21.09972    1291.8119    1312.9116 
  106800    286.33933    83.765855    83.765855            0            0            0            0    83.765855    1114.7012    1198.4671 
  107000    317.22322    75.154927    75.154927            0            0            0            0    75.154927    1234.9303    1310.0852 
  107200    342.81383    77.916764    77.916764            0            0            0            0    77.916764    1334.5529    1412.4697 
  107400    260.57063    246.26466    246.26466            0            0            0            0    246.26466    1014.3853      1260.65 
  107600    332.74758   -18.377837   -18.377837            0            0            0            0   -18.377837    1295.3657    1276.9878 
  107800    316.42829    74.817869    74.817869            0            0            0            0    74.817869    1231.8357    1306.6536 
  108000    320.40362    2.1114416    2.1114416            0            0            0            0    2.1114416    1247.3114    1249.4228 
  108200    305.19101    7.2907209    7.2907209            0            0            0            0    7.2907209    1188.0897    1195.3804 
  108400     310.9345    134.93828    134.93828            0            0            0            0    134.93828    1210.4487     1345.387 
  108600    310.11601    43.920719    43.920719            0            0            0            0    43.920719    1207.2624    1251.1831 
  108800     310.8944    51.751925    51.751925            0            0            0            0    51.751925    1210.2926    1262.0445 
  109000    289.93049    175.91184    175.91184            0            0            0            0    175.91184    1128.6814    1304.5932 
  109200    307.66845    32.002531    32.002531            0            0            0            0    32.002531    1197.7342    1229.7367 
  109400    314.91963    132.85759    132.85759            0            0            0            0    132.85759    1225.9626    1358.8202 
  109600    299.42974    69.020143    69.020143            0            0            0            0    69.020143    1165.6614    1234.6815 
  109800    288.16838    107.68802    107.68802            0            0            0            0    107.68802    1121.8216    1229.5097 
  110000    337.19932    93.451776    93.451776            0            0            0            0    93.451776     1312.696    1406.1478 
  110200    330.19191   -28.373688   -28.373688            0            0            0            0   -28.373688    1285.4166    1257.0429 
  110400    305.53997    24.039269    24.039269            0            0            0            0    24.039269    1189.4482    1213.4874 
  110600    309.37665    151.33069    151.33069            0            0            0            0    151.33069    1204.3841    1355.7148 
  110800    316.22274    66.863656    66.863656            0            0            0            0    66.863656    1231.0355    1297.8992 
  111000    306.32182    44.776392    44.776392            0            0            0            0    44.776392    1192.4918    1237.2682 
  111200    311.87336    46.877513    46.877513            0            0            0            0    46.877513    1214.1036    1260.9811 
  111400    305.12707    134.28052    134.28052            0            0            0            0    134.28052    1187.8407    1322.1213 
  111600    322.78932    66.349796    66.349796            0            0            0            0    66.349796    1256.5988    1322.9486 
  111800    308.64031    14.755825    14.755825            0            0            0            0    14.755825    1201.5176    1216.2734 
  112000    256.89674    240.00244    240.00244            0            0            0            0    240.00244    1000.0831    1240.0855 
  112200    338.46863     16.98086     16.98086            0            0            0            0     16.98086    1317.6374    1334.6182 
  112400    300.82316    52.256792    52.256792            0            0            0            0    52.256792    1171.0859    1223.3427 
  112600    287.81867    207.11596    207.11596            0            0            0            0    207.11596    1120.4602    1327.5762 
  112800    328.41089    22.529053    22.529053            0            0            0            0    22.529053    1278.4832    1301.0123 
  113000    320.54731    19.059861    19.059861            0            0            0            0    19.059861    1247.8708    1266.9307 
  113200    267.70991     234.1661     234.1661            0            0            0            0     234.1661    1042.1781    1276.3442 
  113400    321.87622    10.882223    10.882223            0            0            0            0    10.882223    1253.0441    1263.9264 
  113600    295.61258     203.2732     203.2732            0            0            0            0     203.2732    1150.8014    1354.0746 
  113800    285.47436    198.49092    198.49092            0            0            0            0    198.49092     1111.334    1309.8249 
  114000    304.71511   0.58300229   0.58300229            0            0            0            0   0.58300229     1186.237      1186.82 
  114200    328.84643    45.709102    45.709102            0            0            0            0    45.709102    1280.1787    1325.8878 
  114400    321.92096   -3.7743681   -3.7743681            0            0            0            0   -3.7743681    1253.2183    1249.4439 
  114600    321.90906    43.823566    43.823566            0            0            0            0    43.823566     1253.172    1296.9955 
  114800     296.7459     51.65785     51.65785            0            0            0            0     51.65785    1155.2134    1206.8712 
  115000    335.64001    31.850756    31.850756            0            0            0            0    31.850756    1306.6257    1338.4765 
  115200    273.67626    168.33558    168.33558            0            0            0            0    168.33558    1065.4047    1233.7403 
  115400    330.76858   -14.353352   -14.353352            0            0            0            0   -14.353352    1287.6616    1273.3082 
  115600    280.62282    118.34998    118.34998            0            0            0            0    118.34998    1092.4472    1210.7972 
  115800    347.33818    8.6708655    8.6708655            0            0            0            0    8.6708655     1352.166    1360.8368 
  116000    322.28945   -12.214626   -12.214626            0            0            0            0   -12.214626    1254.6528    1242.4382 
  116200    319.28704     33.99972     33.99972            0            0            0            0     33.99972    1242.9646    1276.9644 
  116400    355.38921   -8.3002094   -8.3002094            0            0            0            0   -8.3002094    1383.5081    1375.2079 
  116600    298.23671    38.418724    38.418724            0            0            0            0    38.418724     1161.017    1199.4357 
  116800      322.634    82.968701    82.968701            0            0            0            0    82.968701    1255.9941    1338.9628 
  117000    315.00255    22.583866    22.583866            0            0            0            0    22.583866    1226.2854    1248.8692 
  117200    266.25053    202.66509    202.66509            0            0            0            0    202.66509    1036.4968    1239.1619 
  117400    351.75277    5.8112038    5.8112038            0            0            0            0    5.8112038    1369.3517    1375.1629 
  117600    287.77268     81.54425     81.54425            0            0            0            0     81.54425    1120.2812    1201.8254 
  117800    257.99537     270.0836     270.0836            0            0            0            0     270.0836    1004.3599    1274.4435 
  118000    320.09482     28.32165     28.32165            0            0            0            0     28.32165    1246.1093    1274.4309 
  118200    301.54574    33.790605    33.790605            0            0            0            0    33.790605    1173.8989    1207.6895 
  118400    331.69822    117.33839    117.33839            0            0            0            0    117.33839    1291.2806     1408.619 
  118600    280.47512    121.07476    121.07476            0            0            0            0    121.07476    1091.8722     1212.947 
  118800    338.14162    54.513072    54.513072            0            0            0            0    54.513072    1316.3643    1370.8774 
  119000    316.58768    61.190688    61.190688            0            0            0            0    61.190688    1232.4562    1293.6469 
  119200    289.01663    219.96186    219.96186            0            0            0            0    219.96186    1125.1238    1345.0857 
  119400    338.18934    -2.076168    -2.076168            0            0            0            0    -2.076168    1316.5501    1314.4739 
  119600    306.40846    96.199238    96.199238            0            0            0            0    96.199238    1192.8291    1289.0283 
  119800    309.35709    54.390208    54.390208            0            0            0            0    54.390208     1204.308    1258.6982 
  120000    288.19219    176.58013    176.58013            0            0            0            0    176.58013    1121.9143    1298.4944 
  120200    343.19854   -2.8266408   -2.8266408            0            0            0            0   -2.8266408    1336.0506     1333.224 
  120400    283.70084    57.098673    57.098673            0            0            0            0    57.098673    1104.4298    1161.5285 
  120600    324.96612    59.575331    59.575331            0            0            0            0    59.575331    1265.0729    1324.6483 
  120800    313.20445    86.808287    86.808287            0            0            0            0    86.808287    1219.2855    1306.0938 
  121000    313.08851   -8.1006557   -8.1006557            0            0            0            0   -8.1006557    1218.8342    1210.7335 
  121200    304.63616    87.808717    87.808717            0            0            0            0    87.808717    1185.9297    1273.7384 
  121400    290.12056    92.067642    92.067642            0            0            0            0    92.067642    1129.4213     1221.489 
  121600    322.53721    23.429008    23.429008            0            0            0            0    23.429008    1255.6174    1279.0464 
  121800    317.37438      112.457      112.457            0            0            0            0      112.457    1235.5188    1347.9757 
  122000    309.22894    40.120459    40.120459            0            0            0            0    40.120459    1203.8091    1243.9295 
  122200    273.39401     197.6792     197.6792            0            0            0            0     197.6792    1064.3059    1261.9851 
  122400    324.82239    41.069566    41.069566            0            0            0            0    41.069566    1264.5134     1305.583 
  122600    302.79288    56.574462    56.574462            0            0            0            0    56.574462    1178.7539    1235.3284 
  122800    315.57985    69.220239    69.220239            0            0            0            0    69.220239    1228.5327     1297.753 
  123000    318.96487    59.662218    59.662218            0            0            0            0    59.662218    1241.7104    1301.3727 
  123200     307.5505    83.239312    83.239312            0            0            0            0    83.239312     1197.275    1280.5143 
  123400    315.58545    12.792436    12.792436            0            0            0            0    12.792436    1228.5546     1241.347 
  123600    335.94687    9.5464509    9.5464509            0            0            0            0    9.5464509    1307.8203    1317.3668 
  123800    307.30092    32.380877    32.380877            0            0            0            0    32.380877    1196.3034    1228.6843 
  124000    329.65954    9.9247145    9.9247145            0            0            0            0    9.9247145    1283.3441    1293.2688 
  124200    298.07645    130.01566    130.01566            0            0            0            0    130.01566    1160.3931    1290.4088 
  124400    318.27995   -13.647402   -13.647402            0            0            0            0   -13.647402    1239.0441    1225.3967 
  124600    300.15166    108.35599    108.35599            0            0            0            0    108.35599    1168.4718    1276.8278 
  124800    307.41765    120.94279    120.94279            0            0            0            0    120.94279    1196.7578    1317.7006 
  125000    317.70522   -11.957566   -11.957566            0            0            0            0   -11.957566    1236.8067    1224.8491 
  125200    320.67326   -10.434555   -10.434555            0            0            0            0   -10.434555    1248.3611    1237.9265 
  125400     337.0183     24.19399     24.19399            0            0            0            0     24.19399    1311.9913    1336.1853 
  125600    269.22699    215.70501    215.70501            0            0            0            0    215.70501    1048.0839     1263.789 
  125800    317.54849    44.947317    44.947317            0            0            0            0    44.947317    1236.1966    1281.1439 
  126000    298.02385    110.14197    110.14197            0            0            0            0    110.14197    1160.1884    1270.3303 
  126200    320.36341    44.366405    44.366405            0            0            0            0    44.366405    1247.1549    1291.5213 
  126400     340.1007   -1.2827475   -1.2827475            0            0            0            0   -1.2827475    1323.9909    1322.7082 
  126600    287.08526    76.460777    76.460777            0            0            0            0    76.460777    1117.6051    1194.0659 
  126800    329.77812    44.988249    44.988249            0            0            0            0    44.988249    1283.8058     1328.794 
  127000    325.41088    15.557978    15.557978            0            0            0            0    15.557978    1266.8044    1282.3623 
  127200    314.61716    50.331278    50.331278            0            0            0            0    50.331278    1224.7851    1275.1164 
  127400    310.24963    91.909519    91.909519            0            0            0            0    91.909519    1207.7826    1299.6921 
  127600    309.78166    51.433667    51.433667            0            0            0            0    51.433667    1205.9608    1257.3945 
  127800    321.40727    78.298571    78.298571            0            0            0            0    78.298571    1251.2186    1329.5171 
  128000    316.88163    70.826661    70.826661            0            0            0            0    70.826661    1233.6005    1304.4272 
  128200    240.62462    322.10089    322.10089            0            0            0            0    322.10089    936.73673    1258.8376 
  128400    321.93251    14.078519    14.078519            0            0            0            0    14.078519    1253.2633    1267.3418 
  128600     308.0545    86.020909    86.020909            0            0            0            0    86.020909     1199.237    1285.2579 
  128800    316.74798    90.478632    90.478632            0            0            0            0    90.478632    1233.0802    1323.5589 
  129000     307.2376     61.09923     61.09923            0            0            0            0     61.09923    1196.0569    1257.1561 
  129200     308.3941    11.621177    11.621177            0            0            0            0    11.621177    1200.5591    1212.1803 
  129400    305.19983    150.99114    150.99114            0            0            0            0    150.99114     1188.124    1339.1151 
  129