LAMMPS (30 Jul 2016)

# ----------------- Init Section -----------------

units real
processors 1 1 1
newton off
atom_style full
atom_modify sort 0 10.0

# ----------------- Atom Definition Section -----------------

read_data "MgMOF74-Pressure50000.data"
  orthogonal box = (0.4447 0.31425 -0.401771) to (26.5587 45.5442 27.2652)
  1 by 1 by 1 MPI processor grid
  reading atoms ...
  1307 atoms
  0 = max # of 1-2 neighbors
  0 = max # of 1-3 neighbors
  0 = max # of 1-4 neighbors
  1 = max # of special neighbors

# ----------------- Settings Section -----------------

#include "MgMOF74-Pressure50000.in.settings"

# ----------------- Run Section -----------------

# define groups
group GUEST type 1
11 atoms in group GUEST
group MOF type 2 3 4 5 6 7 8 9 10
1296 atoms in group MOF

# define computes
compute comT all com
compute comG GUEST com
compute comM MOF com

# settings
timestep           0.5
thermo             200
thermo_style       custom step temp epair emol etotal c_comT[1] c_comT[2] c_comT[3] c_comG[1] c_comG[2] c_comG[3] c_comM[1] c_comM[2] c_comM[3]
restart            2000000 sim.restart

# reset box to start at 0
change_box         all x delta $(-xlo) $(-xlo) y delta $(-ylo) $(-ylo) z delta $(-zlo) $(-zlo) remap units box
change_box         all x delta -0.44469999999999998419 $(-xlo) y delta $(-ylo) $(-ylo) z delta $(-zlo) $(-zlo) remap units box
change_box         all x delta -0.44469999999999998419 -0.44469999999999998419 y delta $(-ylo) $(-ylo) z delta $(-zlo) $(-zlo) remap units box
change_box         all x delta -0.44469999999999998419 -0.44469999999999998419 y delta -0.3142499999999999738 $(-ylo) z delta $(-zlo) $(-zlo) remap units box
change_box         all x delta -0.44469999999999998419 -0.44469999999999998419 y delta -0.3142499999999999738 -0.3142499999999999738 z delta $(-zlo) $(-zlo) remap units box
change_box         all x delta -0.44469999999999998419 -0.44469999999999998419 y delta -0.3142499999999999738 -0.3142499999999999738 z delta 0.40177099999999998925 $(-zlo) remap units box
change_box         all x delta -0.44469999999999998419 -0.44469999999999998419 y delta -0.3142499999999999738 -0.3142499999999999738 z delta 0.40177099999999998925 0.40177099999999998925 remap units box
  orthogonal box = (0 0.31425 -0.401771) to (26.114 45.5442 27.2652)
  orthogonal box = (0 0 -0.401771) to (26.114 45.23 27.2652)
  orthogonal box = (0 0 0) to (26.114 45.23 27.667)
write_data         data_changebox.data

# get rid of overlapping atoms
run                0
WARNING: No fixes defined, atoms won't move (../verlet.cpp:55)
Memory usage per processor = 0.478851 Mbytes
Step Temp E_pair E_mol TotEng comT[1] comT[2] comT[3] comG[1] comG[2] comG[3] comM[1] comM[2] comM[3] 
       0            0            0            0            0    12.683318    22.424053    14.189073    19.734246    34.636249    9.6241346    12.612127     22.30075    14.235163 
Loop time of 0 on 1 procs for 0 steps with 1307 atoms

0.0% CPU use with 1 MPI tasks x no OpenMP threads

MPI task timing breakdown:
Section |  min time  |  avg time  |  max time  |%varavg| %total
---------------------------------------------------------------
Pair    | 0          | 0          | 0          |   0.0 |  0.00
Bond    | 0          | 0          | 0          |   0.0 |  0.00
Neigh   | 0          | 0          | 0          |   0.0 |  0.00
Comm    | 0          | 0          | 0          |   0.0 |  0.00
Output  | 0          | 0          | 0          |   0.0 |  0.00
Modify  | 0          | 0          | 0          |   0.0 |  0.00
Other   |            | 0          |            |       |  0.00

Nlocal:    1307 ave 1307 max 1307 min
Histogram: 1 0 0 0 0 0 0 0 0 0
Nghost:    0 ave 0 max 0 min
Histogram: 1 0 0 0 0 0 0 0 0 0
Neighs:    0 ave 0 max 0 min
Histogram: 1 0 0 0 0 0 0 0 0 0

Total # of neighbors = 0
Ave neighs/atom = 0
Ave special neighs/atom = 0
Neighbor list builds = 0
Dangerous builds = 0
velocity           GUEST create 313 1738991
fix                1 GUEST nve
pair_style         soft 5.0
pair_coeff         * * 0.0 5.0
kspace_style       none
variable           prefactor equal ramp(1.0,20.0)
fix                2 all adapt 1 pair soft a * * v_prefactor
run                200000
Neighbor list info ...
  1 neighbor list requests
  update every 1 steps, delay 10 steps, check yes
  max neighbors/atom: 2000, page size: 100000
  master list distance cutoff = 7
  ghost atom cutoff = 7
  binsize = 3.5 -> bins = 8 13 8
Memory usage per processor = 5.44173 Mbytes
Step Temp E_pair E_mol TotEng comT[1] comT[2] comT[3] comG[1] comG[2] comG[3] comM[1] comM[2] comM[3] 
       0    2.3966309    8995.3087            0    9004.6386    12.683318    22.424053    14.189073    19.734246    34.636249    9.6241346    12.612127     22.30075    14.235163 
     200    3.6978075    9161.1215            0    9175.5168    12.683326    22.424111    14.189045    19.735035    34.642019    9.6213762    12.612127     22.30075    14.235163 
     400    10.113594    9306.7807            0    9346.1523    12.683324     22.42456    14.188986    19.734831    34.686925    9.6154962    12.612127     22.30075    14.235163 
     600    21.600844    9431.9861            0    9516.0768    12.683202      22.4261    14.189105    19.722689    34.841011    9.6273966    12.612127     22.30075    14.235163 
     800    24.727699    9589.2147            0    9685.4781    12.683021    22.429361    14.189502    19.704575    35.167292     9.667074    12.612127     22.30075    14.235163 
    1000     26.23779    9752.5934            0    9854.7355     12.68293    22.433799    14.190053    19.695456    35.611222    9.7221957    12.612127     22.30075    14.235163 
    1200    18.324991    9952.8207            0    10024.159    12.682914    22.439019    14.190538    19.693782    36.133499    9.7707171    12.612127     22.30075    14.235163 
    1400    9.1725184    10158.558            0    10194.267    12.683072    22.443931    14.191307    19.709651     36.62486      9.84771    12.612127     22.30075    14.235163 
    1600    5.7090557    10342.509            0    10364.734    12.683295    22.447208    14.192519    19.731926    36.952725    9.9689398    12.612127     22.30075    14.235163 
    1800    6.9852012    10508.132            0    10535.325    12.683191    22.447551    14.193986    19.721582    36.987013    10.115728    12.612127     22.30075    14.235163 
    2000    16.963473    10639.491            0    10705.529    12.683117    22.444904    14.195643    19.714106    36.722201    10.281488    12.612127     22.30075    14.235163 
    2200     22.84566    10786.257            0    10875.194     12.68318    22.441578    14.197384    19.720443    36.389517    10.455636    12.612127     22.30075    14.235163 
    2400     27.20997    10938.629            0    11044.556     12.68326    22.438096    14.199361    19.728411    36.041161    10.653387    12.612127     22.30075    14.235163 
    2600    21.818481    11128.961            0    11213.899    12.683484    22.434494    14.201628    19.750879    35.680726    10.880174    12.612127     22.30075    14.235163 
    2800    13.644312    11330.606            0    11383.722    12.684035    22.432438    14.203877    19.805996    35.475041    11.105196    12.612127     22.30075    14.235163 
    3000    7.6321668    11524.249            0    11553.961    12.684958    22.430531    14.205688    19.898279    35.284349    11.286406    12.612127     22.30075    14.235163 
    3200     10.01367     11685.37            0    11724.353     12.68609    22.427962    14.207025    20.011576    35.027347    11.420126    12.612127     22.30075    14.235163 
    3400    18.069147    11824.053            0    11894.395    12.687209      22.4234    14.208089    20.123522    34.570888    11.526564    12.612127     22.30075    14.235163 
    3600    27.362243    11957.417            0    12063.937     12.68805    22.416548    14.208696    20.207696    33.885385     11.58727    12.612127     22.30075    14.235163 
    3800    26.917874    12128.392            0    12233.181    12.688463    22.409578    14.209015    20.248939    33.188083    11.619224    12.612127     22.30075    14.235163 
    4000     20.82711    12321.556            0    12402.634    12.688606    22.403691    14.209313    20.263315    32.599143    11.649052    12.612127     22.30075    14.235163 
    4200    11.235012    12528.792            0    12572.529    12.688444    22.399107    14.209788    20.247047    32.140579    11.696594    12.612127     22.30075    14.235163 
    4400    8.8451521    12708.374            0    12742.807    12.687706    22.395667    14.210294    20.173201    31.796404    11.747184    12.612127     22.30075    14.235163 
    4600    19.400831    12837.342            0    12912.868    12.686613    22.393001    14.210894     20.06384    31.529715    11.807231    12.612127     22.30075    14.235163 
    4800    29.956213    12965.663            0    13082.281    12.685525     22.39225     14.21151     19.95508    31.454614    11.868789    12.612127     22.30075    14.235163 
    5000    30.122459    13134.181            0    13251.445    12.684971    22.392562    14.211966    19.899664     31.48584    11.914397    12.612127     22.30075    14.235163 
    5200    21.128359    13338.579            0     13420.83     12.68527    22.394474    14.212255    19.929497    31.677111    11.943365    12.612127     22.30075    14.235163 
    5400    9.2789665    13554.636            0    13590.759    12.686085    22.397615    14.212824    20.011062     31.99131    12.000248    12.612127     22.30075    14.235163 
    5600    7.5576491    13731.649            0    13761.071    12.686691     22.39982    14.214012    20.071674    32.211963    12.119112    12.612127     22.30075    14.235163 
    5800    19.622133    13854.743            0    13931.131    12.687086    22.400347    14.215571    20.111238    32.264605    12.275112    12.612127     22.30075    14.235163 
    6000    31.393742    13978.293            0    14100.507    12.687376    22.399993    14.216893    20.140221     32.22925    12.407316    12.612127     22.30075    14.235163 
    6200    29.583078    14154.522            0    14269.687    12.687684    22.399255    14.218062    20.171031    32.155393    12.524322    12.612127     22.30075    14.235163 
    6400     19.72674    14362.326            0    14439.121    12.688277    22.397839    14.219558    20.230335    32.013732    12.674006    12.612127     22.30075    14.235163 
    6600    7.3890847    14580.401            0    14609.167    12.688462    22.395488    14.221336    20.248897    31.778534    12.851799    12.612127     22.30075    14.235163 
    6800    13.033782    14728.638            0    14779.378    12.687388    22.394404    14.223467    20.141379    31.670103    13.064991    12.612127     22.30075    14.235163 
    7000    26.444564    14846.139            0    14949.086    12.685683    22.397381    14.225982    19.970798    31.967933    13.316655    12.612127     22.30075    14.235163 
    7200    32.169849    14993.075            0    15118.311    12.683922    22.404262    14.228495    19.794634    32.656327    13.568016    12.612127     22.30075    14.235163 
    7400     26.84422    15183.054            0    15287.556    12.681961    22.412057    14.230953    19.598529    33.436166    13.813963    12.612127     22.30075    14.235163 
    7600    13.645434    15404.081            0    15457.202      12.6798     22.42055     14.23361    19.382258    34.285814    14.079775    12.612127     22.30075    14.235163 
    7800    9.1907681    15591.566            0    15627.345    12.679065    22.426458    14.236091    19.308723    34.876866    14.327978    12.612127     22.30075    14.235163 
    8000    19.482515    15721.439            0    15797.283    12.679572    22.427498    14.238201    19.359456    34.980855    14.539088    12.612127     22.30075    14.235163 
    8200    26.366637    15864.198            0    15966.842    12.680695    22.423919     14.23984     19.47182    34.622791     14.70299    12.612127     22.30075    14.235163 
    8400    27.958743    16027.378            0     16136.22     12.68202    22.417791    14.241208    19.604418    34.009797     14.83991    12.612127     22.30075    14.235163 
    8600    18.649412     16233.17            0    16305.771    12.683311    22.409123    14.242304    19.733535    33.142561    14.949545    12.612127     22.30075    14.235163 
    8800     16.64094    16410.822            0    16475.604    12.683564    22.400805    14.243065    19.758853    32.310468    15.025702    12.612127     22.30075    14.235163 
    9000    21.839763    16560.286            0    16645.306    12.683041    22.396764     14.24338    19.706543    31.906224    15.057126    12.612127     22.30075    14.235163 
    9200    27.690905     16707.01            0    16814.809    12.681898    22.399032    14.243115    19.592201    32.133061    15.030634    12.612127     22.30075    14.235163 
    9400    26.939598    16879.314            0    16984.188    12.680233    22.404379     14.24281    19.425617    32.668054    15.000145    12.612127     22.30075    14.235163 
    9600    19.697896    17077.054            0    17153.737    12.678979     22.41162    14.242896     19.30016    33.392408    15.008782    12.612127     22.30075    14.235163 
    9800    17.907808    17253.824            0    17323.538    12.679037    22.418605     14.24372    19.305923    34.091166     15.09119    12.612127     22.30075    14.235163 
   10000    25.090104     17395.46            0    17493.134    12.680644    22.422211    14.245167    19.466704    34.452001    15.235959    12.612127     22.30075    14.235163 
   10200    27.507067    17555.493            0    17662.576    12.682899    22.420327    14.246944     19.69231    34.263492    15.413756    12.612127     22.30075    14.235163 
   10400    25.494844    17732.735            0    17831.985     12.68523    22.415502    14.248455    19.925567    33.780725    15.564902    12.612127     22.30075    14.235163 
   10600    19.097705     17927.22            0    18001.566    12.687214    22.408839    14.249488    20.124004    33.114215     15.66824    12.612127     22.30075    14.235163 
   10800    21.061184     18089.32            0     18171.31    12.687106    22.402379    14.250719    20.113171    32.467921    15.791339    12.612127     22.30075    14.235163 
   11000    28.460373     18229.99            0    18340.784    12.684494    22.398922    14.252227    19.851937    32.122034    15.942273    12.612127     22.30075    14.235163 
   11200    28.210417    18400.327            0    18510.149    12.680955    22.399974      14.2536    19.497884    32.227332    16.079552    12.612127     22.30075    14.235163 
   11400    21.184903    18597.167            0    18679.638      12.6769    22.403867    14.255113    19.092177    32.616812    16.231007    12.612127     22.30075    14.235163 
   11600    20.507865    18769.473            0    18849.309    12.673236     22.40989    14.256709    18.725652    33.219339    16.390653    12.612127     22.30075    14.235163 
   11800    23.856069    18926.057            0    19018.927    12.672307    22.414945    14.257945    18.632716    33.725063    16.514293    12.612127     22.30075    14.235163 
   12000    27.848731    19079.964            0    19188.377    12.674137     22.41767    14.258922     18.81576    33.997621    16.611985    12.612127     22.30075    14.235163 
   12200    25.780674    19257.436            0    19357.798    12.677181    22.417541    14.259892    19.120317    33.984757    16.709058    12.612127     22.30075    14.235163 
   12400    20.626411    19447.086            0    19527.384     12.68219    22.414918    14.261406    19.621401    33.722398     16.86054    12.612127     22.30075    14.235163 
   12600    22.181225    19610.647            0    19696.997    12.687725     22.41076    14.263276    20.175182    33.306393    17.047613    12.612127     22.30075    14.235163 
   12800    25.905593    19765.686            0    19866.535    12.690553    22.408951    14.265204    20.458036    33.125378    17.240471    12.612127     22.30075    14.235163 
   13000    27.548179    19928.729            0    20035.972    12.690547    22.408887    14.267742    20.457499    33.118982    17.494386    12.612127     22.30075    14.235163 
   13200    23.496664    20113.947            0    20205.418    12.688968    22.411208    14.271378    20.299531     33.35119    17.858187    12.612127     22.30075    14.235163 
   13400    22.197806    20288.617            0    20375.032    12.684977    22.414663    14.276123    19.900266    33.696879    18.332856    12.612127     22.30075    14.235163 
   13600    25.253626    20446.254            0    20544.564    12.681024    22.416748    14.281424    19.504767    33.905455    18.863196    12.612127     22.30075    14.235163 
   13800    30.269146    20596.151            0    20713.987    12.680167    22.415347    14.286654    19.418984    33.765254    19.386376    12.612127     22.30075    14.235163 
   14000    28.236684    20773.413            0    20883.337    12.680968    22.411125    14.292073    19.499131    33.342937    19.928549    12.612127     22.30075    14.235163 
   14200    21.853938    20967.767            0    21052.843    12.682235    22.405725    14.297254     19.62589    32.802622    20.446807    12.612127     22.30075    14.235163 
   14400    23.297917    21131.707            0    21222.404    12.684628    22.401065      14.3026    19.865326    32.336446    20.981696    12.612127     22.30075    14.235163 
   14600     26.65857    21288.141            0    21391.921    12.684279    22.400167    14.308097    19.830346    32.246624     21.53155    12.612127     22.30075    14.235163 
   14800    31.403863    21438.996            0    21561.249    12.679398     22.40267    14.313606    19.342123    32.497069    22.082687    12.612127     22.30075    14.235163 
   15000    23.864077    21637.767            0    21730.669    12.674337    22.408484     14.31857    18.835755    33.078715    22.579305    12.612127     22.30075    14.235163 
   15200    22.782964    21811.541            0    21900.233    12.670853    22.414491    14.323286    18.487175    33.679639    23.051148    12.612127     22.30075    14.235163 
   15400    23.626109     21977.85            0    22069.825    12.669482    22.418079    14.327495     18.35009    34.038557    23.472174    12.612127     22.30075    14.235163 
   15600     32.78384      22111.6            0    22239.226    12.672868    22.418295     14.33135    18.688822    34.060156    23.857895    12.612127     22.30075    14.235163 
   15800    28.976248    22295.734            0    22408.537    12.679569     22.41594    14.334733    19.359162    33.824643    24.196283    12.612127     22.30075    14.235163 
   16000    21.840825    22493.011            0    22578.036    12.685778    22.412309    14.337576    19.980378     33.46136    24.480752    12.612127     22.30075    14.235163 
   16200    20.110581    22669.381            0    22747.671    12.689202    22.410149      14.3394    20.322885    33.245253     24.66321    12.612127     22.30075    14.235163 
   16400    28.753403    22805.281            0    22917.216    12.688598    22.410992     14.34015    20.262498    33.329579    24.738183    12.612127     22.30075    14.235163 
   16600    32.177811     22961.21            0    23086.476    12.684965    22.412865    14.340543    19.898987     33.51694    24.777552    12.612127     22.30075    14.235163 
   16800    24.063495    23162.217            0    23255.895    12.680798    22.416638     14.34041    19.482164    33.894437    24.764194    12.612127     22.30075    14.235163 
   17000    19.043298    23351.332            0    23425.466    12.677777    22.420377    14.340005    19.179878    34.268466    24.723702    12.612127     22.30075    14.235163 
   17200    26.435202    23492.167            0    23595.078    12.678842    22.419561     14.33971    19.286452    34.186804    24.694189    12.612127     22.30075    14.235163 
   17400     35.05088    23627.886            0    23764.337    12.683241    22.415606    14.339449    19.726562    33.791146    24.668103    12.612127     22.30075    14.235163 
   17600    25.604189    23834.006            0    23933.681    12.687725    22.409935    14.338781    20.175132    33.223872    24.601313    12.612127     22.30075    14.235163 
   17800    23.725693    24010.821            0    24103.183    12.691705    22.404402    14.337985    20.573302    32.670267    24.521607    12.612127     22.30075    14.235163 
   18000    22.571967      24184.9            0    24272.772    12.692325    22.402949    14.336725    20.635313    32.524968    24.395548    12.612127     22.30075    14.235163 
   18200    33.529305    24311.607            0    24442.135    12.689393    22.405356    14.334944    20.341995    32.765753    24.217367    12.612127     22.30075    14.235163 
   18400     25.57478     24511.94            0    24611.501    12.686861    22.409879    14.333377    20.088654    33.218213    24.060644    12.612127     22.30075    14.235163 
   18600    26.994194    24675.898            0    24780.985    12.684829    22.414685     14.33214     19.88539    33.699064    23.936913    12.612127     22.30075    14.235163 
   18800    22.146556    24864.271            0    24950.486    12.684021    22.416702    14.331423    19.804604    33.900809    23.865207    12.612127     22.30075    14.235163 
   19000    36.920796    24976.148            0    25119.878    12.685169    22.414577     14.33001    19.919402    33.688228    23.723794    12.612127     22.30075    14.235163 
   19200    28.662748    25177.566            0    25289.149    12.686638     22.40969    14.328094    20.066369    33.199299    23.532088    12.612127     22.30075    14.235163 
   19400     23.98994    25365.241            0    25458.633    12.687001    22.403218    14.326606    20.102714    32.551892     23.38323    12.612127     22.30075    14.235163 
   19600    24.666861    25532.116            0    25628.142    12.685443    22.398854    14.325495    19.946884    32.115241    23.272117    12.612127     22.30075    14.235163 
   19800    32.220827    25672.132            0    25797.566    12.683235    22.399924    14.323659    19.725953    32.222288    23.088441    12.612127     22.30075    14.235163 
   20000    28.329502    25856.622            0    25966.907    12.680454    22.404127    14.321653    19.447762    32.642841    22.887741    12.612127     22.30075    14.235163 
   20200    26.597764    26032.811            0    26136.355    12.678167    22.409959    14.319846    19.218887    33.226206    22.707021    12.612127     22.30075    14.235163 
   20400    26.227897    26203.718            0    26305.822    12.677772    22.414335    14.318946    19.179444    33.664029    22.616975    12.612127     22.30075    14.235163 
   20600     35.85573    26335.587            0    26475.171    12.678257    22.415072     14.31859     19.22789    33.737716    22.581285    12.612127     22.30075    14.235163 
   20800     25.53051    26545.155            0    26644.544    12.679283    22.412754     14.31851    19.330539    33.505894    22.573281    12.612127     22.30075    14.235163 
   21000    29.435855    26699.394            0    26813.986    12.680992    22.408475     14.31813    19.501594    33.077786    22.535304    12.612127     22.30075    14.235163 
   21200    27.390871    26876.763            0    26983.394    12.682088    22.406504    14.317404    19.611199    32.880608    22.462629    12.612127     22.30075    14.235163 
   21400    35.078411     27016.18            0    27152.738    12.682919    22.408689    14.316854    19.694373    33.099198    22.407686    12.612127     22.30075    14.235163 
   21600    23.645116    27230.053            0    27322.102    12.682824    22.413727    14.316138     19.68485    33.603163     22.33606    12.612127     22.30075    14.235163 
   21800    29.213378    27377.873            0    27491.599    12.681959      22.4199    14.315733    19.598337    34.220766    22.295533    12.612127     22.30075    14.235163 
   22000    27.181977    27555.187            0    27661.005    12.682389    22.422571    14.314902    19.641354     34.48801    22.212392    12.612127     22.30075    14.235163 
   22200    35.597039    27691.786            0    27830.363    12.683307    22.419686    14.313786    19.733108    34.199344    22.100699    12.612127     22.30075    14.235163 
   22400    26.079124    27898.177            0    27999.702     12.68442    22.412303    14.312696    19.844505    33.460718    21.991709    12.612127     22.30075    14.235163 
   22600    28.430479    28058.482            0     28169.16     12.68668    22.401603    14.312017    20.070544    32.390243    21.923793    12.612127     22.30075    14.235163 
   22800    27.479497    28231.614            0     28338.59    12.687262    22.395561    14.311337    20.128838    31.785844    21.855705    12.612127     22.30075    14.235163 
   23000    35.618569    28369.239            0      28507.9    12.687007     22.39515    14.310682     20.10328    31.744767    21.790157    12.612127     22.30075    14.235163 
   23200      29.1091    28563.887            0    28677.207    12.686508    22.398868      14.3098    20.053368    32.116675    21.701959    12.612127     22.30075    14.235163 
   23400     25.27795    28748.233            0    28846.638    12.684494    22.406396    14.308616    19.851947    32.869812    21.583513    12.612127     22.30075    14.235163 
   23600    29.382135    28901.718            0    29016.101    12.684701     22.41076    14.307346    19.872577    33.306392    21.456448    12.612127     22.30075    14.235163 
   23800     37.72895    29038.475            0    29185.351    12.684533    22.411413     14.30571    19.855844    33.371703    21.292835    12.612127     22.30075    14.235163 
   24000    27.366997    29248.112            0     29354.65    12.684863    22.410144    14.303801    19.888795    33.244795    21.101793    12.612127     22.30075    14.235163 
   24200    22.058905    29438.292            0    29524.166    12.686472    22.406656    14.302063    20.049796    32.895755    20.927931    12.612127     22.30075    14.235163 
   24400    34.754494    29558.284            0    29693.581    12.685451    22.405769    14.301611    19.947597    32.807071    20.882699    12.612127     22.30075    14.235163 
   24600    33.451964    29732.589            0    29862.815     12.68401    22.408011    14.301311    19.803472    33.031341    20.852709    12.612127     22.30075    14.235163 
   24800    25.138084    29934.331            0    30032.192    12.680676    22.412324    14.300841    19.469953    33.462804     20.80572    12.612127     22.30075    14.235163 
   25000    28.424828    30091.015            0    30201.671    12.677098    22.415935    14.300058    19.112023    33.824091    20.727397    12.612127     22.30075    14.235163 
   25200    33.727249    30239.684            0    30370.982    12.676557    22.417166    14.298344    19.057836    33.947257    20.555899    12.612127     22.30075    14.235163 
   25400    32.798254    30412.608            0    30540.289    12.678583    22.418515    14.295494    19.260561    34.082174    20.270776    12.612127     22.30075    14.235163 
   25600     27.26785    30603.477            0    30709.629     12.68406    22.419391    14.292684    19.808439    34.169849    19.989613    12.612127     22.30075    14.235163 
   25800    33.048757    30750.409            0    30879.065    12.689374    22.421814    14.290573    20.340092    34.412279      19.7784    12.612127     22.30075    14.235163 
   26000     29.36909    30934.013            0    31048.345    12.691178    22.424443    14.289169    20.520595    34.675232    19.638037    12.612127     22.30075    14.235163 
   26200    36.098063    31077.157            0    31217.684    12.689363    22.421586    14.288648    20.339001     34.38945     19.58585    12.612127     22.30075    14.235163 
   26400    26.836448    31282.535            0    31387.008     12.68641    22.415178    14.288817    20.043527    33.748389    19.602804    12.612127     22.30075    14.235163 
   26600    34.185762    31423.275            0    31556.358    12.683361    22.405619    14.289511    19.738561    32.792046    19.672197    12.612127     22.30075    14.235163 
   26800     30.04355    31608.708            0    31725.666    12.681485    22.398044    14.290204    19.550906    32.034199    19.741518    12.612127     22.30075    14.235163 
   27000    36.840813    31751.544            0    31894.963    12.681351    22.398573    14.291489    19.537477    32.087209    19.870055    12.612127     22.30075    14.235163 
   27200    26.722496    31960.284            0    32064.313    12.681574    22.404473    14.293159    19.559781    32.677392    20.037176    12.612127     22.30075    14.235163 
   27400    33.739523     32102.29            0    32233.636    12.681892    22.412713    14.294426    19.591619    33.501729    20.163952    12.612127     22.30075    14.235163 
   27600    35.028091    32266.579            0    32402.941    12.681358    22.416526    14.295844    19.538175    33.883182    20.305743    12.612127     22.30075    14.235163 
   27800    28.193112    32462.475            0    32572.229    12.680906    22.415536    14.298021    19.492968    33.784174    20.523517    12.612127     22.30075    14.235163 
   28000    28.559634    32630.501            0    32741.682    12.681474    22.412085    14.300392    19.549731    33.438889    20.760796    12.612127     22.30075    14.235163 
   28200    35.778922    32771.692            0    32910.977    12.681168    22.407905    14.301412      19.5192    33.020759    20.862768    12.612127     22.30075    14.235163 
   28400    37.959852    32932.436            0    33080.211    12.682389     22.40587    14.302512    19.641317     32.81713    20.972835    12.612127     22.30075    14.235163 
   28600    22.354182    33162.515            0    33249.539    12.684743    22.405909    14.304344    19.876783    32.821072    21.156177    12.612127     22.30075    14.235163 
   28800    34.567257    33284.413            0    33418.981    12.689021    22.407889    14.307356    20.304752    33.019188    21.457416    12.612127     22.30075    14.235163 
   29000    36.198159    33447.302            0     33588.22    12.692509    22.410924    14.310892    20.653765    33.322799    21.811205    12.612127     22.30075    14.235163 
   29200    29.457704    33642.822            0    33757.499    12.690413    22.413892    14.314902    20.444041    33.619689    22.212332    12.612127     22.30075    14.235163 
   29400    28.484988    33816.053            0    33926.943    12.683866    22.415968    14.318812    19.789069    33.827411    22.603543    12.612127     22.30075    14.235163 
   29600    33.979836    33963.962            0    34096.243    12.676337    22.413833     14.32274     19.03582    33.613785    22.996507    12.612127     22.30075    14.235163 
   29800    37.744473    34118.554            0    34265.491    12.673836    22.408745    14.327634    18.785674    33.104776    23.486107    12.612127     22.30075    14.235163 
   30000    27.822928    34326.489            0    34434.802    12.675603     22.40408    14.332571    18.962446    32.638111    23.980035    12.612127     22.30075    14.235163 
   30200    32.073581    34479.333            0    34604.193    12.678784    22.402645    14.336879    19.280655     32.49458    24.411005    12.612127     22.30075    14.235163 
   30400    31.504933    34650.841            0    34773.488    12.682315    22.407515    14.339699     19.63388    32.981721    24.693157    12.612127     22.30075    14.235163 
   30600    32.886666      34814.8            0    34942.826    12.685166    22.414106    14.340753     19.91916    33.641095    24.798569    12.612127     22.30075    14.235163 
   30800    27.770137    35004.079            0    35112.186    12.687399    22.417039    14.340934    20.142548    33.934573      24.8167    12.612127     22.30075    14.235163 
   31000    28.384544    35171.069            0    35281.569    12.689399    22.415591    14.340764    20.342635    33.789701    24.799621    12.612127     22.30075    14.235163 
   31200    37.096548    35306.485            0      35450.9    12.685423    22.410228    14.340919    19.944825    33.253186    24.815137    12.612127     22.30075    14.235163 
   31400    33.139983    35491.117            0    35620.129    12.679092    22.406392    14.341356    19.311517    32.869371    24.858862    12.612127     22.30075    14.235163 
   31600    25.159248    35691.611            0    35789.554     12.67416      22.4041    14.342543    18.818029    32.640059    24.977668    12.612127     22.30075    14.235163 
   31800    34.223498    35825.677            0    35958.907     12.67622    22.405679    14.344151    19.024197    32.798085      25.1385    12.612127     22.30075    14.235163 
   32000    36.964931     35984.23            0    36128.132    12.684655    22.408934    14.345648    19.867982    33.123741    25.288306    12.612127     22.30075    14.235163 
   32200    23.876345    36204.543            0    36297.493    12.693508     22.41464    14.347356    20.753723    33.694498    25.459154    12.612127     22.30075    14.235163 
   32400     32.30638    36341.188            0    36466.955    12.695751    22.420808    14.349667    20.978119     34.31156    25.690377    12.612127     22.30075    14.235163 
   32600    40.474876    36478.593            0    36636.159    12.691162    22.422036    14.352612    20.518958    34.434408    25.984979    12.612127     22.30075    14.235163 
   32800     18.16725    36734.771            0    36805.495    12.683763    22.420715    14.355251    19.778806    34.302306    26.248993    12.612127     22.30075    14.235163 
   33000    31.816852    36851.138            0    36974.999    12.678702    22.415427    14.357637    19.272449    33.773286    26.487705    12.612127     22.30075    14.235163 
   33200    40.691367    36985.814            0    37144.223     12.67879    22.409456     14.35997    19.281286    33.175944     26.72103    12.612127     22.30075    14.235163 
   33400    27.332533    37207.089            0    37313.493    12.681368    22.404839    14.362292    19.539145    32.713984     26.95341    12.612127     22.30075    14.235163 
   33600    30.275564    37365.066            0    37482.927    12.686009    22.405473    14.364147    20.003451    32.777502    27.138978    12.612127     22.30075    14.235163 
   33800    37.983721    37504.324            0    37652.193    12.686746    22.410447    14.364795    20.077147    33.275067    27.203719    12.612127     22.30075    14.235163 
   34000    33.524626    37690.905            0    37821.415    12.685137    22.417445    14.364627    19.916219    33.975158    27.186953    12.612127     22.30075    14.235163 
   34200    24.428035     37895.73            0    37990.827    12.680483    22.421916     14.36453    19.450596    34.422436    27.177253    12.612127     22.30075    14.235163 
   34400      39.3767     38006.86            0    38160.151    12.677251    22.418644     14.36506    19.127322    34.095079    27.230271    12.612127     22.30075    14.235163 
   34600    34.973284    38193.248            0    38329.397    12.675858    22.412087    14.364834    18.987893    33.439116     27.20763    12.612127     22.30075    14.235163 
   34800    26.084594    38397.187            0    38498.733    12.677641    22.406336    14.363852    19.166307    32.863765    27.109383    12.612127     22.30075    14.235163 
   35000    36.047285    38527.786            0    38668.116    12.681051    22.406245    14.362406    19.507421     32.85471     26.96472    12.612127     22.30075    14.235163 
   35200    35.809639    38697.937            0    38837.342    12.683256    22.410724    14.361614    19.728063    33.302733    26.885538    12.612127     22.30075    14.235163 
   35400    36.820406    38863.245            0    39006.584    12.684034    22.414986    14.361247    19.805899    33.729194    26.848816    12.612127     22.30075    14.235163 
   35600    25.706487    39075.926            0        39176     12.68227    22.414798    14.360992    19.629376     33.71034    26.823319    12.612127     22.30075    14.235163 
   35800    39.497311     39191.49            0    39345.251    12.680631    22.408207    14.360552     19.46546    33.050985    26.779312    12.612127     22.30075    14.235163 
   36000    35.556037     39376.06            0    39514.478    12.678015    22.400821    14.359792    19.203711      32.3121    26.703218    12.612127     22.30075    14.235163 
   36200    25.450018    39584.742            0    39683.818    12.678109     22.39766    14.358894    19.213164    31.995832    26.613433    12.612127     22.30075    14.235163 
   36400    38.659652    39702.649            0    39853.148    12.683304    22.404161    14.358879    19.732895    32.646237    26.611956    12.612127     22.30075    14.235163 
   36600    36.910409    39878.687            0    40022.377    12.688194    22.413999    14.358649    20.222071    33.630388    26.588914    12.612127     22.30075    14.235163 
   36800    27.817901    40083.388            0    40191.682    12.691311    22.420207     14.35908    20.533918    34.251424     26.63206    12.612127     22.30075    14.235163 
   37000    35.527932    40222.719            0    40361.027     12.68919    22.418624    14.360856    20.321703    34.093094    26.809748    12.612127     22.30075    14.235163 
   37200     41.19306    40369.862            0    40530.224      12.6841    22.410487    14.362997    19.812482    33.279088     27.02394    12.612127     22.30075    14.235163 
   37400    25.165989    40601.585            0    40699.554    12.680439    22.402083    14.365645    19.446189    32.438274    27.288794    12.612127     22.30075    14.235163 
   37600    31.899696     40744.75            0    40868.933    12.681223    22.401042     14.36897    19.524682    32.334182    27.621492    12.612127     22.30075    14.235163 
   37800    40.260898    40881.429            0    41038.162    12.685854     22.40638    14.372881    19.987974    32.868157    28.012671    12.612127     22.30075    14.235163 
   38000    29.670648    41091.928            0    41207.434    12.691815    22.415643    14.376405    20.584312    33.794905    28.365277    12.612127     22.30075    14.235163 
   38200    30.752506    41257.053            0    41376.771    12.695763    22.424401    14.379335    20.979229    34.671046    28.658339    12.612127     22.30075    14.235163 
   38400    36.263908    41404.914            0    41546.088    12.694854    22.425619    14.381498    20.888348    34.792873    28.874772    12.612127     22.30075    14.235163 
   38600    32.701862    41588.073            0    41715.379    12.689352    22.419919     14.38234    20.337893    34.222613    28.958973    12.612127     22.30075    14.235163 
   38800      38.5241     41734.66            0    41884.632    12.678959    22.411205    14.382224    19.298152      33.3509    28.947386    12.612127     22.30075    14.235163 
   39000    28.924443    41941.333            0    42053.934    12.667286    22.404249    14.382475     18.13041    32.655051    28.972534    12.612127     22.30075    14.235163 
   39200    34.019461    42090.845            0    42223.281    12.663983    22.403686    14.383152    17.799886    32.598656    29.040226    12.612127     22.30075    14.235163 
   39400    40.734509    42233.946            0    42392.523    12.671313    22.408803    14.384975    18.533265    33.110608    29.222588    12.612127     22.30075    14.235163 
   39600    27.800927     42453.53            0    42561.757    12.683649      22.4139    14.387137    19.767334     33.62047    29.438925    12.612127     22.30075    14.235163 
   39800    32.726252     42603.74            0    42731.141    12.690728    22.414568    14.390064    20.475534    33.687296    29.731753    12.612127     22.30075    14.235163 
   40000    43.172183    42732.281            0    42900.348    12.687282    22.411508     14.39307    20.130856    33.381193    30.032445    12.612127     22.30075    14.235163 
   40200     29.13701     42956.13            0    43069.559    12.680448    22.407456    14.395608    19.447166    32.975867    30.286363    12.612127     22.30075    14.235163 
   40400    31.329569    43117.046            0     43239.01     12.67422    22.409307    14.395937    18.824104    33.160979    30.319279    12.612127     22.30075    14.235163 
   40600    41.508614    43246.637            0    43408.227    12.674777    22.412552    14.394253    18.879788    33.485693    30.150845    12.612127     22.30075    14.235163 
   40800    32.380541    43451.376            0    43577.431    12.677369    22.414197    14.392145     19.13909    33.650185    29.939931    12.612127     22.30075    14.235163 
   41000    27.719446    43638.971            0    43746.881    12.683655    22.413258    14.389857    19.767915    33.556297    29.711064    12.612127     22.30075    14.235163 
   41200    43.679022    43746.044            0    43916.084    12.689172    22.410257    14.387088    20.319938    33.256025    29.434029    12.612127     22.30075    14.235163 
   41400    29.365371    43970.991            0    44085.308    12.692252    22.408068    14.384573    20.628069    33.037046    29.182441    12.612127     22.30075    14.235163 
   41600    26.941077    44149.835            0    44254.715    12.688987    22.409285    14.382756    20.301379    33.158854     29.00062    12.612127     22.30075    14.235163 
   41800    38.897974    44272.586            0    44424.014    12.685739    22.413479    14.382684    19.976419    33.578419    28.993412    12.612127     22.30075    14.235163 
   42000    34.301333    44459.682            0    44593.215    12.681981    22.418915    14.383238    19.600455    34.122184    29.048866    12.612127     22.30075    14.235163 
   42200    28.900622    44650.066            0    44762.575    12.684176    22.419693    14.382844    19.820112    34.200095    29.009473    12.612127     22.30075    14.235163 
   42400    37.000427    44787.841            0    44931.882    12.687936    22.413876     14.38222    20.196217    33.618074     28.94702    12.612127     22.30075    14.235163 
   42600    33.273258    44971.572            0    45101.103    12.690206    22.403624    14.381429    20.423386    32.592512    28.867917    12.612127     22.30075    14.235163 
   42800    30.445128    45151.931            0    45270.452    12.687657    22.399306    14.380433    20.168349    32.160447    28.768212    12.612127     22.30075    14.235163 
   43000    34.340847    45306.063            0     45439.75    12.682565    22.402841    14.378369    19.658905    32.514151     28.56178    12.612127     22.30075    14.235163 
   43200    36.529197    45466.796            0    45609.002    12.676975    22.413299    14.376121    19.099716    33.560386    28.336869    12.612127     22.30075    14.235163 
   43400    29.976556    45661.606            0    45778.303    12.675519    22.422049    14.374154    18.954007    34.435774    28.140031    12.612127     22.30075    14.235163 
   43600    36.246407    45806.471            0    45947.576    12.676169    22.421281     14.37153       19.019    34.358879    27.877569    12.612127     22.30075    14.235163 
   43800    35.761813    45977.624            0    46116.842    12.678129    22.412446    14.369556    19.215178    33.475036    27.680089    12.612127     22.30075    14.235163 
   44000    39.479116    46132.405            0    46286.095     12.67827    22.403155    14.368946    19.229272    32.545529    27.619032    12.612127     22.30075    14.235163 
   44200    28.539303    46344.306            0    46455.407    12.679005    22.400316    14.368734    19.302758     32.26156    27.597859    12.612127     22.30075    14.235163 
   44400    40.331834    46467.692            0    46624.701    12.680171    22.408986    14.369007    19.419392    33.128881    27.625096    12.612127     22.30075    14.235163 
   44600    37.848701    46646.574            0    46793.917     12.68183    22.418636    14.369515    19.585363    34.094331    27.676006    12.612127     22.30075    14.235163 
   44800    27.674161    46855.483            0    46963.217    12.680962    22.422725    14.370092    19.498533    34.503331    27.733701    12.612127     22.30075    14.235163 
   45000    39.096072    46980.355            0    47132.553    12.677872    22.414788    14.370578    19.189421    33.709391    27.782309    12.612127     22.30075    14.235163 
   45200    39.405422    47148.344            0    47301.747    12.674988     22.40118    14.370592    18.900848    32.347948    27.783686    12.612127     22.30075    14.235163 
   45400    28.265639     47361.01            0    47471.047    12.673165    22.392859    14.370315    18.718486    31.515531    27.756022    12.612127     22.30075    14.235163 
   45600    39.879557    47485.098            0    47640.346    12.676096     22.39638    14.369697    19.011747    31.867766    27.694158    12.612127     22.30075    14.235163 
   45800    40.722678    47651.014            0    47809.545    12.680869    22.408883    14.369518    19.489263    33.118612    27.676267    12.612127     22.30075    14.235163 
   46000    29.156035    47865.305            0    47978.807    12.685021    22.423336    14.370202     19.90458    34.564551    27.744734    12.612127     22.30075    14.235163 
   46200    38.735933    47997.332            0    48148.129     12.68415    22.427764    14.371846    19.817524    35.007518    27.909123    12.612127     22.30075    14.235163 
   46400    38.477565    48167.552            0    48317.343    12.681415    22.423546    14.373749    19.543914    34.585483    28.099585    12.612127     22.30075    14.235163 
   46600    29.500395    48371.755            0    48486.598    12.679153    22.413171    14.375895    19.317611    33.547531    28.314232    12.612127     22.30075    14.235163 
   46800    35.623748    48517.278            0    48655.959    12.682242    22.407482    14.376745    19.626647    32.978424    28.399253    12.612127     22.30075    14.235163 
   47000     43.71342    48654.973            0    48825.146    12.687191    22.408593    14.377537    20.121757    33.089583    28.478469    12.612127     22.30075    14.235163 
   47200    36.602774    48851.837            0    48994.329    12.692014    22.412809    14.378089    20.604236    33.511368    28.533679    12.612127     22.30075    14.235163 
   47400    32.673053    49036.488            0    49163.683    12.691187    22.414655    14.379562    20.521445    33.696011    28.681125    12.612127     22.30075    14.235163 
   47600    41.754158     49170.35            0    49332.896    12.682896     22.41055    14.381298    19.692062    33.285327    28.854773    12.612127     22.30075    14.235163 
   47800    41.099826    49342.067            0    49502.066    12.673528    22.406649    14.382551    18.754792    32.895151    28.980163    12.612127     22.30075    14.235163 
   48000    31.077683    49550.366            0     49671.35    12.667566    22.403211    14.384251    18.158351    32.551135    29.150197    12.612127     22.30075    14.235163 
   48200     42.90313    49673.569            0    49840.588    12.670941    22.405807    14.385278    18.496065    32.810904    29.252883    12.612127     22.30075    14.235163 
   48400    43.591126    49840.073            0    50009.771    12.680407    22.409685    14.386294    19.443062    33.198821    29.354552    12.612127     22.30075    14.235163 
   48600    28.981577    50066.197            0    50179.021    12.691312    22.412519    14.386722    20.533972    33.482373    29.397406    12.612127     22.30075    14.235163 
   48800    40.522791    50190.538            0    50348.291     12.69627    22.411766    14.386697    21.029998    33.407053    29.394889    12.612127     22.30075    14.235163 
   49000    39.096274    50365.288            0    50517.488    12.694027    22.409019    14.387036    20.805634    33.132166      29.4288    12.612127     22.30075    14.235163 
   49200    31.896373    50562.554            0    50686.725    12.685132     22.40537     14.38689     19.91571    32.767103    29.414228    12.612127     22.30075    14.235163 
   49400    42.501451     50690.53            0    50855.986    12.680494    22.406521    14.387717    19.451707    32.882286    29.496936    12.612127     22.30075    14.235163 
   49600    41.643683    50863.043            0    51025.159    12.679602    22.407733    14.388597    19.362529    33.003567    29.585002    12.612127     22.30075    14.235163 
   49800    34.293721    51060.888            0    51194.392    12.682997    22.409747    14.389326    19.702178    33.205048    29.657859    12.612127     22.30075    14.235163 
   50000    38.406543    51214.168            0    51363.682    12.684735    22.410791    14.389309    19.875999    33.309463    29.656149    12.612127     22.30075    14.235163 
   50200    43.402727    51363.892            0    51532.856    12.683097    22.410833    14.389147    19.712092    33.313671    29.640021    12.612127     22.30075    14.235163 
   50400    37.041499    51557.854            0    51702.054    12.680751    22.411214    14.389396    19.477456    33.351818    29.664926    12.612127     22.30075    14.235163 
   50600    35.948287    51731.434            0    51871.379    12.680683    22.411725    14.389139    19.470657    33.402962    29.639178    12.612127     22.30075    14.235163 
   50800    44.369164    51867.827            0    52040.554    12.683822    22.413005    14.387898    19.784658    33.530961    29.515031    12.612127     22.30075    14.235163 
   51000    37.892092    52062.238            0    52209.749    12.686707    22.412498    14.386532    20.073312    33.480226      29.3784    12.612127     22.30075    14.235163 
   51200    34.006101    52246.629            0    52379.013    12.686344    22.409351    14.384069     20.03696    33.165387    29.131942    12.612127     22.30075    14.235163 
   51400     42.78545    52381.661            0    52548.222     12.68307    22.402455    14.381579    19.709408    32.475499    28.882913    12.612127     22.30075    14.235163 
   51600    38.589858     52567.19            0    52717.418    12.680485    22.398392    14.379381    19.450801    32.069016    28.662973    12.612127     22.30075    14.235163 
   51800    37.161385    52742.008            0    52886.675    12.681326    22.399419    14.377839    19.534964    32.171816    28.508699    12.612127     22.30075    14.235163 
   52000    43.008223    52888.447            0    53055.875     12.68462    22.404805    14.376181    19.864493    32.710609    28.342849    12.612127     22.30075    14.235163 
   52200    39.490413    53071.314            0    53225.047    12.687435    22.410773    14.374725    20.146134     33.30772    28.197185    12.612127     22.30075    14.235163 
   52400    30.423342    53275.908            0    53394.344    12.686231    22.416354    14.373075    20.025674       33.866    28.032123    12.612127     22.30075    14.235163 
   52600    40.882635     53404.44            0    53563.594    12.684012     22.41775     14.37048    19.803704    34.005669    27.772523    12.612127     22.30075    14.235163 
   52800    42.281979     53568.17            0    53732.771    12.683593     22.41625    14.368439    19.761796    33.855586     27.56833    12.612127     22.30075    14.235163 
   53000    34.652663    53767.131            0    53902.031    12.683571    22.411185    14.365561    19.759535    33.348851    27.280398    12.612127     22.30075    14.235163 
   53200    41.918236    53908.069            0    54071.254    12.682445    22.408697    14.361725    19.646905    33.099971    26.896625    12.612127     22.30075    14.235163 
   53400    41.234316    54079.902            0    54240.424    12.680603    22.407653    14.357592    19.462642    32.995528    26.483174    12.612127     22.30075    14.235163 
   53600    32.532963    54283.067            0    54409.715    12.679357    22.409726    14.352782    19.337957    33.202929    26.001919    12.612127     22.30075    14.235163 
   53800    40.066272    54422.966            0    54578.942    12.679605    22.415376    14.348032    19.362755    33.768146     25.52681    12.612127     22.30075    14.235163 
   54000    36.758058    54605.068            0    54748.164    12.681682    22.417004    14.342267    19.570566    33.931054    24.950024    12.612127     22.30075    14.235163 
   54200    38.187599    54768.805            0    54917.467    12.685336     22.41386    14.335455    19.936173    33.616519    24.268584    12.612127     22.30075    14.235163 
   54400    39.211417    54934.006            0    55086.654    12.690772    22.408526    14.328246    20.479993    33.082854     23.54729    12.612127     22.30075    14.235163 
   54600    31.786855    55132.184            0    55255.928    12.692498    22.409007    14.322205     20.65265    33.131009    22.942995    12.612127     22.30075    14.235163 
   54800    41.648417    55263.068            0    55425.202    12.687222    22.413111    14.316343     20.12478    33.541547     22.35658    12.612127     22.30075    14.235163 
   55000    37.728514    55447.557            0    55594.432    12.680925     22.41436    14.309176     19.49484    33.666516    21.639498    12.612127     22.30075    14.235163 
   55200    36.649472    55620.972            0    55763.646     12.67859    22.408498    14.301057    19.261214    33.080127    20.827329    12.612127     22.30075    14.235163 
   55400    37.255089    55787.874            0    55932.905    12.681814    22.398998    14.292237    19.583796    32.129691    19.944964    12.612127     22.30075    14.235163 
   55600    41.437329    55940.849            0    56102.162    12.684982      22.3962    14.283602    19.900755    31.849748    19.081022    12.612127     22.30075    14.235163 
   55800    32.800537    56143.678            0    56271.368    12.688944     22.40082     14.27487    20.297094    32.312001    18.207481    12.612127     22.30075    14.235163 
   56000    36.618858     56298.11            0    56440.665    12.690236     22.41127    14.266168    20.426378    33.357444    17.336914    12.612127     22.30075    14.235163 
   56200    43.894416    56438.973            0    56609.851    12.687715    22.423144    14.257487    20.174142    34.545317    16.468455    12.612127     22.30075    14.235163 
   56400    30.824057     56659.12            0    56779.116    12.683755    22.428345    14.249898    19.777921    35.065566    15.709203    12.612127     22.30075    14.235163 
   56600    43.358619    56779.567            0    56948.359    12.681472    22.419607    14.243104     19.54953     34.19141    15.029584    12.612127     22.30075    14.235163 
   56800    31.051746    56996.688            0    57117.571    12.680646    22.407216    14.236474    19.466907    32.951822    14.366276    12.612127     22.30075    14.235163 
   57000    39.805454    57131.903            0    57286.863     12.68257    22.402067    14.229673     19.65942      32.4367    13.685892    12.612127     22.30075    14.235163 
   57200    41.021957    57296.356            0    57456.052    12.686285     22.40574    14.223135    20.031048    32.804143    13.031778    12.612127     22.30075    14.235163 
   57400    29.727825    57509.638            0    57625.366    12.688386    22.409884    14.216662    20.241212    33.218763    12.384292    12.612127     22.30075    14.235163 
   57600    44.374144    57621.853            0    57794.599    12.686279    22.409766    14.210211    20.030479    33.206962    11.738846    12.612127     22.30075    14.235163 
   57800    31.155169    57842.531            0    57963.816    12.680606    22.409074    14.203082    19.462906    33.137711    11.025684    12.612127     22.30075    14.235163 
   58000    42.044103    57969.416            0    58133.091    12.676978    22.408238    14.196773     19.10002    33.054063    10.394527    12.612127     22.30075    14.235163 
   58200    38.989302     58150.49            0    58302.273    12.674178    22.407189    14.191723    18.819898    32.949132    9.8893172    12.612127     22.30075    14.235163 
   58400    32.954398    58343.283            0    58471.572    12.677679    22.408701    14.187319    19.170158    33.100358    9.4486652    12.612127     22.30075    14.235163 
   58600    42.447829    58475.529            0    58640.775    12.682514    22.409782    14.182163    19.653848    33.208524    8.9329382    12.612127     22.30075    14.235163 
   58800    40.067237    58654.009            0    58809.988    12.685712    22.410151    14.176278    19.973762    33.245424    8.3441354    12.612127     22.30075    14.235163 
   59000    34.684431    58844.228            0    58979.252    12.687318    22.409063    14.170019    20.134447    33.136645    7.7179365    12.612127     22.30075    14.235163 
   59200    41.993006    58984.985            0    59148.461    12.688272    22.409241    14.163162    20.229886    33.154433    7.0320338    12.612127     22.30075    14.235163 
   59400    35.478642    59179.576            0    59317.692     12.68618    22.411263    14.155444    20.020544    33.356742    6.2598885    12.612127     22.30075    14.235163 
   59600    40.607534     59328.88            0    59486.963    12.682453    22.409646    14.147665    19.647711    33.194959    5.4816819    12.612127     22.30075    14.235163 
   59800    42.835499    59489.404            0     59656.16    12.679855    22.405379    14.139985    19.387754    32.768009    4.7133624    12.612127     22.30075    14.235163 
   60000    40.079936    59669.295            0    59825.324    12.681948    22.401805    14.132559    19.597156    32.410502    3.9703716    12.612127     22.30075    14.235163 
   60200    35.169026    59857.705            0    59994.616    12.685606    22.404225    14.124655     19.96311    32.652591     3.179641    12.612127     22.30075    14.235163 
   60400      45.1627    59987.997            0    60163.812    12.686322    22.408657    14.116993    20.034773    33.095938    2.4131649    12.612127     22.30075    14.235163 
   60600    32.955302    60204.721            0    60333.014    12.685383    22.411865    14.109496    19.940857    33.416877    1.6631128    12.612127     22.30075    14.235163 
   60800     38.20692    60353.571            0    60502.308    12.680212    22.410961    14.102503    19.423508    33.326491    0.9635188    12.612127     22.30075    14.235163 
   61000    43.746256    60501.219            0    60671.521    12.676316    22.408978    14.095924    19.033776     33.12813   0.30532981    12.612127     22.30075    14.235163 
   61200    27.051912    60735.443            0    60840.754    12.677379    22.408452    14.089312    19.140062    33.075467   -0.3561344    12.612127     22.30075    14.235163 
   61400    43.453776    60840.837            0    61009.999    12.687771    22.412076    14.081743    20.179757    33.437982   -1.1133421    12.612127     22.30075    14.235163 
   61600    35.548448    61040.807            0    61179.194     12.69639    22.415873    14.073817    21.041998    33.817913   -1.9062553    12.612127     22.30075    14.235163 
   61800    37.000744    61204.448            0    61348.489     12.69357    22.418038    14.065969    20.759901    34.034443   -2.6913724    12.612127     22.30075    14.235163 
   62000    42.212851    61353.349            0    61517.681    12.682047    22.415498    14.059232     19.60706    33.780404   -3.3653715    12.612127     22.30075    14.235163 
   62200    38.174777    61538.265            0    61686.877    12.669652    22.411014    14.053397    18.367052    33.331774     -3.94912    12.612127     22.30075    14.235163 
   62400     37.39493    61710.579            0    61856.155    12.665591    22.410465    14.047303    17.960756    33.276911   -4.5587996    12.612127     22.30075    14.235163 
   62600    40.145799    61869.077            0    62025.362    12.671928    22.412166    14.040236     18.59476    33.447038   -5.2657434    12.612127     22.30075    14.235163 
   62800    30.440118    62076.084            0    62194.586    12.685712    22.414175    14.032385     19.97373    33.648017    -6.051211    12.612127     22.30075    14.235163 
   63000    44.472143    62190.722            0    62363.849    12.692826    22.414047    14.024798    20.685463    33.635252   -6.8102333    12.612127     22.30075    14.235163 
   63200    39.494445    62379.286            0    62533.036     12.69251    22.414044    14.017807    20.653791    33.634926   -7.5096107    12.612127     22.30075    14.235163 
   63400    34.460244    62568.156            0    62702.308      12.6853    22.414135    14.011418    19.932509    33.643978   -8.1487863    12.612127     22.30075    14.235163 
   63600    40.769621    62712.832            0    62871.546    12.681299    22.414477    14.006378    19.532268    33.678236   -8.6530393    12.612127     22.30075    14.235163 
   63800    34.466924    62906.565            0    63040.743     12.68073    22.412111    14.003138    19.475382    33.441519   -8.9770938    12.612127     22.30075    14.235163 
   64000    40.690754    63051.633            0    63210.039    12.681951    22.411716    14.000066    19.597514     33.40203   -9.2844865    12.612127     22.30075    14.235163 
   64200     39.63709    63224.902            0    63379.207    12.682322    22.409437    13.996388    19.634632    33.174008   -9.6523684    12.612127     22.30075    14.235163 
   64400    32.208381    63423.089            0    63548.474     12.68522    22.410503    13.991868    19.924552    33.280642   -10.104605    12.612127     22.30075    14.235163 
   64600    45.277461    63541.439            0    63717.701    12.690772    22.414958    13.985452    20.479974    33.726339   -10.746468    12.612127     22.30075    14.235163 
   64800    42.238692    63722.457            0     63886.89    12.693234    22.417798    13.978687    20.726229    34.010466    -11.42326    12.612127     22.30075    14.235163 
   65000    30.012732    63939.331            0    64056.169    12.687909    22.416239    13.972173    20.193521    33.854487   -12.074962    12.612127     22.30075    14.235163 
   65200    41.533192    64063.694            0     64225.38    12.677855    22.410459    13.965953    19.187707    33.276238   -12.697165    12.612127     22.30075    14.235163 
   65400     38.34277    64245.331            0    64394.597    12.671655    22.408438    13.960152    18.567439    33.074069   -13.277583    12.612127     22.30075    14.235163 
   65600    38.742602    64413.036            0    64563.858    12.675412    22.409589    13.955463     18.94332    33.189216   -13.746661    12.612127     22.30075    14.235163 
   65800    37.071441    64588.812            0    64733.129    12.683931    22.409991    13.952384    19.795592    33.229401   -14.054709    12.612127     22.30075    14.235163 
   66000    38.586627    64752.102            0    64902.318    12.688838    22.407876    13.950661    20.286473    33.017827   -14.227045    12.612127     22.30075    14.235163 
   66200    38.811523    64920.477            0    65071.568    12.686788    22.407124    13.949229    20.081386    32.942649   -14.370285    12.612127     22.30075    14.235163 
   66400    43.485646    65071.525            0    65240.812    12.677139    22.407672    13.946014    19.116097    32.997398   -14.691945    12.612127     22.30075    14.235163 
   66600    37.495289    65264.029            0    65409.996    12.668497    22.410944    13.941742    18.251541    33.324791   -15.119304    12.612127     22.30075    14.235163 
   66800    37.254185    65434.227            0    65579.255    12.669083    22.414072    13.937135    18.310164     33.63775   -15.580235    12.612127     22.30075    14.235163 
   67000    44.176593     65576.51            0    65748.486    12.678726    22.415511    13.933194     19.27487     33.78164   -15.974452    12.612127     22.30075    14.235163 
   67200     33.03491    65789.107            0     65917.71    12.689285    22.411604    13.929259    20.331226    33.390811   -16.368097    12.612127     22.30075    14.235163 
   67400    34.306205    65953.417            0    66086.969    12.689348    22.406614    13.925629    20.337524    32.891566    -16.73129    12.612127     22.30075    14.235163 
   67600    43.263472    66087.742            0    66256.164    12.680581    22.406568    13.923566    19.460445    32.886965   -16.937675    12.612127     22.30075    14.235163 
   67800    39.637444    66271.095            0    66425.401    12.673346    22.406644    13.922604    18.736594    32.894651   -17.033899    12.612127     22.30075    14.235163 
   68000    37.772362    66447.624            0    66594.669    12.675622    22.409436    13.923005    18.964356    33.173918   -16.993771    12.612127     22.30075    14.235163 
   68200    37.229728    66618.965            0    66763.898    12.684508    22.410898    13.923673    19.853292     33.32022   -16.926985    12.612127     22.30075    14.235163 
   68400    37.798551    66785.957            0    66933.104    12.688469    22.409955    13.923044    20.249558    33.225869   -16.989881    12.612127     22.30075    14.235163 
   68600    33.208629    66973.053            0    67102.332    12.686092    22.406964    13.921734    20.011803    32.926638   -17.120912    12.612127     22.30075    14.235163 
   68800    36.949501    67127.764            0    67271.606    12.682191    22.406215    13.921641    19.621512    32.851732   -17.130296    12.612127     22.30075    14.235163 
   69000    44.864614    67266.164            0     67440.82     12.68508    22.410792    13.923022    19.910523    33.309616   -16.992144    12.612127     22.30075    14.235163 
   69200    27.512849     67502.95            0    67610.056    12.689372    22.414862     13.92437     20.33991    33.716787   -16.857194    12.612127     22.30075    14.235163 
   69400    37.364795    67633.883            0    67779.341    12.684073    22.413092    13.923673    19.809785    33.539665   -16.926959    12.612127     22.30075    14.235163 
   69600    46.444176    67767.718            0    67948.523    12.675128    22.407228    13.921939    18.914906    32.953025   -17.100434    12.612127     22.30075    14.235163 
   69800    27.549153    68010.528            0    68117.775    12.670744    22.403315    13.919423    18.476294    32.561607   -17.352101    12.612127     22.30075    14.235163 
   70000    42.496527    68121.621            0    68287.057    12.679505    22.408056    13.917205    19.352806    33.035892   -17.574021    12.612127     22.30075    14.235163 
   70200    45.044915    68280.849            0    68456.206    12.690369    22.413886    13.916084    20.439607     33.61915   -17.686197    12.612127     22.30075    14.235163 
   70400    33.044854    68496.881            0    68625.522    12.694568    22.416347    13.914615    20.859672    33.865317   -17.833166    12.612127     22.30075    14.235163 
   70600    42.359534    68629.814            0    68794.717    12.690307    22.412195    13.912836    20.433425    33.449911   -18.011172    12.612127     22.30075    14.235163 
   70800    35.322646    68826.396            0    68963.904     12.68409    22.409802    13.910311    19.811499    33.210534   -18.263764    12.612127     22.30075    14.235163 
   71000     38.81241    68982.165            0     69133.26    12.682343    22.412427    13.907533    19.636664    33.473136   -18.541691    12.612127     22.30075    14.235163 
   71200     46.64351    69120.849            0    69302.429    12.684215    22.415135    13.905313    19.823939    33.744087   -18.763725    12.612127     22.30075    14.235163 
   71400    17.648916     69402.97            0    69471.676    12.685199    22.415095    13.903465    19.922435    33.740044    -18.94863    12.612127     22.30075    14.235163 
   71600    45.727775    69462.942            0    69640.957    12.681162    22.408506    13.901759    19.518522    33.080902   -19.119267    12.612127     22.30075    14.235163 
   71800    41.416117    69648.889            0     69810.12     12.67709    22.400279    13.900211    19.111206    32.257824   -19.274149    12.612127     22.30075    14.235163 
   72000    30.705131    69859.893            0    69979.426    12.677086    22.397793    13.899126    19.110769    32.009126   -19.382692    12.612127     22.30075    14.235163 
   72200     45.42146    69971.811            0    70148.634    12.679951    22.403077    13.896722    19.397444     32.53773   -19.623187    12.612127     22.30075    14.235163 
   72400    33.683664    70186.721            0     70317.85    12.683104    22.410613    13.893485    19.712852    33.291621   -19.947059    12.612127     22.30075    14.235163 
   72600    43.641767    70317.198            0    70487.093    12.685117    22.412526    13.890437    19.914191     33.48304   -20.251994    12.612127     22.30075    14.235163 
   72800    34.997756    70520.052            0    70656.296    12.687655    22.411219    13.888148    20.168135    33.352269   -20.481003    12.612127     22.30075    14.235163 
   73000    43.930604    70654.493            0    70825.513    12.687183    22.410823    13.886617     20.12095    33.312683   -20.634109    12.612127     22.30075    14.235163 
   73200    45.492304    70817.619            0    70994.718    12.683395    22.413718    13.884156    19.741941    33.602293   -20.880293    12.612127     22.30075    14.235163 
   73400    38.861319    71012.655            0     71163.94    12.677513    22.415088    13.881255    19.153536    33.739362   -21.170516    12.612127     22.30075    14.235163 
   73600    37.945352    71185.424            0    71333.142    12.676521    22.414847    13.878597    19.054282    33.715291   -21.436492    12.612127     22.30075    14.235163 
   73800    41.760605    71339.758            0    71502.329    12.682664    22.412633    13.875196    19.668813    33.493791    -21.77668    12.612127     22.30075    14.235163 
   74000    43.760775    71501.203            0    71671.561    12.686692    22.412646    13.871146    20.071767    33.495094   -22.181871    12.612127     22.30075    14.235163 
   74200    37.976164    71692.941            0     71840.78    12.687373    22.412479    13.867549    20.139939    33.478305   -22.541765    12.612127     22.30075    14.235163 
   74400    40.461895    71852.453            0    72009.969    12.684231    22.411655      13.8636    19.825589    33.395884    -22.93681    12.612127     22.30075    14.235163 
   74600    43.893369    72008.273            0    72179.147    12.686568    22.409246    13.859219    20.059425    33.154908   -23.375071    12.612127     22.30075    14.235163 
   74800    39.562892    72194.354            0    72348.369    12.692255    22.408916    13.853555    20.628347    33.121875   -23.941674    12.612127     22.30075    14.235163 
   75000    40.749266    72358.994            0    72517.628    12.696104    22.411111    13.847488    21.013393     33.34151   -24.548659    12.612127     22.30075    14.235163 
   75200    42.576958    72521.051            0      72686.8     12.69277    22.414135    13.841635      20.6798    33.643981   -25.134203    12.612127     22.30075    14.235163 
   75400    29.254152    72742.203            0    72856.088    12.684414    22.415093    13.837365    19.843929    33.739871   -25.561377    12.612127     22.30075    14.235163 
   75600     46.58517     72843.95            0    73025.303    12.680862    22.413355    13.835234    19.488502    33.565935   -25.774604    12.612127     22.30075    14.235163 
   75800    27.624055    73086.968            0    73194.507    12.681189    22.409353    13.833662    19.521224    33.165639   -25.931873    12.612127     22.30075    14.235163 
   76000    47.843544    73177.533            0    73363.784     12.68479    22.406055    13.833545    19.881497    32.835647   -25.943537    12.612127     22.30075    14.235163 
   76200    44.807466    73358.505            0    73532.937    12.685575     22.40387    13.833166    19.960037    32.617047   -25.981474    12.612127     22.30075    14.235163 
   76400    35.532091    73563.849            0    73702.174    12.683154    22.406803    13.832014    19.717868    32.910548   -26.096748    12.612127     22.30075    14.235163 
   76600    45.539491    73694.099            0    73871.381    12.681482    22.411904    13.830002    19.550565    33.420804   -26.298042    12.612127     22.30075    14.235163 
   76800    36.977346    73896.601            0    74040.551    12.678584    22.417193    13.826552    19.260664    33.949981   -26.643143    12.612127     22.30075    14.235163 
   77000    41.883399    74046.754            0    74209.803    12.677475    22.413788    13.823339    19.149666    33.609257   -26.964578    12.612127     22.30075    14.235163 
   77200    42.697331    74212.782            0        74379    12.677968      22.4085    13.820139    19.199058    33.080296   -27.284707    12.612127     22.30075    14.235163 
   77400    35.809333    74408.843            0    74548.247    12.678864    22.408712    13.816815    19.288638    33.101539    -27.61725    12.612127     22.30075    14.235163 
   77600    46.903692    74534.827            0     74717.42    12.677236    22.412154     13.81474    19.125837    33.445829   -27.824865    12.612127     22.30075    14.235163 
   77800    29.743778    74770.858            0    74886.649    12.678207    22.416412    13.812941    19.222883    33.871794   -28.004784    12.612127     22.30075    14.235163 
   78000    46.219363    74875.924            0    75055.853    12.685172    22.418047    13.810941      19.9197    34.035393   -28.204921    12.612127     22.30075    14.235163 
   78200    32.893505    75097.011            0    75225.063    12.690255    22.417443    13.807774    20.428267    33.974969   -28.521756    12.612127     22.30075    14.235163 
   78400    45.438273    75217.397            0    75394.285     12.69167    22.410467    13.804429    20.569749    33.277074   -28.856406    12.612127     22.30075    14.235163 
   78600    40.347118    75406.399            0    75563.468    12.689188    22.402239    13.802019    20.321533    32.453908   -29.097528    12.612127     22.30075    14.235163 
   78800    40.226154    75576.085            0    75732.683    12.685313    22.403351    13.800512    19.933878    32.565116   -29.248255    12.612127     22.30075    14.235163 
   79000    44.360107    75729.187            0    75901.879     12.68509    22.412194    13.798263    19.911522    33.449824    -29.47328    12.612127     22.30075    14.235163 
   79200    41.065439    75911.225            0    76071.091    12.686484    22.420484    13.795411    20.050999    34.279187   -29.758532    12.612127     22.30075    14.235163 
   79400    40.708845    76081.809            0    76240.286    12.689568    22.423367    13.792016     20.35955    34.567574   -30.098239    12.612127     22.30075    14.235163 
   79600    41.857111    76246.555            0    76409.502    12.692118    22.420086    13.788778    20.614607    34.239367   -30.422104    12.612127     22.30075    14.235163 
   79800    44.582141    76405.116            0    76578.672    12.692782    22.414226    13.785735    20.681047    33.653117   -30.726527    12.612127     22.30075    14.235163 
   80000      35.3697    76610.194            0    76747.886    12.689853    22.408188     13.78302    20.388015    33.049067   -30.998189    12.612127     22.30075    14.235163 
   80200    48.154276    76729.603            0    76917.064    12.686736    22.408382    13.780215    20.076218    33.068513   -31.278826    12.612127     22.30075    14.235163 
   80400    33.467022    76955.989            0    77086.274    12.683699    22.409791    13.777517     19.77233    33.209385   -31.548711    12.612127     22.30075    14.235163 
   80600    47.488463    77070.614            0    77255.484    12.681924    22.409229    13.773674      19.5948    33.153202   -31.933168    12.612127     22.30075    14.235163 
   80800    40.626609    77266.493            0     77424.65    12.680649    22.409739    13.770334    19.467221    33.204227   -32.267337    12.612127     22.30075    14.235163 
   81000    41.744283    77431.367            0    77593.875    12.679239    22.414438    13.766843    19.326195    33.674293   -32.616564    12.612127     22.30075    14.235163 
   81200    41.869983    77600.049            0    77763.046    12.681549    22.412912    13.762519    19.557235     33.52167   -33.049187    12.612127     22.30075    14.235163 
   81400    41.867256    77769.308            0    77932.295    12.687652    22.405041     13.75848    20.167794    32.734234   -33.453218    12.612127     22.30075    14.235163 
   81600      38.9504    77949.853            0    78101.485    12.693134    22.399103    13.755403    20.716258    32.140214   -33.761065    12.612127     22.30075    14.235163 
   81800    37.368813    78125.263            0    78270.737    12.688051    22.398301     13.75291    20.207726    32.059914   -34.010488    12.612127     22.30075    14.235163 
   82000    45.359236    78263.348            0    78439.928    12.674993    22.399303     13.75034     18.90143     32.16021   -34.267548    12.612127     22.30075    14.235163 
   82200    32.383759    78483.124            0    78609.192    12.666949    22.403297    13.748325    18.096666    32.559738   -34.469092    12.612127     22.30075    14.235163 
   82400     41.13781    78618.249            0    78778.395    12.671288    22.410834    13.745744    18.530693    33.313734   -34.727375    12.612127     22.30075    14.235163 
   82600    40.631692    78789.448            0    78947.625    12.683552    22.416844    13.743646    19.757631     33.91505   -34.937226    12.612127     22.30075    14.235163 
   82800     44.99058    78941.666            0    79116.812    12.690986    22.414513    13.741398    20.501394    33.681882   -35.162127    12.612127     22.30075    14.235163 
   83000    33.506728    79155.621            0    79286.061    12.690263    22.409527    13.738872    20.429022    33.183027   -35.414819    12.612127     22.30075    14.235163 
   83200    40.927241    79295.926            0    79455.253    12.681298    22.407018    13.737818    19.532205    32.932011    -35.52031    12.612127     22.30075    14.235163 
   83400    33.487675    79494.119            0    79624.485    12.676511    22.408842    13.737463     19.05331    33.114448    -35.55579    12.612127     22.30075    14.235163 
   83600    48.737225    79603.949            0     79793.68     12.67939    22.411056    13.736775     19.34133    33.336003   -35.624628    12.612127     22.30075    14.235163 
   83800    30.900789    79842.599            0    79962.893    12.683228    22.412134    13.736408    19.725207    33.443835   -35.661388    12.612127     22.30075    14.235163 
   84000    48.487873    79943.334            0    80132.094    12.680432    22.409271    13.735265    19.445485    33.157393   -35.775728    12.612127     22.30075    14.235163 
   84200    34.818143    80165.744            0    80301.288    12.679411     22.40922    13.733765    19.343384    33.152306   -35.925702    12.612127     22.30075    14.235163 
   84400    45.805517    80292.199            0    80470.517    12.683805    22.416211    13.731107    19.782978    33.851687   -36.191697    12.612127     22.30075    14.235163 
   84600    38.346461    80490.422            0    80639.703    12.693122    22.421664    13.727979    20.715046    34.397252   -36.504625    12.612127     22.30075    14.235163 
   84800    40.673109    80650.596            0    80808.934    12.698714    22.415481    13.726006    21.274483    33.778719   -36.701987    12.612127     22.30075    14.235163 
   85000    43.451701    80808.985            0     80978.14    12.694763    22.405251    13.724045    20.879227    32.755211   -36.898156    12.612127     22.30075    14.235163 
   85200    39.717861    80992.709            0    81147.329    12.682973     22.40014    13.722108    19.699767    32.243976   -37.091933    12.612127     22.30075    14.235163 
   85400    42.588412    81150.737            0    81316.531    12.677327      22.4047    13.718487    19.134856    32.700113   -37.454146    12.612127     22.30075    14.235163 
   85600    44.126159    81313.945            0    81485.725    12.680528    22.412278    13.713488    19.455116    33.458241    -37.95428    12.612127     22.30075    14.235163 
   85800    35.792229    81515.616            0    81654.953    12.684816    22.421739    13.707153    19.884146    34.404756   -38.588026    12.612127     22.30075    14.235163 
   86000    40.022847    81668.331            0    81824.137    12.682601    22.424781    13.700073    19.662484    34.709069   -39.296344    12.612127     22.30075    14.235163 
   86200    32.642102    81866.291            0    81993.364    12.680987    22.418022     13.69453       19.501    34.032873   -39.850947    12.612127     22.30075    14.235163 
   86400    48.121566    81975.237            0    82162.571    12.684116    22.412108    13.691483    19.814058    33.441223   -40.155698    12.612127     22.30075    14.235163 
   86600    29.418894    82217.253            0    82331.779    12.687756    22.408808    13.688139    20.178267    33.111123   -40.490244    12.612127     22.30075    14.235163 
   86800    40.467186    82343.502            0    82501.038    12.689107    22.409712    13.683186    20.313424    33.201533   -40.985787    12.612127     22.30075    14.235163 
   87000    43.719009    82500.027            0    82670.222    12.685452     22.41112    13.676117    19.947775     33.34242   -41.692972    12.612127     22.30075    14.235163 
   87200    39.926598    82684.033            0    82839.465    12.682787    22.409606    13.668808    19.681166    33.190938   -42.424134    12.612127     22.30075    14.235163 
   87400     46.04503    82829.426            0    83008.677     12.67987    22.405665     13.66093    19.389267    32.796666   -43.212301    12.612127     22.30075    14.235163 
   87600     39.66909    83023.419            0    83177.849    12.679472     22.40222    13.652973     19.34952    32.452013   -44.008388    12.612127     22.30075    14.235163 
   87800    35.005752      83210.8            0    83347.075    12.682004    22.403995    13.646111    19.602769    32.629638   -44.694869    12.612127     22.30075    14.235163 
   88000    48.953534    83325.686            0    83516.259    12.690492     22.40644    13.639325    20.451979    32.874238   -45.373759    12.612127     22.30075    14.235163 
   88200    38.549948     83535.36            0    83685.433    12.698121    22.408788    13.632175    21.215169    33.109068   -46.088992    12.612127     22.30075    14.235163 
   88400     36.94477    83710.871            0    83854.695    12.694571    22.406676    13.624316    20.860062    32.897772   -46.875271    12.612127     22.30075    14.235163 
   88600    45.661028    83846.112            0    84023.867    12.683684    22.405435    13.618118    19.770892    32.773605   -47.495343    12.612127     22.30075    14.235163 
   88800     33.16104    84064.002            0    84193.096    12.677318    22.407006    13.611423    19.133999    32.930787   -48.165111    12.612127     22.30075    14.235163 
   89000    43.915803    84191.367            0    84362.329    12.682461    22.408896    13.604501    19.648533    33.119883   -48.857548    12.612127     22.30075    14.235163 
   89200    30.778894    84411.692            0    84531.512    12.688918    22.406988    13.597101    20.294452    32.929054   -49.597848    12.612127     22.30075    14.235163 
   89400    46.188553    84520.955            0    84700.764    12.683839    22.403061    13.590916    19.786381    32.536193    -50.21668    12.612127     22.30075    14.235163 
   89600     39.14586    84717.545            0    84869.938     12.67719    22.403656    13.585038    19.121194    32.595659   -50.804674    12.612127     22.30075    14.235163 
   89800    43.617742    84869.403            0    85039.204    12.679908    22.409569     13.57881    19.393077    33.187267   -51.427737    12.612127     22.30075    14.235163 
   90000    47.313202    85024.164            0    85208.352    12.689112    22.418066    13.571706     20.31385    34.037296   -52.138501    12.612127     22.30075    14.235163 
   90200    30.101871    85260.424            0    85377.609     12.69444    22.419796    13.566154    20.846894    34.210317   -52.693857    12.612127     22.30075    14.235163 
   90400    45.583959    85369.383            0    85546.838    12.690458     22.40992     13.56365    20.448519    33.222377   -52.944401    12.612127     22.30075    14.235163 
   90600    36.008017    85575.826            0    85716.003    12.682846    22.398223    13.561231    19.686981    32.052153   -53.186449    12.612127     22.30075    14.235163 
   90800    38.433541    85735.668            0    85885.287    12.680105    22.398546    13.557631    19.412861    32.084429    -53.54657    12.612127     22.30075    14.235163 
   91000    48.183857    85866.891            0    86054.468    12.685103    22.411761    13.554983     19.91281    33.406509   -53.811441    12.612127     22.30075    14.235163 
   91200    33.526077    86093.162            0    86223.677    12.689449    22.425162    13.552518    20.347589    34.747183    -54.05802    12.612127     22.30075    14.235163 
   91400    45.796162    86214.667            0    86392.949    12.684426    22.422341    13.550169    19.845045    34.464922    -54.29306    12.612127     22.30075    14.235163 
   91600    38.983934    86410.345            0    86562.107    12.675757    22.410658      13.5481     18.97784     33.29614   -54.500031    12.612127     22.30075    14.235163 
   91800    29.038055    86618.299            0    86731.343    12.671364    22.400215    13.545914    18.538346    32.251383   -54.718712    12.612127     22.30075    14.235163 
   92000    49.215068    86708.968            0     86900.56    12.679815    22.403357    13.544723    19.383831    32.565756   -54.837862    12.612127     22.30075    14.235163 
   92200    38.947312    86918.166            0    87069.786    12.687394    22.408781    13.543452    20.142031    33.108343    -54.96503    12.612127     22.30075    14.235163 
   92400    35.044732    87102.589            0    87239.016    12.683613    22.414291    13.543398    19.763792     33.65964   -54.970463    12.612127     22.30075    14.235163 
   92600    42.597538    87242.433            0    87408.263    12.673918     22.41183    13.544037      18.7939    33.413375   -54.906563    12.612127     22.30075    14.235163 
   92800    47.283495    87393.349            0    87577.421    12.669952    22.407719    13.545566    18.397067    33.002137   -54.753526    12.612127     22.30075    14.235163 
   93000    36.265093    87605.505            0    87746.683    12.670046    22.405319    13.547585    18.406479    32.762002   -54.551603    12.612127     22.30075    14.235163 
   93200    48.180371     87728.28            0    87915.844    12.674222    22.409794    13.549487    18.824269    33.209719   -54.361303    12.612127     22.30075    14.235163 
   93400    31.039993    87964.234            0    88085.071    12.682066    22.413702    13.549975    19.609022    33.600741   -54.312427    12.612127     22.30075    14.235163 
   93600    47.889635    88067.867            0    88254.298    12.688334      22.4097    13.548601    20.236009    33.200373    -54.44994    12.612127     22.30075    14.235163 
   93800    33.820904    88291.825            0    88423.487    12.687773    22.404454    13.546666    20.179959     32.67548   -54.643529    12.612127     22.30075    14.235163 
   94000    42.254926    88428.182            0    88592.678    12.684963    22.408881    13.544872    19.898851     33.11836   -54.823032    12.612127     22.30075    14.235163 
   94200    30.614008    88642.725            0    88761.904    12.684985    22.419894    13.543206    19.901041    34.220137   -54.989678    12.612127     22.30075    14.235163 
   94400    49.517397    88738.344            0    88931.112    12.685919    22.423879    13.542956    19.994473    34.618829    -55.01468    12.612127     22.30075    14.235163 
   94600    29.475658    88985.563            0     89100.31    12.686079    22.421468    13.542931    20.010443    34.377627   -55.017181    12.612127     22.30075    14.235163 
   94800    48.734238     89079.87            0     89269.59    12.686323    22.412637    13.544477    20.034865    33.494199   -54.862476    12.612127     22.30075    14.235163 
   95000     45.69842    89260.833            0    89438.734     12.68582     22.40344    13.546369     19.98454    32.574083   -54.673231    12.612127     22.30075    14.235163 
   95200    34.822836    89472.462            0    89608.025    12.682722    22.399004    13.549358     19.67464    32.130305   -54.374202    12.612127     22.30075    14.235163 
   95400    48.996541    89586.471            0    89777.212    12.681173    22.402791    13.553531    19.519655    32.509098   -53.956707    12.612127     22.30075    14.235163 
   95600    33.519131    89815.948            0    89946.436    12.683563    22.411555    13.557258     19.75877    33.385875   -53.583851    12.612127     22.30075    14.235163 
   95800    42.365816    89950.737            0    90115.665    12.691647    22.417898     13.56068    20.567502    34.020523    -53.24148    12.612127     22.30075    14.235163 
   96000     29.09056    90171.634            0    90284.882    12.691352    22.416239    13.563574    20.537989    33.854553   -52.951962    12.612127     22.30075    14.235163 
   96200    46.198547     90274.22            0    90454.068    12.682561    22.406703    13.567834    19.658525    32.900533   -52.525838    12.612127     22.30075    14.235163 
   96400    36.275033    90482.061            0    90623.277    12.676857    22.402314    13.572079    19.087837    32.461381   -52.101115    12.612127     22.30075    14.235163 
   96600    48.153261    90605.034            0    90792.492    12.679536     22.40663    13.575878    19.355872    32.893158   -51.721063    12.612127     22.30075    14.235163 
   96800    31.071172    90840.711            0    90961.669    12.686437    22.414992    13.578368    20.046289    33.729709   -51.472022    12.612127     22.30075    14.235163 
   97000     49.51798    90938.169            0     91130.94    12.685642    22.414679    13.578287    19.966699    33.698418   -51.480126    12.612127     22.30075    14.235163 
   97200    49.855012    91105.997            0     91300.08    12.680518    22.408762    13.577392    19.454122    33.106476   -51.569613    12.612127     22.30075    14.235163 
   97400    38.860123    91318.041            0    91469.321    12.679752    22.406114     13.57594    19.377458    32.841556   -51.714867    12.612127     22.30075    14.235163 
   97600    47.171215    91454.851            0    91638.485    12.685025    22.412843    13.573767    19.905069    33.514737   -51.932242    12.612127     22.30075    14.235163 
   97800    26.573039    91704.268            0    91807.715     12.68834     22.41598    13.570806     20.23667    33.828577   -52.228535    12.612127     22.30075    14.235163 
   98000    50.069545    91781.985            0    91976.902    12.682714    22.414188    13.567528    19.673797    33.649296   -52.556426    12.612127     22.30075    14.235163 
   98200    31.153035    92024.798            0    92146.075    12.677315    22.412254    13.564064    19.133671    33.455812   -52.902986    12.612127     22.30075    14.235163 
   98400    43.837931    92144.659            0    92315.317    12.679822    22.409476    13.561365    19.384522    33.177913   -53.172957    12.612127     22.30075    14.235163 
   98600    33.429803    92354.359            0    92484.499    12.685709    22.408114    13.558905    19.973458    33.041641   -53.419073    12.612127     22.30075    14.235163 
   98800    40.991822    92494.141            0     92653.72    12.685847     22.40709    13.555411    19.987263     32.93918   -53.768627    12.612127     22.30075    14.235163 
   99000    48.208774    92635.244            0    92822.918    12.686666    22.411165    13.551167    20.069153    33.346882    -54.19323    12.612127     22.30075    14.235163 
   99200    36.320968     92850.73            0    92992.125     12.68896    22.416464    13.547542    20.298654    33.876988   -54.555868    12.612127     22.30075    14.235163 
   99400    45.785471    92983.067            0    93161.307    12.693745    22.417737    13.545213     20.77738    34.004398   -54.788864    12.612127     22.30075    14.235163 
   99600    32.481964    93204.064            0    93330.515    12.693226    22.415316      13.5431    20.725486    33.762216   -55.000255    12.612127     22.30075    14.235163 
   99800    47.263621    93315.705            0    93499.699    12.686281    22.408801    13.540455    20.030712    33.110411   -55.264845    12.612127     22.30075    14.235163 
  100000    40.239111    93512.226            0    93668.874    12.681361    22.404763    13.538157    19.538468    32.706446   -55.494763    12.612127     22.30075    14.235163 
  100200     44.79504    93663.707            0    93838.091    12.683064    22.405636    13.536674    19.708826    32.793715   -55.643176    12.612127     22.30075    14.235163 
  100400    47.413497     93822.72            0    94007.298    12.685727    22.410277    13.535457    19.975274    33.258039   -55.764864    12.612127     22.30075    14.235163 
  100600    37.942292    94028.802            0    94176.509     12.68407    22.414529    13.535556    19.809469    33.683404   -55.755024    12.612127     22.30075    14.235163 
  100800    49.019604    94154.858            0    94345.688     12.67745    22.409375    13.536705    19.147184    33.167825    -55.64006    12.612127     22.30075    14.235163 
  101000    37.750601    94367.934            0    94514.895    12.671747    22.400105    13.537728    18.576707    32.240456    -55.53769    12.612127     22.30075    14.235163 
  101200    48.606454    94494.853            0    94684.075     12.67104    22.397827     13.53817    18.505948    32.012545   -55.493509    12.612127     22.30075    14.235163 
  101400    38.512478    94703.344            0     94853.27    12.675652    22.400062    13.537688    18.967361    32.236138   -55.541695    12.612127     22.30075    14.235163 
  101600    39.823489    94867.463            0    95022.493    12.683262     22.40157    13.536713    19.728601    32.387024   -55.639184    12.612127     22.30075    14.235163 
  101800    41.038376    95031.913            0    95191.672    12.685008    22.407579    13.536034    19.903317    32.988098   -55.707173    12.612127     22.30075    14.235163 
  102000    33.890465    95228.956            0    95360.889    12.681084    22.414924    13.535189    19.510782    33.722923   -55.791657    12.612127     22.30075    14.235163 
  102200    41.962031    95366.742            0    95530.097    12.677387    22.410919    13.534303    19.140878    33.322276   -55.880364    12.612127     22.30075    14.235163 
  102400    42.338745    95534.442            0    95699.264    12.679185    22.406819    13.532286    19.320814    32.912113   -56.082161    12.612127     22.30075    14.235163 
  102600    40.622359    95710.357            0    95868.497    12.684238    22.410482    13.528776     19.82627    33.278581   -56.433246    12.612127     22.30075    14.235163 
  102800    43.085868    95869.955            0    96037.686    12.689605    22.417873    13.525753    20.363257    34.017974   -56.735643    12.612127     22.30075    14.235163 
  103000    48.243468    96019.098            0    96206.907    12.690324    22.419995     13.52493    20.435133    34.230248   -56.818075    12.612127     22.30075    14.235163 
  103200    43.147706    96208.112            0    96376.083    12.685953    22.416715    13.525782    19.997882    33.902106   -56.732818    12.612127     22.30075    14.235163 
  103400    37.731916    96398.412            0      96545.3    12.678868     22.41525    13.528469    19.289031    33.755591   -56.463975    12.612127     22.30075    14.235163 
  103600    45.883329    96535.867            0    96714.488    12.677342    22.419869    13.532793    19.136395    34.217611    -56.03136    12.612127     22.30075    14.235163 
  103800    33.219039    96754.369            0    96883.688     12.68204     22.41929    13.538007    19.606354    34.159714   -55.509825    12.612127     22.30075    14.235163 
  104000    49.631704    96859.667            0     97052.88    12.689323    22.409976    13.541094    20.335041    33.227966    -55.20092    12.612127     22.30075    14.235163 
  104200    32.641639    97094.988            0     97222.06    12.693071    22.401717     13.54327    20.709944    32.401694   -54.983285    12.612127     22.30075    14.235163 
  104400    48.341278    97203.082            0    97391.272    12.689015    22.406537    13.544263    20.304187    32.883882   -54.883911    12.612127     22.30075    14.235163 
  104600    48.405882    97371.984            0    97560.425    12.679758    22.416149    13.545299      19.3781    33.845477   -54.780284    12.612127     22.30075    14.235163 
  104800    37.798921    97582.516            0    97729.664    12.675248    22.421968    13.546155    18.926929    34.427686   -54.694624    12.612127     22.30075    14.235163 
  105000    47.869681    97712.479            0    97898.832    12.678932     22.41577    13.546752    19.295474    33.807568   -54.634943    12.612127     22.30075    14.235163 
  105200    38.242549    97919.178            0    98068.054    12.682858    22.406282    13.545581    19.688248    32.858369   -54.752056    12.612127     22.30075    14.235163 
  105400    42.376662    98072.279            0    98237.249    12.677953    22.399251    13.543607    19.197473    32.154995   -54.949575    12.612127     22.30075    14.235163 
  105600    28.716618    98294.679            0    98406.471    12.674153    22.401017    13.542129    18.817396    32.331652   -55.097453    12.612127     22.30075    14.235163 
  105800    50.562657    98378.824            0    98575.661    12.680087    22.407859     13.53907    19.411007    33.016105   -55.403441    12.612127     22.30075    14.235163 
  106000    27.096816    98639.376            0    98744.862    12.687116    22.414828    13.536242    20.114182    33.713303   -55.686369    12.612127     22.30075    14.235163 
  106200    49.677457    98720.704            0    98914.096    12.687725    22.411963    13.534173    20.175144    33.426707   -55.893372    12.612127     22.30075    14.235163 
  106400     44.70521    98909.221            0    99083.255    12.683167    22.406034    13.531587    19.719129    32.833595   -56.152018    12.612127     22.30075    14.235163 
  106600    28.929141    99139.866            0    99252.485    12.676114    22.403811    13.529863    19.013533     32.61115   -56.324553    12.612127     22.30075    14.235163 
  106800    43.481457    99252.423            0    99421.694    12.676771    22.408506    13.528998    19.079241    33.080873   -56.411058    12.612127     22.30075    14.235163 
  107000     39.26317    99438.038            0    99590.887    12.683859    22.412916    13.527093    19.788339    33.522071   -56.601668    12.612127     22.30075    14.235163 
  107200    34.039524    99627.599            0    99760.113    12.687126    22.415805    13.525593    20.115164    33.811097   -56.751735    12.612127     22.30075    14.235163 
  107400    43.058789    99761.686            0    99929.311    12.683744    22.410618    13.523296    19.776853    33.292166   -56.981528    12.612127     22.30075    14.235163 
  107600    40.187317    99942.076            0    100098.52    12.683407    22.402705    13.521651    19.743195     32.50056   -57.146076    12.612127     22.30075    14.235163 
  107800    48.235896    100079.95            0    100267.73    12.683494    22.405727    13.521918    19.751807    32.802834   -57.119371    12.612127     22.30075    14.235163 
  108000     45.13216    100261.26            0    100436.96    12.680517      22.4165    13.521755    19.454055    33.880644   -57.135647    12.612127     22.30075    14.235163 
  108200    40.286887    100449.32            0    100606.15    12.678129     22.42298    13.522054     19.21517    34.528938   -57.105754    12.612127     22.30075    14.235163 
  108400    37.378835    100629.86            0    100775.37     12.68279    22.416819    13.522795    19.681402    33.912552   -57.031659    12.612127     22.30075    14.235163 
  108600    44.734395    100770.41            0    100944.56    12.689884    22.407105    13.523897    20.391101    32.940729   -56.921348    12.612127     22.30075    14.235163 
  108800    30.276241     100995.9            0    101113.76    12.687944    22.403655    13.524868     20.19707    32.595557   -56.824193    12.612127     22.30075    14.235163 
  109000    47.401844    101098.44            0    101282.97    12.679922    22.408146    13.526803    19.394476    33.044841   -56.630613    12.612127     22.30075    14.235163 
  109200    29.272137    101338.23            0    101452.18    12.676947    22.416661    13.529418    19.096905    33.896767   -56.369054    12.612127     22.30075    14.235163 
  109400    47.441598    101436.72            0    101621.41      12.6852    22.416396     13.53159    19.922503    33.870259   -56.151727    12.612127     22.30075    14.235163 
  109600    35.966385     101650.6            0    101790.61    12.693611    22.411788    13.533604    20.763952    33.409224    -55.95025    12.612127     22.30075    14.235163 
  109800    50.305212    101763.99            0    101959.82    12.688022    22.409072    13.534095    20.204879    33.137535   -55.901187    12.612127     22.30075    14.235163 
  110000     34.48424    101994.75            0       102129     12.67753    22.408914    13.534529    19.155206    33.121705   -55.857741    12.612127     22.30075    14.235163 
  110200    41.648646    102136.14            0    102298.27    12.679532    22.407215    13.536092    19.355522    32.951702   -55.701377    12.612127     22.30075    14.235163 
  110400    38.414312    102317.89            0    102467.44    12.690011    22.404166    13.538223     20.40384    32.646745   -55.488182    12.612127     22.30075    14.235163 
  110600    40.993408    102477.09            0    102636.68      12.6929    22.400763    13.538786    20.692849    32.306299   -55.431854    12.612127     22.30075    14.235163 
  110800    39.503678    102652.09            0    102805.87    12.687123    22.404223    13.538224    20.114873    32.652383   -55.488057    12.612127     22.30075    14.235163 
  111000    38.774778    102824.14            0    102975.09    12.681285    22.413564    13.537778    19.530839    33.586918   -55.532679    12.612127     22.30075    14.235163 
  111200    39.625133       102990            0    103144.26    12.679544    22.417457    13.536773    19.356652     33.97631   -55.633226    12.612127     22.30075    14.235163 
  111400    40.971457    103153.99            0    103313.49     12.68171    22.411171    13.537546    19.573422    33.347498   -55.555867    12.612127     22.30075    14.235163 
  111600    44.382045    103309.91            0    103482.68    12.685353    22.407459    13.540589    19.937872     32.97612   -55.251482    12.612127     22.30075    14.235163 
  111800    44.735106    103477.72            0    103651.87    12.685239    22.412644    13.544011    19.926401     33.49482   -54.909174    12.612127     22.30075    14.235163 
  112000    36.322687     103679.7            0     103821.1    12.680574    22.411784    13.547882    19.459711    33.408783   -54.521892    12.612127     22.30075    14.235163 
  112200    51.077958    103791.43            0    103990.28    12.682605    22.402143    13.551604    19.662909     32.44428   -54.149536    12.612127     22.30075    14.235163 
  112400    25.673134    104059.55            0     104159.5    12.686692    22.398807    13.554773    20.071817    32.110614   -53.832445    12.612127     22.30075    14.235163 
  112600    51.935203    104126.52            0     104328.7    12.684646    22.413621    13.558333    19.867144    33.592636   -53.476326    12.612127     22.30075    14.235163 
  112800    33.315214    104368.18            0    104497.88    12.679229    22.428646    13.562209    19.325225    35.095702   -53.088576    12.612127     22.30075    14.235163 
  113000     48.68299    104477.61            0    104667.13    12.679046    22.428405    13.567326    19.306837    35.071581   -52.576682    12.612127     22.30075    14.235163 
  113200    41.494765    104674.76            0     104836.3    12.684016    22.418105    13.574265    19.804049    34.041228   -51.882467    12.612127     22.30075    14.235163 
  113400    41.294992    104844.77            0    105005.53    12.687856    22.413477    13.581973    20.188256    33.578222   -51.111375    12.612127     22.30075    14.235163 
  113600    45.013431    104999.46            0    105174.69    12.683963    22.414746    13.588119    19.798738    33.705172   -50.496462    12.612127     22.30075    14.235163 
  113800    40.236308     105187.3            0    105343.94      12.6791    22.415995    13.592751    19.312223    33.830065   -50.033123    12.612127     22.30075    14.235163 
  114000    41.684036    105350.85            0    105513.12    12.678345     22.41379    13.598592    19.236774    33.609497   -49.448758    12.612127     22.30075    14.235163 
  114200    33.149244    105553.31            0    105682.36     12.68123    22.408317    13.605385    19.525363    33.061983   -48.769158    12.612127     22.30075    14.235163 
  114400    50.130654    105656.39            0    105851.55     12.68143    22.404814       13.613    19.545363    32.711483   -48.007331    12.612127     22.30075    14.235163 
  114600    36.328257    105879.32            0    106020.74    12.681628    22.404331    13.619781    19.565166    32.663214   -47.328921    12.612127     22.30075    14.235163 
  114800    48.296094    106001.92            0    106189.93    12.684623    22.409325    13.626264    19.864816     33.16281   -46.680341    12.612127     22.30075    14.235163 
  115000    44.462557    106186.01            0     106359.1    12.689371    22.415979    13.632392      20.3398    33.828536   -46.067293    12.612127     22.30075    14.235163 
  115200    50.031623    106333.56            0    106528.33    12.687359     22.41604    13.637961    20.138528    33.834606   -45.510179    12.612127     22.30075    14.235163 
  115400    49.623924    106504.32            0    106697.51    12.681104    22.411724    13.643856    19.512784    33.402844   -44.920441    12.612127     22.30075    14.235163 
  115600    46.136318     106687.1            0     106866.7    12.680865    22.405697    13.649469    19.488834    32.799825   -44.358913    12.612127     22.30075    14.235163 
  115800    48.986616     106845.2            0     107035.9    12.684092    22.403382    13.652863    19.811661    32.568224   -44.019341    12.612127     22.30075    14.235163 
  116000    44.915559    107030.24            0     107205.1    12.683448    22.406684    13.655748     19.74725    32.898582   -43.730752    12.612127     22.30075    14.235163 
  116200    43.797327    107203.77            0    107374.27    12.677642    22.410304    13.660713    19.166442    33.260766   -43.234027    12.612127     22.30075    14.235163 
  116400    37.734771     107396.6            0     107543.5    12.673796     22.40853    13.665509    18.781645    33.083237   -42.754206    12.612127     22.30075    14.235163 
  116600    44.046643    107541.21            0    107712.68    12.677671    22.406733    13.670965     19.16929    32.903508   -42.208349    12.612127     22.30075    14.235163 
  116800    27.728504    107773.94            0    107881.89    12.682872    22.408272    13.675402    19.689591    33.057441   -41.764552    12.612127     22.30075    14.235163 
  117000    52.001448    107848.66            0     108051.1    12.685811    22.413444    13.677748    19.983659     33.57486   -41.529783    12.612127     22.30075    14.235163 
  117200    40.788869    108061.47            0    108220.26    12.685522    22.416087    13.680374     19.95472    33.839342   -41.267112    12.612127     22.30075    14.235163 
  117400    38.530821     108239.5            0     108389.5    12.682184    22.409736    13.684846    19.620767    33.203965   -40.819722    12.612127     22.30075    14.235163 
  117600     50.85412    108360.69            0    108558.67    12.680469    22.403631    13.690112    19.449219    32.593166   -40.292836    12.612127     22.30075    14.235163 
  117800    36.204853    108586.92            0    108727.86    12.682409    22.402842    13.694797    19.643334    32.514222   -39.824159    12.612127     22.30075    14.235163 
  118000    46.833156    108714.77            0    108897.09    12.681484    22.409852    13.695833    19.550732    33.215542   -39.720549    12.612127     22.30075    14.235163 
  118200    41.975869    108902.85            0    109066.26     12.68391    22.414222    13.694624    19.793433    33.652686   -39.841476    12.612127     22.30075    14.235163 
  118400    44.650231    109061.65            0    109235.47    12.688093    22.406904    13.692911    20.211944    32.920609   -40.012822    12.612127     22.30075    14.235163 
  118600    42.217794    109240.31            0    109404.67    12.688435    22.397983    13.691068     20.24617    32.028095   -40.197196    12.612127     22.30075    14.235163 
  118800    38.688111    109423.27            0    109573.88    12.687188    22.398514    13.689467    20.121416    32.081245   -40.357457    12.612127     22.30075    14.235163 
  119000    46.586473     109561.7            0    109743.06     12.68324    22.409316    13.688813    19.726449    33.161919   -40.422854    12.612127     22.30075    14.235163 
  119200     41.46473    109750.85            0    109912.27    12.682733    22.414748    13.686665    19.675677    33.705306   -40.637693    12.612127     22.30075    14.235163 
  119400    40.935091     109922.1            0    110081.46    12.679837    22.412287      13.6855    19.386002    33.459108    -40.75428    12.612127     22.30075    14.235163 
  119600    40.065578    110094.66            0    110250.63    12.680567    22.408773    13.685561    19.459007    33.107557   -40.748157    12.612127     22.30075    14.235163 
  119800    43.694045    110249.74            0    110419.84     12.68284    22.412536    13.686046    19.686454    33.484028   -40.699646    12.612127     22.30075    14.235163 
  120000    46.695302    110407.25            0    110589.03    12.682523    22.419613    13.687145    19.654759     34.19209   -40.589752    12.612127     22.30075    14.235163 
  120200    33.038753    110629.64            0    110758.26    12.681564    22.423632     13.68887    19.558818    34.594123   -40.417129    12.612127     22.30075    14.235163 
  120400    49.580002    110734.43            0    110927.45    12.681237    22.417411    13.689668    19.526084    33.971786   -40.337296    12.612127     22.30075    14.235163 
  120600    38.979952    110944.85            0     111096.6    12.685116    22.408216    13.690275    19.914092    33.051853   -40.276615    12.612127     22.30075    14.235163 
  120800     42.92598    111098.74            0    111265.84    12.690037    22.405861    13.689593    20.406438    32.816277   -40.344796    12.612127     22.30075    14.235163 
  121000    51.896259    111232.98            0    111435.01    12.689338    22.412854      13.6888    20.336461    33.515843   -40.424106    12.612127     22.30075    14.235163 
  121200    35.351432    111466.62            0    111604.24    12.683262    22.419289    13.687535    19.728661    34.159613    -40.55065    12.612127     22.30075    14.235163 
  121400    49.690092    111580.01            0    111773.45    12.678905     22.41518    13.685448    19.292784    33.748594   -40.759488    12.612127     22.30075    14.235163 
  121600     37.82773    111795.39            0    111942.65    12.678555    22.406732    13.682433    19.257737    32.903378   -41.061058    12.612127     22.30075    14.235163 
  121800    42.816747    111945.15            0    112111.83    12.681977    22.402456    13.677979    19.600066     32.47559   -41.506733    12.612127     22.30075    14.235163 
  122000    30.668749    112161.65            0    112281.04    12.683619     22.40503    13.675963    19.764394    32.733093   -41.708362    12.612127     22.30075    14.235163 
  122200    47.565483    112265.06            0    112450.23    12.680003    22.408785     13.67446    19.402564    33.108841   -41.858726    12.612127     22.30075    14.235163 
  122400    43.826759    112448.84            0    112619.45    12.674159    22.408736    13.673449    18.817997    33.103923   -41.959907    12.612127     22.30075    14.235163 
  122600    47.004183    112605.68            0    112788.66    12.671996    22.410604    13.672802     18.60162    33.290763   -42.024612    12.612127     22.30075    14.235163 
  122800    35.377779    112820.12            0    112957.84    12.679099    22.412756    13.673704    19.312149    33.506107   -41.934405    12.612127     22.30075    14.235163 
  123000    41.032102    112967.34            0    113127.08    12.688389    22.412059    13.677235    20.241562    33.436295   -41.581134    12.612127     22.30075    14.235163 
  123200    44.760708    113121.99            0    113296.24    12.690373    22.407947    13.681573    20.440064    33.024917   -41.147101    12.612127     22.30075    14.235163 
  123400    37.310019    113320.23            0    113465.48    12.686441    22.405974    13.686281    20.046725    32.827618   -40.676128    12.612127     22.30075    14.235163 
  123600    49.142211    113443.36            0    113634.66    12.685403      22.4099    13.689917    19.942791     33.22034   -40.312361    12.612127     22.30075    14.235163 
  123800    32.261434    113678.28            0    113803.87    12.687005     22.40917    13.692102    20.103078    33.147355   -40.093764    12.612127     22.30075    14.235163 
  124000    41.383304    113811.96            0    113973.07    12.687616      22.4018    13.693544    20.164223    32.409959     -39.9495    12.612127     22.30075    14.235163 
  124200    41.535865    113980.57            0    114142.26    12.682389    22.400869    13.696554    19.641295    32.316869   -39.648458    12.612127     22.30075    14.235163 
  124400    38.803686     114160.4            0    114311.46    12.678198    22.412295    13.700926    19.222054    33.459988   -39.211041    12.612127     22.30075    14.235163 
  124600    42.513392    114315.14            0    114480.65    12.682478    22.417764    13.707481     19.65024    34.007025   -38.555207    12.612127     22.30075    14.235163 
  124800    50.157234    114454.58            0    114649.84    12.686757    22.410614    13.715407    20.078332    33.291768    -37.76228    12.612127     22.30075    14.235163 
  125000    48.335946    114630.86            0    114819.03    12.687182     22.40065     13.72401    20.120859    32.294922   -36.901644    12.612127     22.30075    14.235163 
  125200    47.609661    114802.87            0    114988.21    12.679855    22.400099    13.732463    19.387762    32.239851   -36.055978    12.612127     22.30075    14.235163 
  125400    40.439884    114999.97            0     115157.4    12.673366    22.410827    13.739652    18.738649    33.313114   -35.336772    12.612127     22.30075    14.235163 
  125600    47.163251    115142.99            0    115326.59    12.680145    22.424025    13.745684    19.416773    34.633455   -34.733378    12.612127     22.30075    14.235163 
  125800    36.314425     115354.4            0    115495.77    12.692519    22.430692    13.750584    20.654721    35.300439   -34.243174    12.612127     22.30075    14.235163 
  126000     48.35258    115476.74            0    115664.98    12.693606    22.421228    13.754905    20.763459     34.35361   -33.810815    12.612127     22.30075    14.235163 
  126200    51.836913    115632.33            0    115834.13    12.686034    22.405387    13.759323    20.005939    32.768809    -33.36885    12.612127     22.30075    14.235163 
  126400    39.142885    115850.96            0    116003.34    12.680616    22.395559    13.765105    19.463976    31.785684   -32.790408    12.612127     22.30075    14.235163 
  126600     49.41342    115980.14            0    116172.51    12.681952    22.402097    13.772271    19.597611    32.439707   -32.073534    12.612127     22.30075    14.235163 
  126800    31.394384    116219.47            0    116341.69    12.685334    22.414623    13.779237     19.93596     33.69286   -31.376608    12.612127     22.30075    14.235163 
  127000    48.962251    116320.28            0    116510.89    12.688525    22.416212     13.78418    20.255153     33.85177   -30.882167    12.612127     22.30075    14.235163 
  127200    44.569006    116506.56            0    116680.06    12.688605    22.408417    13.787845     20.26312    33.071987   -30.515486    12.612127     22.30075    14.235163 
  127400    43.861793     116678.5            0    116849.26    12.680913    22.406581    13.790603    19.493626    32.888315   -30.239524    12.612127     22.30075    14.235163 
  127600    47.396468    116833.92            0    117018.43    12.673728    22.413637    13.792605    18.774876    33.594159   -30.039261    12.612127     22.30075    14.235163 
  127800    51.188475    116988.35            0    117187.62     12.67498    22.420924    13.793141    18.900142    34.323243   -29.985626    12.612127     22.30075    14.235163 
  128000    48.486195    117168.04            0     117356.8    12.683373    22.418812    13.792706    19.739745    34.111922   -30.029198    12.612127     22.30075    14.235163 
  128200     39.24461     117373.2            0    117525.98    12.692178    22.411766    13.790658    20.620572       33.407   -30.234088    12.612127     22.30075    14.235163 
  128400    42.288209    117530.55            0    117695.17    12.686027    22.404336     13.78702    20.005267    32.663721   -30.598005    12.612127     22.30075    14.235163 
  128600    46.911548    117681.71            0    117864.33    12.677394    22.402202    13.783009     19.14164    32.450226    -30.99933    12.612127     22.30075    14.235163 
  128800    39.294128    117880.58            0    118033.55    12.674991    22.406847    13.778273    18.901189    32.914934   -31.473114    12.612127     22.30075    14.235163 
  129000    51.206358    118003.38            0    118202.73    12.683805    22.416046    13.775222    19.782953    33.835201   -31.778298    12.612127     22.30075    14.235163 
  129200    31.094986    118250.89            0    118371.94    12.688149    22.417634    13.773142    20.217545    33.994089   -31.986411    12.612127     22.30075    14.235163 
  129400    45.926121    118362.34            0    118541.13    12.683527    22.404012    13.772732    19.755153    32.631314   -32.027443    12.612127     22.30075    14.235163 
  129600    39.966926    118554.72            0    118710.31    12.683187    22.392386    13.773138    19.721139    31.468223   -31.986749    12.612127     22.30075    14.235163 
  129800    48.225658    118691.77            0    118879.51    12.683229    22.398426    13.772812    19.725373    32.072504   -32.019402    12.612127     22.30075    14.235163 
  130000    45.639517    118871.01            0    119048.68     12.68303    22.413234    13.773334    19.705385    33.553856   -31.967188    12.612127     22.30075    14.235163 
  130200    45.077317    119042.39            0    119217.87    12.683974    22.419482    13.773244    19.799833    34.178988   -31.976155    12.612127     22.30075    14.235163 
  130400    43.377596    119218.18            0    119387.05    12.686578    22.413605    13.771789    20.060367    33.590966   -32.121769    12.612127     22.30075    14.235163 
  130600    41.694198    119393.92            0    119556.24    12.691784    22.406992    13.770733    20.581223     32.92941   -32.227438    12.612127     22.30075    14.235163 
  130800    46.515045    119544.33            0    119725.41    12.689313    22.407813    13.770115    20.333967    33.011594   -32.289207    12.612127     22.30075    14.235163 
  131000    32.661055    119767.46            0    119894.61    12.682434    22.411361    13.770472    19.645816     33.36646   -32.253482    12.612127     22.30075    14.235163 
  131200    47.020198    119880.76            0    120063.81    12.679967    22.411189    13.768859    19.398993    33.349294   -32.414911    12.612127     22.30075    14.235163 
  131400    38.570257    120082.82            0    120232.98    12.680558    22.410238    13.766556    19.458176    33.254193   -32.645271    12.612127     22.30075    14.235163 
  131600    48.571009     120213.1            0    120402.19    12.683858    22.409411    13.764674    19.788263    33.171376   -32.833589    12.612127     22.30075    14.235163 
  131800    48.427903    120382.81            0    120571.34    12.683554    22.412006    13.763298    19.757836    33.431042   -32.971172    12.612127     22.30075    14.235163 
  132000    42.903054    120573.54            0    120740.56    12.682567    22.416363    13.761891    19.659118    33.866934   -33.112003    12.612127     22.30075    14.235163 
  132200    52.437368    120705.58            0    120909.71    12.683547    22.420151    13.761015    19.757141    34.245879   -33.199624    12.612127     22.30075    14.235163 
  132400    35.955342    120938.94            0    121078.91    12.684364    22.419412    13.759617    19.838936     34.17194   -33.339472    12.612127     22.30075    14.235163 
  132600    53.076284    121041.49            0    121248.11    12.679923     22.41189    13.755797    19.394649     33.41944   -33.721626    12.612127     22.30075    14.235163 
  132800    36.839808    121273.88            0    121417.29    12.673151    22.404983    13.751196    18.717129    32.728385   -34.181907    12.612127     22.30075    14.235163 
  133000     45.24781    121410.35            0     121586.5    12.673007    22.402039    13.744253    18.702705    32.433868   -34.876529    12.612127     22.30075    14.235163 
  133200    42.859163    121588.82            0    121755.66    12.682985    22.401939    13.737909     19.70089    32.423905   -35.511198    12.612127     22.30075    14.235163 
  133400    38.097663    121776.56            0    121924.88    12.693065     22.40257    13.731319    20.709313    32.487003   -36.170476    12.612127     22.30075    14.235163 
  133600    48.615921    121904.78            0    122094.04    12.693611    22.410652    13.724944    20.763955     33.29559   -36.808235    12.612127     22.30075    14.235163 
  133800    36.143744    122122.53            0    122263.24    12.686152    22.418065    13.720753    20.017742    34.037231   -37.227541    12.612127     22.30075    14.235163 
  134000    50.729101    122234.96            0    122432.45    12.684379    22.414385    13.718193    19.840433    33.668997   -37.483595    12.612127     22.30075    14.235163 
  134200    41.249218    122441.03            0    122601.61    12.685889    22.405161     13.71477    19.991423    32.746227   -37.826091    12.612127     22.30075    14.235163 
  134400    47.585817     122585.6            0    122770.84    12.686464    22.406068    13.712439    20.048979    32.836938   -38.059233    12.612127     22.30075    14.235163 
  134600    37.722307    122793.16            0    122940.01    12.686182    22.416102    13.712152    20.020751    33.840757   -38.088008    12.612127     22.30075    14.235163 
  134800    41.293602    122948.47            0    123109.22    12.684651    22.418886    13.711653     19.86765    34.119311   -38.137857    12.612127     22.30075    14.235163 
  135000     46.79295    123096.22            0    123278.38    12.683681    22.411355    13.711796    19.770532    33.365867   -38.123582    12.612127     22.30075    14.235163 
  135200    45.587205    123270.12            0    123447.58    12.686114    22.411406    13.710692    20.013979    33.371041   -38.233983    12.612127     22.30075    14.235163 
  135400    40.308285    123459.85            0    123616.77    12.688111    22.416363     13.70908    20.213765    33.866932   -38.395262    12.612127     22.30075    14.235163 
  135600    50.035241    123591.15            0    123785.94    12.684588      22.4199    13.706538    19.861271    34.220721   -38.649579    12.612127     22.30075    14.235163 
  135800     43.85074    123784.44            0    123955.15    12.681548    22.416524    13.705131    19.557131    33.883001   -38.790386    12.612127     22.30075    14.235163 
  136000    49.718889    123930.76            0    124124.31    12.684562    22.405514    13.705505    19.858735    32.781521    -38.75292    12.612127     22.30075    14.235163 
  136200     44.79134    124119.14            0    124293.51    12.686787    22.400599    13.705451    20.081274    32.289802   -38.758338    12.612127     22.30075    14.235163 
  136400    47.490252     124277.8            0    124462.68    12.685611    22.410702    13.703531    19.963642    33.300572   -38.950441    12.612127     22.30075    14.235163 
  136600    46.023615    124452.71            0    124631.88    12.683645    22.422433    13.699272    19.766954    34.474164   -39.376528    12.612127     22.30075    14.235163 
  136800    50.409821    124604.82            0    124801.06    12.684713     22.41996    13.693597    19.873842    34.226795   -39.944244    12.612127     22.30075    14.235163 
  137000    48.770409     124780.4            0    124970.26    12.687747    22.409363     13.68686    20.177293    33.166635   -40.618235    12.612127     22.30075    14.235163 
  137200     40.48537    124981.83            0    125139.44     12.69292     22.39998    13.678795    20.694874    32.227949   -41.425107    12.612127     22.30075    14.235163 
  137400    36.513234     125166.5            0    125308.64    12.688504    22.398243    13.671757     20.25311      32.0541   -42.129184    12.612127     22.30075    14.235163 
  137600      43.5297    125308.36            0    125477.82    12.679985    22.403186    13.663574    19.400798    32.548656   -42.947752    12.612127     22.30075    14.235163 
  137800    41.676838    125484.77            0    125647.01    12.680329    22.410472    13.653502    19.435236    33.277602   -43.955474    12.612127     22.30075    14.235163 
  138000    45.596071    125638.68            0    125816.18    12.687683    22.419021    13.644534    20.170889    34.132826   -44.852563    12.612127     22.30075    14.235163 
  138200     30.36599    125867.16            0    125985.38    12.691488    22.419908    13.633686    20.551595    34.221546   -45.937896    12.612127     22.30075    14.235163 
  138400    53.243247    125947.28            0    126154.55    12.683565    22.411627    13.623066    19.758948    33.393081   -47.000346    12.612127     22.30075    14.235163 
  138600    25.922109    126222.84            0    126323.75     12.67666    22.404669     13.61231    19.068122    32.697058   -48.076366    12.612127     22.30075    14.235163 
  138800    52.821732    126287.31            0    126492.94    12.677656    22.409849     13.59901    19.167855    33.215213   -49.406914    12.612127     22.30075    14.235163 
  139000    39.447232    126508.56            0    126662.12    12.681253    22.414902    13.585303     19.52768    33.720741   -50.778236    12.612127     22.30075    14.235163 
  139200    50.342193     126635.3            0    126831.28    12.685301    22.408075    13.572813    19.932632     33.03779   -52.027688    12.612127     22.30075    14.235163 
  139400    45.974362    126821.52            0    127000.49    12.688237    22.403839    13.560873    20.226315     32.61394   -53.222225    12.612127     22.30075    14.235163 
  139600      45.2523     126993.5            0    127169.66    12.685981     22.40673    13.550501    20.000709    32.903229   -54.259895    12.612127     22.30075    14.235163 
  139800     52.07823    127136.11            0    127338.85    12.684329    22.406712    13.542307     19.83541    32.901382   -55.079554    12.612127     22.30075    14.235163 
  140000    39.289513    127355.07            0    127508.02    12.683736    22.402747    13.534698    19.776024    32.504774   -55.840866    12.612127     22.30075    14.235163 
  140200    47.405508    127492.67            0    127677.22    12.679146    22.398085    13.525455    19.316914    32.038329   -56.765468    12.612127     22.30075    14.235163 
  140400    45.434395    127669.52            0     127846.4    12.677459    22.398782    13.514653    19.148082    32.108069   -57.846179    12.612127     22.30075    14.235163 
  140600    48.813682    127825.53            0    128015.56    12.680837    22.407106    13.502952    19.485994    32.940858   -59.016755    12.612127     22.30075    14.235163 
  140800    52.225735    127981.42            0    128184.73    12.684612    22.409326    13.492213    19.863658    33.162879   -60.091143    12.612127     22.30075    14.235163 
  141000    41.711603    128191.52            0     128353.9    12.684985    22.409186    13.482054    19.900974    33.148863   -61.107472    12.612127     22.30075    14.235163 
  141200    51.287493     128323.4            0    128523.06    12.678825    22.411366    13.470535    19.284713    33.367016   -62.259848    12.612127     22.30075    14.235163 
  141400    42.535001    128526.66            0    128692.24    12.675028    22.416909    13.458373    18.904897    33.921499   -63.476553    12.612127     22.30075    14.235163 
  141600    51.258038    128661.86            0    128861.41    12.680249    22.419825    13.445293    19.427253    34.213218   -64.785027    12.612127     22.30075    14.235163 
  141800    46.097203    128851.14            0    129030.59    12.683833     22.41789    13.433132    19.785812    34.019708   -66.001641    12.612127     22.30075    14.235163 
  142000     42.97378    129032.47            0    129199.76    12.682822    22.409553    13.423373    19.684583    33.185645   -66.978036    12.612127     22.30075    14.235163 
  142200    52.607635    129164.15            0    129368.95    12.679253    22.407784    13.414044     19.32761    33.008659   -67.911244    12.612127     22.30075    14.235163 
  142400    41.047882    129378.33            0    129538.12    12.679469    22.407967    13.404162    19.349205    33.026935   -68.899859    12.612127     22.30075    14.235163 
  142600    49.412871    129514.93            0    129707.29    12.685381    22.409023     13.39601    19.940636    33.132573   -69.715457    12.612127     22.30075    14.235163 
  142800    50.025776    129681.72            0    129876.47    12.686204    22.408861    13.388143    20.022938    33.116431   -70.502506    12.612127     22.30075    14.235163 
  143000    39.118087    129893.37            0    130045.65    12.682348    22.408339    13.381035    19.637162    33.064144    -71.21355    12.612127     22.30075    14.235163 
  143200    53.247149    130007.56            0    130214.85    12.684286     22.40791    13.377163    19.831083    33.021283   -71.600912    12.612127     22.30075    14.235163 
  143400    32.990556     130255.6            0    130384.03    12.686248    22.406322    13.373602    20.027334    32.862371   -71.957189    12.612127     22.30075    14.235163 
  143600    50.738135    130355.67            0    130553.19     12.68546    22.401313    13.368669    19.948514    32.361322   -72.450673    12.612127     22.30075    14.235163 
  143800    47.837869    130536.15            0    130722.38    12.681168    22.402502    13.363703    19.519117    32.480254   -72.947532    12.612127     22.30075    14.235163 
  144000    44.732371    130717.44            0    130891.58    12.679115    22.409749    13.359396    19.313774    33.205282   -73.378408    12.612127     22.30075    14.235163 
  144200     50.80216    130862.97            0    131060.74    12.687381    22.414734    13.354031    20.140748    33.703977   -73.915158    12.612127     22.30075    14.235163 
  144400    41.422141    131068.69            0    131229.94    12.692819    22.413875    13.347679    20.684783    33.617986   -74.550568    12.612127     22.30075    14.235163 
  144600    53.463635    131190.96            0    131399.09    12.689169    22.408164    13.339509    20.319598    33.046663   -75.367888    12.612127     22.30075    14.235163 
  144800    47.090844    131384.94            0    131568.26    12.684943    22.404953    13.331892    19.896796    32.725459   -76.129955    12.612127     22.30075    14.235163 
  145000    49.602935    131544.32            0    131737.42    12.681688    22.410042    13.325114    19.571213    33.234588   -76.807979    12.612127     22.30075    14.235163 
  145200    42.810328    131739.93            0    131906.59     12.67845    22.417128    13.318186    19.247225    33.943448   -77.501087    12.612127     22.30075    14.235163 
  145400    48.638731    131886.41            0    132075.76    12.682048    22.416861    13.312843    19.607182    33.916753   -78.035678    12.612127     22.30075    14.235163 
  145600    46.812707     132062.7            0    132244.94    12.683423    22.413576    13.309188    19.744765    33.588111   -78.401304    12.612127     22.30075    14.235163 
  145800     44.60028    132240.49            0    132414.11    12.678216    22.408404    13.307131    19.223803    33.070675   -78.607118    12.612127     22.30075    14.235163 
  146000    51.315315    132383.52            0    132583.29    12.676547    22.412676    13.307701     19.05683    33.498072    -78.55003    12.612127     22.30075    14.235163 
  146200    43.844379    132581.78            0    132752.46    12.679662     22.41906     13.30837     19.36852    34.136683   -78.483177    12.612127     22.30075    14.235163 
  146400    52.435141    132717.51            0    132921.63     12.68583    22.417213    13.308312    19.985568    33.951931   -78.488926    12.612127     22.30075    14.235163 
  146600    43.948926    132919.73            0    133090.82    12.687111    22.414082    13.307989     20.11368    33.638725   -78.521247    12.612127     22.30075    14.235163 
  146800    42.854307    133093.15            0    133259.98    12.681805    22.415964    13.306429    19.582875     33.82697     -78.6773    12.612127     22.30075    14.235163 
  147000    45.057964    133253.76            0    133429.17    12.682575    22.416894    13.304207    19.659951    33.920042   -78.899587    12.612127     22.30075    14.235163 
  147200    48.583402     133409.2            0    133598.33    12.691093     22.41333     13.30217    20.512082    33.563486   -79.103345    12.612127     22.30075    14.235163 
  147400    43.089318    133599.77            0    133767.51    12.696595    22.406036    13.299347    21.062468    32.833734   -79.385796    12.612127     22.30075    14.235163 
  147600    51.020736    133738.07            0    133936.69    12.690889    22.401023    13.295881    20.491686    32.332297   -79.732568    12.612127     22.30075    14.235163 
  147800    39.623233    133951.62            0    134105.87    12.682039    22.401871    13.291323     19.60634    32.417098    -80.18852    12.612127     22.30075    14.235163 
  148000    52.043072    134072.46            0    134275.06    12.679949    22.412027    13.284914    19.397187    33.433173     -80.8297    12.612127     22.30075    14.235163 
  148200      34.5667    134309.67            0    134444.24    12.681732    22.419575    13.278109    19.575533    34.188244   -81.510458    12.612127     22.30075    14.235163 
  148400    52.033154    134410.84            0     134613.4     12.68511    22.411628    13.272634    19.913536     33.39325   -82.058203    12.612127     22.30075    14.235163 
  148600    41.919371     134619.4            0    134782.59    12.683641    22.404568    13.267839    19.766533    32.686932   -82.537981    12.612127     22.30075    14.235163 
  148800    47.347834    134767.43            0    134951.75    12.673674    22.409476    13.262478    18.769438    33.177914   -83.074227    12.612127     22.30075    14.235163 
  149000    41.290992    134960.18            0    135120.92    12.668984    22.419408    13.257546    18.300229    34.171498   -83.567694    12.612127     22.30075    14.235163 
  149200    46.544392    135108.93            0    135290.12    12.677334    22.420898    13.250964    19.135567    34.320648    -84.22614    12.612127     22.30075    14.235163 
  149400    45.143499    135283.54            0    135459.28    12.689393     22.41407    13.244185    20.341967    33.637511   -84.904341    12.612127     22.30075    14.235163 
  149600    48.885746    135438.17            0    135628.48     12.69023     22.41319    13.239179    20.425703    33.549493   -85.405133    12.612127     22.30075    14.235163 
  149800    42.792508    135631.05            0    135797.64    12.678663    22.417661    13.236029    19.268566    33.996811   -85.720218    12.612127     22.30075    14.235163 
  150000    53.371146    135759.08            0    135966.85    12.676715    22.418723    13.233326    19.073651    34.102998   -85.990674    12.612127     22.30075    14.235163 
  150200    41.494306    135974.47            0    136136.01    12.683817    22.416096    13.231053    19.784216    33.840154   -86.218105    12.612127     22.30075    14.235163 
  150400    51.242358    136105.73            0    136305.22     12.68228     22.41132    13.227985    19.630405    33.362358   -86.525035    12.612127     22.30075    14.235163 
  150600    36.878068    136330.82            0    136474.38    12.680183    22.405923    13.224079    19.420616     32.82252   -86.915744    12.612127     22.30075    14.235163 
  150800    52.482404    136439.28            0    136643.59    12.688998    22.407156    13.221022    20.302497    32.945806   -87.221647    12.612127     22.30075    14.235163 
  151000    42.201123    136648.48            0    136812.77    12.699756    22.408078    13.219301    21.378767    33.038021   -87.393729    12.612127     22.30075    14.235163 
  151200     44.04235    136810.51            0    136981.97    12.700669    22.404781    13.218889    21.470095     32.70827   -87.435037    12.612127     22.30075    14.235163 
  151400    47.482153    136966.31            0    137151.15    12.686737    22.406322    13.218852    20.076332    32.862417   -87.438687    12.612127     22.30075    14.235163 
  151600    23.135853    137230.29            0    137320.36    12.673065    22.410488    13.218886    18.708532    33.279161   -87.435256    12.612127     22.30075    14.235163 
  151800    53.301061    137282.06            0    137489.56    12.678768    22.408531    13.218257    19.279018    33.083395   -87.498234    12.612127     22.30075    14.235163 
  152000    24.155586    137564.71            0    137658.74      12.6886    22.403829     13.21703    20.262625     32.61294   -87.620956    12.612127     22.30075    14.235163 
  152200    48.344558    137639.74            0    137827.94    12.687259    22.399926     13.21591    20.128486    32.222531   -87.732976    12.612127     22.30075    14.235163 
  152400    33.795614    137865.56            0    137997.12    12.681235    22.401382    13.216041    19.525841    32.368194   -87.719927    12.612127     22.30075    14.235163 
  152600    50.007558    137971.63            0    138166.31    12.682458    22.409774    13.216455     19.64822    33.207686   -87.678452    12.612127     22.30075    14.235163 
  152800    40.718973       138177            0    138335.51    12.688549    22.414221    13.216249    20.257608     33.65263   -87.699071    12.612127     22.30075    14.235163 
  153000    47.087279    138321.38            0    138504.69    12.690796    22.410891    13.216515    20.482385    33.319471   -87.672478    12.612127     22.30075    14.235163 
  153200    48.371002    138485.57            0    138673.88    12.688664    22.410888    13.216735    20.269054    33.319172   -87.650457    12.612127     22.30075    14.235163 
  153400    36.118508    138702.46            0    138843.07     12.68821    22.413533    13.215874    20.223615    33.583756   -87.736651    12.612127     22.30075    14.235163 
  153600    50.694262    138814.88            0    139012.23    12.692158    22.410525    13.213807    20.618641    33.282913   -87.943442    12.612127     22.30075    14.235163 
  153800    38.354569    139032.13            0    139181.44    12.690057    22.405881    13.213387     20.40847    32.818297   -87.985438    12.612127     22.30075    14.235163 
  154000    52.933172    139144.53            0    139350.59    12.681001    22.408858    13.214858    19.502482    33.116102    -87.83822    12.612127     22.30075    14.235163 
  154200    50.031304    139325.03            0     139519.8        12.68    22.414113    13.216641    19.402296    33.641855   -87.659833    12.612127     22.30075    14.235163 
  154400    41.758741     139526.4            0    139688.97    12.687126    22.418082    13.219156    20.115232    34.038891    -87.40823    12.612127     22.30075    14.235163 
  154600    50.010372    139663.47            0    139858.16    12.686953    22.412259    13.220457    20.097923    33.456363   -87.278141    12.612127     22.30075    14.235163 
  154800     34.05273    139894.77            0    140027.33     12.67859    22.406194    13.220191    19.261238    32.849544   -87.304754    12.612127     22.30075    14.235163 
  155000    49.699767    140003.04            0    140196.52    12.675603    22.411643    13.221327    18.962409    33.394748   -87.191044    12.612127     22.30075    14.235163 
  155200     44.96348    140190.67            0    140365.71    12.677531    22.416478    13.224381    19.155348    33.878374   -86.885545    12.612127     22.30075    14.235163 
  155400    52.581967    140330.17            0    140534.87    12.687239    22.410652    13.229896    20.126525    33.295594   -86.333823    12.612127     22.30075    14.235163 
  155600    52.233207    140500.72            0    140704.06    12.689531    22.402722    13.234238    20.355816    32.502264   -85.899443    12.612127     22.30075    14.235163 
  155800    34.191551    140740.14            0    140873.25    12.684827    22.398207    13.236972    19.885204    32.050561   -85.625937    12.612127     22.30075    14.235163 
  156000    54.313189    140830.98            0    141042.42    12.680829    22.404324    13.239072    19.485218    32.662509   -85.415814    12.612127     22.30075    14.235163 
  156200    40.614069    141053.49            0     141211.6    12.681171    22.409483    13.239884    19.519411    33.178643   -85.334591    12.612127     22.30075    14.235163 
  156400    46.996342    141197.81            0    141380.77    12.684276    22.406784    13.241483    19.830093    32.908637   -85.174591    12.612127     22.30075    14.235163 
  156600    51.422645    141349.75            0    141549.94    12.684117    22.409167    13.244634    19.814141    33.146964   -84.859421    12.612127     22.30075    14.235163 
  156800    38.681372    141568.54            0    141719.12    12.682097     22.41318    13.247239     19.61211    33.548448   -84.598772    12.612127     22.30075    14.235163 
  157000    46.474036    141707.38            0     141888.3     12.68304    22.413127    13.248323    19.706447    33.543131   -84.490381    12.612127     22.30075    14.235163 
  157200    51.226096    141858.08            0     142057.5    12.680642    22.408999    13.249084    19.466559    33.130208   -84.414238    12.612127     22.30075    14.235163 
  157400    38.357489    142077.33            0    142226.66     12.68049    22.404712    13.250121     19.45129    32.701324    -84.31045    12.612127     22.30075    14.235163 
  157600     48.04845    142208.79            0    142395.84    12.684293    22.409387    13.252488    19.831818    33.169033   -84.073715    12.612127     22.30075    14.235163 
  157800    35.901287    142425.27            0    142565.03    12.684629     22.41247    13.254181    19.865404    33.477409   -83.904288    12.612127     22.30075    14.235163 
  158000    47.378841    142549.75            0    142734.19    12.684613    22.406685    13.257343    19.863786     32.89873   -83.587974    12.612127     22.30075    14.235163 
  158200    42.112769    142739.46            0    142903.41    12.684795     22.40367    13.260227    19.881989    32.597069   -83.299451    12.612127     22.30075    14.235163 
  158400    42.041957    142908.91            0    143072.58      12.6815    22.407712    13.261312    19.552372    33.001493   -83.190942    12.612127     22.30075    14.235163 
  158600    47.509216    143056.85            0     143241.8    12.675192     22.41235    13.263199    18.921328    33.465477   -83.002156    12.612127     22.30075    14.235163 
  158800    52.063535    143208.28            0    143410.96    12.674324    22.412926    13.265584    18.834458    33.523018    -82.76349    12.612127     22.30075    14.235163 
  159000     51.98653    143377.78            0    143580.16    12.675437    22.415339    13.267639    18.945774    33.764428   -82.557959    12.612127     22.30075    14.235163 
  159200     41.99393    143585.85            0    143749.33    12.675562    22.416016    13.269884    18.958334    33.832214   -82.333313    12.612127     22.30075    14.235163 
  159400    48.066892     143731.4            0    143918.53    12.673452    22.410767     13.27203    18.747197    33.307072   -82.118634    12.612127     22.30075    14.235163 
  159600    29.743057    143971.92            0    144087.71    12.677994     22.40443    13.273169     19.20164    32.673154   -82.004689    12.612127     22.30075    14.235163 
  159800    52.985416    144050.64            0    144256.91    12.688379    22.405404    13.273522    20.240596    32.770532   -81.969397    12.612127     22.30075    14.235163 
  160000    23.756901    144333.64            0    144426.13    12.692058    22.410998    13.273912     20.60863    33.330205   -81.930422    12.612127     22.30075    14.235163 
  160200    52.962679    144389.13            0    144595.31    12.683317    22.409203    13.273503    19.734166    33.150617   -81.971335    12.612127     22.30075    14.235163 
  160400    29.922775    144648.05            0    144764.54    12.679165    22.408668    13.272794    19.318725    33.097118   -82.042213    12.612127     22.30075    14.235163 
  160600    51.167748     144734.5            0    144933.69    12.685472    22.415135    13.271797    19.949762    33.744037   -82.141993    12.612127     22.30075    14.235163 
  160800    53.028398    144896.47            0    145102.91    12.688998    22.413594    13.271657    20.302512     33.58992   -82.155964    12.612127     22.30075    14.235163 
  161000    48.030944    145085.09            0    145272.07    12.685191    22.405257    13.271429    19.921622    32.755825   -82.178739    12.612127     22.30075    14.235163 
  161200    45.669469    145263.52            0    145441.31    12.681173    22.409875    13.270311     19.51963    33.217868   -82.290647    12.612127     22.30075    14.235163 
  161400    37.592957    145464.14            0    145610.49    12.683285    22.422168    13.267793    19.730907    34.447697   -82.542569    12.612127     22.30075    14.235163 
  161600    49.079328    145588.62            0    145779.69    12.688295     22.42124    13.264606    20.232112    34.354842   -82.861415    12.612127     22.30075    14.235163 
  161800    38.496519    145798.98            0    145948.85    12.686378    22.411412    13.260872    20.040422    33.371637    -83.23496    12.612127     22.30075    14.235163 
  162000    49.812169    145924.14            0    146118.05     12.68281    22.415888    13.257994     19.68345    33.819417   -83.522871    12.612127     22.30075    14.235163 
  162200    38.989061    146135.43            0    146287.21    12.681929    22.425423    13.253697     19.59524    34.773283   -83.952695    12.612127     22.30075    14.235163 
  162400    53.763124    146247.11            0     146456.4    12.684097    22.419259    13.249673    19.812215    34.156641   -84.355289    12.612127     22.30075    14.235163 
  162600    47.069556    146442.31            0    146625.54    12.687881    22.405013    13.246165    20.190693    32.731413   -84.706214    12.612127     22.30075    14.235163 
  162800    48.745054       146605            0    146794.76    12.687598    22.401892    13.241974    20.162457    32.419222    -85.12553    12.612127     22.30075    14.235163 
  163000     51.61653    146762.97            0    146963.91    12.683492    22.407475    13.236397    19.751666      32.9777   -85.683478    12.612127     22.30075    14.235163 
  163200     46.67873    146951.37            0    147133.08    12.685291    22.414556    13.232516    19.931632    33.686115   -86.071749    12.612127     22.30075    14.235163 
  163400     53.25586    147094.92            0    147302.24    12.685615    22.414749    13.227685    19.964093    33.705466   -86.555044    12.612127     22.30075    14.235163 
  163600    47.915567    147284.87            0    147471.41    12.684547    22.408476    13.222939    19.857183     33.07789    -87.02986    12.612127     22.30075    14.235163 
  163800     50.86257    147442.56            0    147640.56    12.686836    22.403158    13.219384    20.086179    32.545816   -87.385492    12.612127     22.30075    14.235163 
  164000      52.7787    147604.28            0    147809.74    12.688987    22.404057    13.216487    20.301387    32.635779   -87.675275    12.612127     22.30075    14.235163 
  164200    43.977129    147807.73            0    147978.93    12.685369    22.406379    13.213004    19.939404    32.868104   -88.023757    12.612127     22.30075    14.235163 
  164400    53.208865    147940.96            0     148148.1    12.683442    22.404647    13.208522    19.746653    32.694868    -88.47215    12.612127     22.30075    14.235163 
  164600    43.328668     148148.6            0    148317.27    12.686193    22.406251    13.205181    20.021876    32.855266   -88.806316    12.612127     22.30075    14.235163 
  164800    48.257769    148298.59            0    148486.46      12.6877    22.412983    13.202118    20.172603    33.528808   -89.112762    12.612127     22.30075    14.235163 
  165000    44.766904    148481.37            0    148655.65     12.68517    22.416645    13.200425    19.919522    33.895146   -89.282171    12.612127     22.30075    14.235163 
  165200    48.814627    148634.78            0    148824.81    12.681238      22.4171    13.201488    19.526199    33.940643   -89.175781    12.612127     22.30075    14.235163 
  165400    46.833244    148811.67            0    148993.99    12.681102    22.413401    13.204467    19.512587     33.57061   -88.877827    12.612127     22.30075    14.235163 
  165600    49.732554    148969.54            0    149163.15    12.685173    22.408146    13.207023     19.91979    33.044876   -88.622079    12.612127     22.30075    14.235163 
  165800    48.885339    149142.02            0    149332.33    12.686511    22.407605    13.209192    20.053634    32.990718   -88.405135    12.612127     22.30075    14.235163 
  166000    50.726429    149304.02            0    149501.49    12.681184    22.412447    13.211157    19.520801    33.475121   -88.208541    12.612127     22.30075    14.235163 
  166200    40.205487    149514.18            0     149670.7    12.681751    22.417835    13.214371    19.577511    34.014196   -87.886974    12.612127     22.30075    14.235163 
  166400     53.50682    149631.57            0    149839.86    12.684149    22.421295    13.217132    19.817418    34.360325   -87.610795    12.612127     22.30075    14.235163 
  166600    54.034151    149798.69            0    150009.04    12.683666     22.41637    13.218533    19.769108    33.867581    -87.47057    12.612127     22.30075    14.235163 
  166800    43.554275    150008.64            0     150178.2    12.681264    22.406306    13.219526    19.528713    32.860773   -87.371267    12.612127     22.30075    14.235163 
  167000    52.972443    150141.17            0    150347.39    12.680092    22.401941    13.222404    19.411523    32.424084   -87.083373    12.612127     22.30075    14.235163 
  167200    49.499984    150323.85            0    150516.55     12.68141     22.40529    13.225247    19.543402    32.759131   -86.798914    12.612127     22.30075    14.235163 
  167400    50.137028    150490.58            0    150685.76    12.680907    22.406299    13.230066    19.493089    32.860117   -86.316863    12.612127     22.30075    14.235163 
  167600    53.617337    150646.18            0    150854.91    12.682868    22.407356    13.236979    19.689207    32.965799   -85.625274    12.612127     22.30075    14.235163 
  167800    46.241409    150844.07            0    151024.09    12.689419    22.409772      13.2452    20.344607    33.207524   -84.802809    12.612127     22.30075    14.235163 
  168000    48.697517    151003.67            0    151193.25    12.693785    22.410555    13.254985    20.781415    33.285906   -83.823824    12.612127     22.30075    14.235163 
  168200    40.503949    151204.75            0    151362.43    12.692126    22.405331    13.266136    20.615462    32.763199   -82.708265    12.612127     22.30075    14.235163 
  168400     51.68083    151330.44            0    151531.63     12.68717     22.40412    13.275148    20.119584    32.642119   -81.806747    12.612127     22.30075    14.235163 
  168600    35.463981    151562.74            0     151700.8    12.682536    22.404585     13.28209    19.656043    32.688597   -81.112256    12.612127     22.30075    14.235163 
  168800    47.371793    151685.58            0    151869.99    12.681602    22.406995    13.288168    19.562615    32.929741   -80.504176    12.612127     22.30075    14.235163 
  169000    50.708443    151841.74            0    152039.15    12.680572    22.411436    13.292854    19.459532    33.373966   -80.035341    12.612127     22.30075    14.235163 
  169200    45.930869    152029.53            0    152208.34     12.68112    22.413754    13.297188     19.51439    33.605904   -79.601775    12.612127     22.30075    14.235163 
  169400    53.439092    152169.48            0    152377.51    12.680257    22.412363    13.299341     19.42802    33.466726   -79.386372    12.612127     22.30075    14.235163 
  169600    52.026265    152344.14            0    152546.68     12.68278    22.413418    13.303587    19.680379    33.572272   -78.961591    12.612127     22.30075    14.235163 
  169800    35.566371     152577.4            0    152715.86    12.688207     22.40911    13.309932    20.223338    33.141356   -78.326812    12.612127     22.30075    14.235163 
  170000    52.771416     152679.6            0    152885.03    12.685829    22.406627    13.317233    19.985462    32.892928   -77.596491    12.612127     22.30075    14.235163 
  170200    38.564024    152904.08            0     153054.2      12.6827    22.406417    13.325595    19.672382    32.871888   -76.759931    12.612127     22.30075    14.235163 
  170400    50.934131     153025.1            0    153223.38    12.680337    22.410942    13.332811    19.436068    33.324565   -76.038041    12.612127     22.30075    14.235163 
  170600    40.470567    153235.01            0    153392.56    12.683866    22.417628    13.339445    19.789076    33.993422     -75.3743    12.612127     22.30075    14.235163 
  170800    46.706276     153379.9            0    153561.73    12.690064    22.421212    13.345517    20.409091    34.352033   -74.766874    12.612127     22.30075    14.235163 
  171000    51.578753    153530.12            0    153730.92    12.688286    22.417241     13.35047    20.231268    33.954707    -74.27133    12.612127     22.30075    14.235163 
  171200    43.294008    153731.53            0    153900.07    12.685034    22.406972    13.356436    19.905933    32.927373   -73.674525    12.612127     22.30075    14.235163 
  171400    49.244163    153877.55            0    154069.25    12.683193    22.396382    13.362965     19.72174     31.86794   -73.021294    12.612127     22.30075    14.235163 
  171600    42.886239    154071.47            0    154238.42    12.681805    22.396477    13.366919    19.582923    31.877515   -72.625794    12.612127     22.30075    14.235163 
  171800    48.765975    154217.76            0    154407.61    12.677331    22.405851    13.368586    19.135246    32.815302   -72.459019    12.612127     22.30075    14.235163 
  172000    35.624166     154438.1            0    154576.79    12.676894    22.417639    13.368698    19.091598    33.994542    -72.44781    12.612127     22.30075    14.235163 
  172200    49.088723    154554.86            0    154745.96    12.683393    22.414703    13.366355    19.741722    33.700842   -72.682144    12.612127     22.30075    14.235163 
  172400    42.132433    154751.12            0    154915.14    12.686771    22.407251       13.364    20.079734     32.95531   -72.917804    12.612127     22.30075    14.235163 
  172600    50.648823    154887.12            0    155084.29    12.692889    22.407263    13.363665    20.691712    32.956526   -72.951316    12.612127     22.30075    14.235163 
  172800    48.051336    155066.42            0    155253.48    12.694637    22.412863    13.363905    20.866621    33.516783   -72.927343    12.612127     22.30075    14.235163 
  173000    50.069493    155227.72            0    155422.64    12.692007    22.414733    13.362916    20.603522    33.703852   -73.026265    12.612127     22.30075    14.235163 
  173200    43.319379    155423.19            0    155591.83    12.689243    22.413264    13.361491    20.326958    33.556913   -73.168793    12.612127     22.30075    14.235163 
  173400    48.110423    155573.71            0       155761    12.686147    22.411678    13.362063    20.017236    33.398197   -73.111541    12.612127     22.30075    14.235163 
  173600    52.083012    155727.42            0    155930.18    12.684309    22.408415    13.361402    19.833345    33.071769   -73.177735    12.612127     22.30075    14.235163 
  173800    40.536202    155941.56            0    156099.37      12.6758    22.406777    13.359688    18.982098    32.907868   -73.349153    12.612127     22.30075    14.235163 
  174000    38.534513    156118.55            0    156268.56    12.677279    22.407725    13.357825    19.130079    33.002726   -73.535561    12.612127     22.30075    14.235163 
  174200    43.405892    156268.77            0    156437.75    12.682616    22.405723    13.353657    19.663979     32.80251   -73.952541    12.612127     22.30075    14.235163 
  174400    34.242427    156473.64            0    156606.94    12.681739    22.402701    13.349173    19.576256     32.50018   -74.401129    12.612127     22.30075    14.235163 
  174600    47.210347    156592.34            0    156776.13       12.676    22.404506    13.344758    19.002099    32.680737   -74.842763    12.612127     22.30075    14.235163 
  174800    43.633467    156775.43            0    156945.29    12.677178    22.406105    13.339477    19.119972    32.840674   -75.371106    12.612127     22.30075    14.235163 
  175000    52.772248    156909.05            0    157114.49    12.683397    22.407329    13.332161    19.742102    32.963124   -76.102986    12.612127     22.30075    14.235163 
  175200    50.871324    157085.62            0    157283.66    12.687055    22.408878    13.323778    20.108084    33.118052   -76.941664    12.612127     22.30075    14.235163 
  175400    48.871455    157262.57            0    157452.83    12.683956    22.414177    13.315875     19.79803    33.648196   -77.732304    12.612127     22.30075    14.235163 
  175600    47.326756    157437.76            0       157622    12.680597    22.415353    13.310508    19.462031    33.765847   -78.269252    12.612127     22.30075    14.235163 
  175800    38.015659    157643.18            0    157791.17     12.68095    22.416166    13.306858    19.497335    33.847214   -78.634354    12.612127     22.30075    14.235163 
  176000    54.111519    157749.69            0    157960.34    12.683802    22.415302    13.302874    19.782673    33.760774   -79.032952    12.612127     22.30075    14.235163 
  176200    38.462321    157979.79            0    158129.53    12.687234    22.413909    13.299908    20.125971    33.621421   -79.329676    12.612127     22.30075    14.235163 
  176400    43.626702    158128.86            0    158298.69      12.6852    22.414082    13.297145    19.922501    33.638687   -79.606105    12.612127     22.30075    14.235163 
  176600     44.20614    158295.78            0    158467.88     12.67881    22.416119     13.29587    19.283294    33.842549   -79.733627    12.612127     22.30075    14.235163 
  176800     45.19294    158461.12            0    158637.06     12.67926    22.416232    13.295645    19.328325     33.85379   -79.756154    12.612127     22.30075    14.235163 
  177000     54.38458    158594.51            0    158806.23    12.682992     22.41652    13.295423    19.701584     33.88259   -79.778343    12.612127     22.30075    14.235163 
  177200    31.435731    158853.03            0    158975.41     12.68474    22.414351    13.295198    19.876519    33.665656   -79.800931    12.612127     22.30075    14.235163 
  177400     52.68016    158939.51            0    159144.59    12.679168     22.41108    13.293238    19.319072     33.33839   -79.996923    12.612127     22.30075    14.235163 
  177600    41.989764    159150.32            0    159313.78    12.677392    22.409857    13.289975    19.141362    33.215988   -80.323438    12.612127     22.30075    14.235163 
  177800    53.654014    159274.07            0    159482.94    12.685177    22.408266    13.283988    19.920177    33.056883   -80.922367    12.612127     22.30075    14.235163 
  178000    41.937098    159488.88            0    159652.14    12.688709    22.406715     13.27682    20.273609    32.901693   -81.639431    12.612127     22.30075    14.235163 
  178200    45.617785    159643.72            0     159821.3    12.680123    22.412477    13.271779    19.414645    33.478148    -82.14381    12.612127     22.30075    14.235163 
  178400     47.86277    159804.17            0     159990.5    12.678695    22.413603    13.268281    19.271797    33.590808   -82.493683    12.612127     22.30075    14.235163 
  178600    40.745728    160001.03            0    160159.65    12.684299    22.407738    13.264258    19.832406    33.004088   -82.896132    12.612127     22.30075    14.235163 
  178800    47.131037    160145.35            0    160328.83    12.683972    22.407345     13.26118    19.799717    32.964742   -83.204156    12.612127     22.30075    14.235163 
  179000    39.161959    160345.55            0    160498.01     12.68424    22.412937    13.256971    19.826496    33.524149   -83.625206    12.612127     22.30075    14.235163 
  179200    54.028099    160456.84            0    160667.17     12.68626    22.412166    13.250912    20.028549    33.447003   -84.231356    12.612127     22.30075    14.235163 
  179400    37.050758    160692.12            0    160836.35    12.681332    22.410908    13.245129    19.535608    33.321169   -84.809839    12.612127     22.30075    14.235163 
  179600    50.753238    160807.94            0    161005.52    12.670011    22.412235    13.240515    18.402974    33.453901   -85.271467    12.612127     22.30075    14.235163 
  179800    50.959913    160976.32            0     161174.7    12.669464    22.408812    13.237061    18.348307    33.111515   -85.617023    12.612127     22.30075    14.235163 
  180000     47.02492    161160.81            0    161343.87    12.681542    22.402736    13.233897    19.556539    32.503658   -85.933535    12.612127     22.30075    14.235163 
  180200    47.090008    161329.74            0    161513.06    12.688036    22.405171    13.231622    20.206225    32.747241   -86.161182    12.612127     22.30075    14.235163 
  180400    50.082548    161487.25            0    161682.22    12.684686    22.410463    13.230484    19.871105    33.276673   -86.274996    12.612127     22.30075    14.235163 
  180600    55.095778    161636.94            0    161851.43    12.681733    22.413179    13.227619    19.575649    33.548406   -86.561592    12.612127     22.30075    14.235163 
  180800    50.786128    161822.88            0    162020.58    12.684708    22.410244    13.223271    19.873319     33.25477   -86.996581    12.612127     22.30075    14.235163 
  181000     51.01267    161991.19            0    162189.78    12.686844    22.408034    13.217784    20.086978    33.033664    -87.54556    12.612127     22.30075    14.235163 
  181200    49.079126    162167.87            0    162358.93    12.686824    22.410723    13.211925    20.085023    33.302705   -88.131642    12.612127     22.30075    14.235163 
  181400    49.355165    162335.99            0    162528.12    12.687494    22.412389    13.205916    20.152065    33.469332   -88.732801    12.612127     22.30075    14.235163 
  181600    51.252009    162497.76            0    162697.28    12.686208    22.411374    13.200853    20.023416     33.36785   -89.239303    12.612127     22.30075    14.235163 
  181800    43.229476    162698.16            0    162866.45    12.682268    22.404505    13.196202    19.629235     32.68058   -89.704674    12.612127     22.30075    14.235163 
  182000      43.2272    162867.39            0    163035.67    12.682726    22.405178    13.190955    19.674998    32.747944   -90.229528    12.612127     22.30075    14.235163 
  182200    44.805815    163030.41            0    163204.83    12.684027    22.413905    13.185067     19.80515    33.620968   -90.818658    12.612127     22.30075    14.235163 
  182400    44.110791    163202.31            0    163374.03    12.683221    22.420566    13.177511    19.724504    34.287434   -91.574483    12.612127     22.30075    14.235163 
  182600    50.999918    163344.66            0     163543.2    12.687626      22.4164    13.167732    20.165265    33.870589   -92.552849    12.612127     22.30075    14.235163 
  182800    55.160723    163497.63            0    163712.36    12.689316    22.409734    13.157826    20.334347    33.203685   -93.543861    12.612127     22.30075    14.235163 
  183000    43.962257     163710.4            0    163881.54    12.683126    22.405255    13.149232    19.715048    32.755681   -94.403601    12.612127     22.30075    14.235163 
  183200     54.65013    163837.96            0    164050.71    12.680032    22.409002    13.143104    19.405471    33.130493   -95.016664    12.612127     22.30075    14.235163 
  183400    37.556405    164073.67            0    164219.87    12.678093    22.412251    13.137506    19.211499    33.455503    -95.57669    12.612127     22.30075    14.235163 
  183600    50.693516    164191.72            0    164389.07    12.671288    22.416557    13.134472    18.530751    33.886336   -95.880243    12.612127     22.30075    14.235163 
  183800    50.742493    164360.69            0    164558.23    12.672273    22.419994    13.131575    18.629246    34.230135   -96.170014    12.612127     22.30075    14.235163 
  184000    47.410279    164542.86            0    164727.42    12.681318     22.41335    13.127419    19.534117    33.565529   -96.585793    12.612127     22.30075    14.235163 
  184200    46.372434    164716.07            0     164896.6    12.687358    22.405187    13.122858    20.138428    32.748827    -97.04215    12.612127     22.30075    14.235163 
  184400    40.452105    164908.31            0    165065.78    12.682795    22.405533    13.118767    19.681917     32.78348   -97.451403    12.612127     22.30075    14.235163 
  184600    43.154496    165066.96            0    165234.96    12.675178    22.412152    13.118552    18.919882    33.445609   -97.472883    12.612127     22.30075    14.235163 
  184800    37.291239    165258.97            0    165404.14     12.67622    22.417435    13.121046    19.024168    33.974135   -97.223357    12.612127     22.30075    14.235163 
  185000    40.274458    165416.54            0    165573.33    12.680352    22.414676    13.126195    19.437565    33.698106    -96.70827    12.612127     22.30075    14.235163 
  185200    48.354612    165554.24            0    165742.49    12.679996    22.404637    13.130897    19.401931    32.693799   -96.237931    12.612127     22.30075    14.235163 
  185400    44.590268    165738.09            0    165911.67     12.68408    22.402136    13.135947    19.810431     32.44359   -95.732707    12.612127     22.30075    14.235163 
  185600    47.408218    165896.28            0    166080.83    12.693551    22.407345    13.141251    20.757987    32.964762    -95.20204    12.612127     22.30075    14.235163 
  185800     47.44435    166065.31            0    166250.01    12.690828    22.414491    13.145433    20.485534    33.679669   -94.783667    12.612127     22.30075    14.235163 
  186000    46.643519    166237.59            0    166419.17    12.679378    22.416526    13.149683    19.340058    33.883266    -94.35847    12.612127     22.30075    14.235163 
  186200    48.804002    166398.37            0    166588.36    12.677699    22.410242    13.154205    19.172127    33.254556   -93.906149    12.612127     22.30075    14.235163 
  186400    45.037548     166582.2            0    166757.53    12.685225    22.405526    13.158278    19.925062    32.782737    -93.49862    12.612127     22.30075    14.235163 
  186600     44.31375    166754.22            0    166926.73    12.692656    22.406823    13.161916    20.668427    32.912541   -93.134635    12.612127     22.30075    14.235163 
  186800    55.293152    166880.63            0    167095.89    12.690252    22.410244    13.164766     20.42795     33.25476   -92.849543    12.612127     22.30075    14.235163 
  187000     50.58148    167068.15            0    167265.06    12.684539    22.410017    13.167187     19.85638    33.232092   -92.607348    12.612127     22.30075    14.235163 
  187200    50.517352    167237.57            0    167434.24    12.684447    22.407016    13.169507    19.847213    32.931818   -92.375239    12.612127     22.30075    14.235163 
  187400    50.628266    167406.33            0    167603.42     12.68931    22.405195    13.172231    20.333725    32.749652   -92.102747    12.612127     22.30075    14.235163 
  187600     38.46486    167622.85            0    167772.59    12.692193     22.40794    13.175693    20.622169    33.024248   -91.756394    12.612127     22.30075    14.235163 
  187800    50.309081    167745.93            0    167941.78    12.688645    22.406004    13.179468    20.267197    32.830543   -91.378715    12.612127     22.30075    14.235163 
  188000    43.354374    167942.16            0    168110.93    12.682746    22.408973    13.183299    19.677063    33.127642   -90.995478    12.612127     22.30075    14.235163 
  188200    43.146694    168112.15            0    168280.12    12.680242    22.413669    13.185259    19.426534    33.597413   -90.799449    12.612127     22.30075    14.235163 
  188400    54.352913    168237.67            0    168449.27    12.679488    22.407814    13.185733    19.351066    33.011637   -90.751992    12.612127     22.30075    14.235163 
  188600    40.760426    168459.77            0    168618.45    12.677833    22.401018    13.187635    19.185566    32.331752    -90.56173    12.612127     22.30075    14.235163 
  188800    49.984698    168593.03            0    168787.61     12.67897    22.402164    13.191543    19.299258    32.446459   -90.170739    12.612127     22.30075    14.235163 
  189000    46.893025    168774.24            0    168956.79    12.681803    22.410776    13.194367     19.58264    33.308015   -89.888223    12.612127     22.30075    14.235163 
  189200    50.263306     168930.3            0    169125.97    12.682206    22.421042    13.196253    19.622961    34.334964    -89.69958    12.612127     22.30075    14.235163 
  189400    40.078045    169139.13            0    169295.15    12.677212    22.425141     13.19757    19.123381     34.74512   -89.567828    12.612127     22.30075    14.235163 
  189600    44.674836     169290.4            0    169464.32    12.675267      22.4168    13.198087    18.928824     33.91063   -89.516098    12.612127     22.30075    14.235163 
  189800    47.045002    169450.34            0    169633.49    12.678536    22.407032    13.198681     19.25585    32.933411   -89.456611    12.612127     22.30075    14.235163 
  190000    50.076324     169607.7            0    169802.64    12.684042     22.40641    13.198998    19.806664    32.871179   -89.424907    12.612127     22.30075    14.235163 
  190200    53.421291    169763.85            0    169971.81    12.687702    22.413899    13.198453    20.172875    33.620395   -89.479493    12.612127     22.30075    14.235163 
  190400    49.213218    169949.38            0    170140.96    12.688731    22.422495    13.197914     20.27577    34.480395    -89.53336    12.612127     22.30075    14.235163 
  190600     47.29163    170126.03            0    170310.14    12.686514    22.422633    13.198289    20.054007    34.494164     -89.4959    12.612127     22.30075    14.235163 
  190800    50.216048     170283.8            0    170479.29    12.685609     22.41124    13.198624    19.963438    33.354387   -89.462338    12.612127     22.30075    14.235163 
  191000    47.970935    170461.72            0    170648.47    12.685415    22.402495    13.200026    19.944022    32.479556   -89.322121    12.612127     22.30075    14.235163 
  191200    45.866967    170639.07            0    170817.62     12.68729     22.40034    13.199994    20.131577    32.263984   -89.325261    12.612127     22.30075    14.235163 
  191400      47.3974    170802.28            0    170986.79    12.691779    22.400197    13.199771    20.580716    32.249641   -89.347564    12.612127     22.30075    14.235163 
  191600      54.7067    170942.99            0    171155.96    12.688445    22.404715    13.197717    20.247116    32.701665     -89.5531    12.612127     22.30075    14.235163 
  191800    48.352009    171136.89            0    171325.12    12.677418    22.412448    13.195897    19.144049     33.47521   -89.735122    12.612127     22.30075    14.235163 
  192000    53.017837    171287.92            0    171494.31    12.671806     22.41421    13.194674     18.58256    33.651529   -89.857488    12.612127     22.30075    14.235163 
  192200    44.258121     171491.2            0     171663.5    12.678141    22.407761    13.194772    19.216292    33.006351   -89.847679    12.612127     22.30075    14.235163 
  192400    49.615044    171639.52            0    171832.67    12.685391    22.406854    13.195799    19.941654    32.915618    -89.74491    12.612127     22.30075    14.235163 
  192600    53.338995    171794.19            0    172001.84    12.684694    22.413327    13.195934    19.871893    33.563212   -89.731445    12.612127     22.30075    14.235163 
  192800    53.401063    171963.11            0       172171    12.680035    22.417098    13.196441    19.405821    33.940399     -89.6807    12.612127     22.30075    14.235163 
  193000    51.462409    172139.82            0    172340.16    12.679501     22.41536    13.197877      19.3524    33.766533    -89.53703    12.612127     22.30075    14.235163 
  193200     53.03183    172302.87            0    172509.32    12.681683    22.410745    13.199274    19.570689    33.304868   -89.397307    12.612127     22.30075    14.235163 
  193400    54.201046    172467.49            0    172678.49    12.683564        22.41    13.201368    19.758882    33.230339   -89.187826    12.612127     22.30075    14.235163 
  193600    48.426941    172659.13            0    172847.66    12.684869    22.413278    13.204028    19.889455    33.558296   -88.921666    12.612127     22.30075    14.235163 
  193800    54.525621    172804.55            0    173016.82    12.685976    22.410309    13.205139    20.000171    33.261295   -88.810594    12.612127     22.30075    14.235163 
  194000    51.400627    172985.88            0    173185.98    12.687379    22.405251    13.205553    20.140537    32.755255   -88.769123    12.612127     22.30075    14.235163 
  194200    42.912653    173188.07            0    173355.13    12.690023    22.404666    13.206019    20.405063    32.696747   -88.722562    12.612127     22.30075    14.235163 
  194400    55.436156    173308.48            0    173524.29    12.695413     22.40827    13.207303    20.944266    33.057281   -88.594035    12.612127     22.30075    14.235163 
  194600    48.069874    173506.31            0    173693.44    12.696049    22.412335    13.208787    21.007931    33.463982    -88.44562    12.612127     22.30075    14.235163 
  194800    54.099935       173652            0    173862.61    12.685522    22.410533     13.21194    19.954731    33.283669   -88.130182    12.612127     22.30075    14.235163 
  195000    52.349932    173827.98            0    174031.77    12.676126    22.406476    13.215272     19.01479    32.877815   -87.796822    12.612127     22.30075    14.235163 
  195200     55.41939    173985.19            0    174200.94    12.676174    22.405838     13.21989    19.019559    32.813997   -87.334799    12.612127     22.30075    14.235163 
  195400    44.747774    174195.89            0    174370.09    12.680571    22.409774    13.224421     19.45948    33.207745    -86.88156    12.612127     22.30075    14.235163 
  195600    51.898427    174337.22            0    174539.26     12.68033    22.408029    13.226497    19.435274    33.033114   -86.673853    12.612127     22.30075    14.235163 
  195800    46.980439    174525.52            0    174708.41    12.677043    22.407748     13.22618    19.106487    33.005087   -86.705549    12.612127     22.30075    14.235163 
  196000    51.353316    174677.68            0     174877.6    12.676751    22.410651    13.225507    19.077242    33.295432   -86.772878    12.612127     22.30075    14.235163 
  196200    54.399555    174834.97            0    175046.74    12.680155    22.415358    13.224604    19.417794    33.766387   -86.863258    12.612127     22.30075    14.235163 
  196400    49.296077    175024.02            0    175215.92     12.67953    22.414546    13.224242    19.355244    33.685113   -86.899446    12.612127     22.30075    14.235163 
  196600    47.326119    175200.83            0    175385.07    12.680074    22.405919    13.222853    19.409734    32.822113    -87.03844    12.612127     22.30075    14.235163 
  196800    47.186548    175370.56            0    175554.26    12.685243    22.405914    13.218963    19.926781    32.821617   -87.427542    12.612127     22.30075    14.235163 
  197000    42.545627    175557.79            0    175723.42    12.687769    22.415384    13.215366    20.179579    33.768936   -87.787446    12.612127     22.30075    14.235163 
  197200    51.759454     175691.1            0     175892.6    12.684582    22.417887    13.211066    19.860718    34.019367    -88.21757    12.612127     22.30075    14.235163 
  197400    45.597308    175884.25            0    176061.76    12.683588    22.416452     13.20627    19.761276    33.875863   -88.697431    12.612127     22.30075    14.235163 
  197600    48.077696    176043.77            0    176230.94    12.684745    22.415598    13.202177    19.877006    33.790365   -89.106866    12.612127     22.30075    14.235163 
  197800    37.860304    176252.74            0    176400.13    12.682999    22.413648    13.198469    19.702324    33.595268   -89.477878    12.612127     22.30075    14.235163 
  198000     43.97747    176398.09            0    176569.29    12.680969    22.406606    13.196436    19.499223    32.890757   -89.681212    12.612127     22.30075    14.235163 
  198200    42.422293    176573.34            0    176738.48    12.677084     22.40626    13.195004    19.110573    32.856178   -89.824494    12.612127     22.30075    14.235163 
  198400    44.367256    176734.95            0    176907.67    12.676528    22.409497    13.190944    19.054923    33.180063   -90.230668    12.612127     22.30075    14.235163 
  198600    48.853085    176886.65            0    177076.83    12.681938     22.41003    13.185958    19.596188    33.233353   -90.729447    12.612127     22.30075    14.235163 
  198800    48.576591     177056.9            0    177246.01    12.685053    22.411215    13.182352    19.907834    33.351867   -91.090177    12.612127     22.30075    14.235163 
  199000    47.851435    177228.88            0    177415.16    12.684811    22.413337    13.178767    19.883651    33.564186   -91.448889    12.612127     22.30075    14.235163 
  199200    49.148516    177393.02            0    177584.36    12.682539    22.408681    13.176922    19.656304    33.098377   -91.633499    12.612127     22.30075    14.235163 
  199400    41.828929    177590.69            0    177753.53    12.685924    22.404266    13.175739    19.994926    32.656677   -91.751824    12.612127     22.30075    14.235163 
  199600    52.862997    177716.93            0    177922.72    12.684192    22.408376    13.174336     19.82172    33.067841   -91.892198    12.612127     22.30075    14.235163 
  199800    44.199131    177919.83            0     178091.9    12.681427    22.415109    13.174643    19.545107     33.74146   -91.861406    12.612127     22.30075    14.235163 
  200000    47.282633    178076.99            0    178261.06    12.682197    22.417941       13.178     19.62212    34.024755   -91.525624    12.612127     22.30075    14.235163 
Loop time of 292.017 on 1 procs for 200000 steps with 1307 atoms

Performance: 29.587 ns/day, 0.811 hours/ns, 684.892 timesteps/s
100.0% CPU use with 1 MPI tasks x no OpenMP threads

MPI task timing breakdown:
Section |  min time  |  avg time  |  max time  |%varavg| %total
---------------------------------------------------------------
Pair    | 274.48     | 274.48     | 274.48     |   0.0 | 94.00
Bond    | 0.018955   | 0.018955   | 0.018955   |   0.0 |  0.01
Neigh   | 14.274     | 14.274     | 14.274     |   0.0 |  4.89
Comm    | 1.4353     | 1.4353     | 1.4353     |   0.0 |  0.49
Output  | 0.052681   | 0.052681   | 0.052681   |   0.0 |  0.02
Modify  | 0.91682    | 0.91682    | 0.91682    |   0.0 |  0.31
Other   |            | 0.8352     |            |       |  0.29

Nlocal:    1307 ave 1307 max 1307 min
Histogram: 1 0 0 0 0 0 0 0 0 0
Nghost:    2724 ave 2724 max 2724 min
Histogram: 1 0 0 0 0 0 0 0 0 0
Neighs:    53225 ave 53225 max 53225 min
Histogram: 1 0 0 0 0 0 0 0 0 0

Total # of neighbors = 53225
Ave neighs/atom = 40.723
Ave special neighs/atom = 0
Neighbor list builds = 4848
Dangerous builds = 0
unfix              2
write_data         data_overlap.data

# reset force field parameters
# Set 1-2, 1-3, and 1-4 pairwise interactions to zero; not needed if no bonded terms
#special_bonds      lj/coul 0.0 0.0 0.0
kspace_style       pppm/disp 1.0e-6
neigh_modify       delay 0 every 1 check yes
include "MgMOF74-Pressure50000.in.settings"
# UFF parameters for all atoms not defined by force field
pair_style         hybrid lj/long/coul/long cut long 12.8 buck/long/coul/long cut long 12.8
pair_modify        mix arithmetic shift yes
pair_coeff         7 7 lj/long/coul/long 0.111 2.691
pair_coeff         2 2 lj/long/coul/long 0.105 3.431
pair_coeff         3 3 lj/long/coul/long 0.105 3.431
pair_coeff         4 4 lj/long/coul/long 0.105 3.431
pair_coeff         5 5 lj/long/coul/long 0.105 3.431
pair_coeff         6 6 lj/long/coul/long 0.044 2.571
pair_coeff         8 8 lj/long/coul/long 0.060 3.118
pair_coeff         9 9 lj/long/coul/long 0.060 3.118
pair_coeff         10 10 lj/long/coul/long 0.060 3.118
pair_coeff         1 1 lj/long/coul/long 0.294 3.730
# Lennard-Jones parameters from force field
pair_coeff         1 6 lj/long/coul/long 0.114 3.15
# Buckingham parameters from force field
pair_coeff         1 7 buck/long/coul/long 503735.46 4.915 869.75957
pair_coeff         1 8 buck/long/coul/long 36618.413 2.965 943.43844
pair_coeff         1 9 buck/long/coul/long 40336.705 3.265 943.43844
pair_coeff         1 10 buck/long/coul/long 20010.424 2.790 943.43844
pair_coeff         1 2 buck/long/coul/long 151480.54 3.995 1627.7890
pair_coeff         1 3 buck/long/coul/long 70571.228 3.280 1627.7890
pair_coeff         1 4 buck/long/coul/long 460219.42 4.370 1627.7890
pair_coeff         1 5 buck/long/coul/long 5085.8640 2.315 1627.7890

# melt crystalline guest molecules
unfix              1
run                0
WARNING: No fixes defined, atoms won't move (../verlet.cpp:55)
PPPMDisp initialization ...
  Coulomb G vector (1/distance) = 0.264777
  Coulomb grid = 30 50 30
  Coulomb stencil order = 5
  Coulomb estimated absolute RMS force accuracy = 0.000346238
  Coulomb estimated relative force accuracy = 1.04269e-06
  using double precision FFTs
  3d grid and FFT values/proc = 78033 45000
Neighbor list info ...
  3 neighbor list requests
  update every 1 steps, delay 0 steps, check yes
  max neighbors/atom: 2000, page size: 100000
  master list distance cutoff = 14.8
  ghost atom cutoff = 14.8
  binsize = 7.4 -> bins = 4 7 4
Memory usage per processor = 12.3689 Mbytes
Step Temp E_pair E_mol TotEng comT[1] comT[2] comT[3] comG[1] comG[2] comG[3] comM[1] comM[2] comM[3] 
  200000    47.282633     61750937            0     61751121    12.682197    22.417941       13.178     19.62212    34.024755   -91.525624    12.612127     22.30075    14.235163 
Loop time of 0 on 1 procs for 0 steps with 1307 atoms

0.0% CPU use with 1 MPI tasks x no OpenMP threads

MPI task timing breakdown:
Section |  min time  |  avg time  |  max time  |%varavg| %total
---------------------------------------------------------------
Pair    | 0          | 0          | 0          |   0.0 |  0.00
Bond    | 0          | 0          | 0          |   0.0 |  0.00
Kspace  | 0          | 0          | 0          |   0.0 |  0.00
Neigh   | 0          | 0          | 0          |   0.0 |  0.00
Comm    | 0          | 0          | 0          |   0.0 |  0.00
Output  | 0          | 0          | 0          |   0.0 |  0.00
Modify  | 0          | 0          | 0          |   0.0 |  0.00
Other   |            | 0          |            |       |  0.00

Nlocal:    1307 ave 1307 max 1307 min
Histogram: 1 0 0 0 0 0 0 0 0 0
Nghost:    7911 ave 7911 max 7911 min
Histogram: 1 0 0 0 0 0 0 0 0 0
Neighs:    490957 ave 490957 max 490957 min
Histogram: 1 0 0 0 0 0 0 0 0 0

Total # of neighbors = 490957
Ave neighs/atom = 375.637
Ave special neighs/atom = 0
Neighbor list builds = 0
Dangerous builds = 0
velocity           GUEST create 1000 1738
fix                3 GUEST nvt temp 1000 1000 50.0
run                400000
PPPMDisp initialization ...
  Coulomb G vector (1/distance) = 0.264777
  Coulomb grid = 30 50 30
  Coulomb stencil order = 5
  Coulomb estimated absolute RMS force accuracy = 0.000346238
  Coulomb estimated relative force accuracy = 1.04269e-06
  using double precision FFTs
  3d grid and FFT values/proc = 78033 45000
Memory usage per processor = 12.3689 Mbytes
Step Temp E_pair E_mol TotEng comT[1] comT[2] comT[3] comG[1] comG[2] comG[3] comM[1] comM[2] comM[3] 
  200000    7.6569678     61750937            0     61750967    12.682197    22.417941       13.178     19.62212    34.024755   -91.525624    12.612127     22.30075    14.235163 
  200200    241.81839     59213487            0     59214429    12.683311    22.410298    13.178189    19.733532    33.260195   -91.506709    12.612127     22.30075    14.235163 
  200400    204.60337     59213863            0     59214660    12.683346     22.41039    13.178214    19.737076    33.269331   -91.504199    12.612127     22.30075    14.235163 
  200600    137.99181     59213855            0     59214393    12.683325    22.410348     13.17843    19.734935    33.265175   -91.482583    12.612127     22.30075    14.235163 
  200800    182.43155     59213039            0     59213749     12.68331    22.410353    13.178594     19.73347    33.265706   -91.466202    12.612127     22.30075    14.235163 
  201000    135.70398     59212043            0     59212571    12.683333    22.410338    13.178541     19.73579    33.264193   -91.471511    12.612127     22.30075    14.235163 
  201200    149.80645     59213579            0     59214162    12.683304    22.410368    13.178375    19.732813    33.267201   -91.488124    12.612127     22.30075    14.235163 
  201400    119.79843     59212658            0     59213125    12.683289    22.410358    13.178599    19.731394    33.266148   -91.465672    12.612127     22.30075    14.235163 
  201600    199.61523     59212534            0     59213311    12.683283    22.410384    13.178702    19.730712    33.268779   -91.455379    12.612127     22.30075    14.235163 
  201800     345.7016     59212665            0     59214011    12.683295    22.410344    13.178806    19.731913    33.264725   -91.444946    12.612127     22.30075    14.235163 
  202000     83.39963     59212560            0     59212885    12.683324    22.410345    13.179028    19.734818    33.264884   -91.422746    12.612127     22.30075    14.235163 
  202200     172.8918     59212654            0     59213327    12.683283    22.410357    13.179134    19.730745    33.266031   -91.412148    12.612127     22.30075    14.235163 
  202400     167.1625     59211486            0     59212136    12.683305    22.410343    13.179011    19.732959    33.264618   -91.424507    12.612127     22.30075    14.235163 
  202600    399.97062     59211053            0     59212610    12.683316    22.410353    13.178937    19.734016    33.265646    -91.43191    12.612127     22.30075    14.235163 
  202800    138.66346     59211639            0     59212179    12.683275    22.410369    13.179075     19.72991    33.267256   -91.418104    12.612127     22.30075    14.235163 
  203000    315.14824     59211833            0     59213059    12.683336    22.410319    13.179014    19.736059    33.262237   -91.424186    12.612127     22.30075    14.235163 
  203200    168.02307     59212291            0     59212945    12.683316     22.41035    13.179274    19.734021     33.26539     -91.3982    12.612127     22.30075    14.235163 
  203400    323.46702     59211865            0     59213124    12.683316    22.410353    13.179222    19.734013    33.265679   -91.403397    12.612127     22.30075    14.235163 
  203600     173.4301     59211974            0     59212650    12.683326    22.410328    13.178892    19.735016    33.263136   -91.436336    12.612127     22.30075    14.235163 
  203800    174.70664     59211464            0     59212144    12.683303     22.41038    13.178845    19.732725    33.268366   -91.441062    12.612127     22.30075    14.235163 
  204000    253.04492     59212515            0     59213500    12.683313    22.410351    13.179129    19.733735    33.265467   -91.412631    12.612127     22.30075    14.235163 
  204200    170.11272     59212032            0     59212694    12.683316    22.410353    13.178913    19.733999    33.265679    -91.43422    12.612127     22.30075    14.235163 
  204400    260.12869     59212449            0     59213461    12.683322     22.41034    13.179158    19.734668    33.264357   -91.409793    12.612127     22.30075    14.235163 
  204600    265.00271     59213028            0     59214060    12.683286    22.410376    13.178989    19.731036    33.267991   -91.426642    12.612127     22.30075    14.235163 
  204800    117.87442     59211966            0     59212425    12.683317     22.41036    13.179272    19.734114    33.266315   -91.398346    12.612127     22.30075    14.235163 
  205000    144.75392     59211445            0     59212009    12.683318    22.410349    13.178915    19.734214    33.265295   -91.434076    12.612127     22.30075    14.235163 
  205200    255.38956     59211433            0     59212427    12.683316    22.410355    13.178956    19.734094    33.265882   -91.429999    12.612127     22.30075    14.235163 
  205400     235.2057     59210771            0     59211687    12.683289    22.410354     13.17895     19.73139    33.265762    -91.43061    12.612127     22.30075    14.235163 
  205600    182.96417     59211401            0     59212113    12.683298    22.410343    13.179151    19.732206    33.264689   -91.410483    12.612127     22.30075    14.235163 
  205800    211.53849     59211159            0     59211982    12.683302    22.410358    13.179108    19.732654    33.266171   -91.414748    12.612127     22.30075    14.235163 
  206000    190.82865     59211558            0     59212300     12.68328    22.410325    13.179094    19.730413    33.262842   -91.416205    12.612127     22.30075    14.235163 
  206200    245.80152     59211485            0     59212442    12.683324    22.410365    13.178996    19.734896     33.26684   -91.426009    12.612127     22.30075    14.235163 
  206400     232.3707     59211220            0     59212125    12.683305    22.410368    13.179038    19.732956    33.267172   -91.421758    12.612127     22.30075    14.235163 
  206600    383.13891     59212699            0     59214190    12.683325    22.410354    13.179213    19.734959    33.265782   -91.404212    12.612127     22.30075    14.235163 
  206800    242.40888     59211382            0     59212326    12.683315    22.410355    13.179245    19.733907     33.26586   -91.401093    12.612127     22.30075    14.235163 
  207000    273.51263     59211463            0     59212528    12.683293    22.410342    13.179032    19.731708    33.264592   -91.422411    12.612127     22.30075    14.235163 
  207200    265.82157     59210485            0     59211520    12.683326    22.410341     13.17898    19.735005    33.264486    -91.42755    12.612127     22.30075    14.235163 
  207400    359.32714     59211295            0     59212694    12.683316    22.410353    13.179268    19.734013    33.265663   -91.398764    12.612127     22.30075    14.235163 
  207600    316.94915     59212849            0     59214082    12.683296    22.410344    13.179166    19.732087     33.26474   -91.408995    12.612127     22.30075    14.235163 
  207800    386.57416     59210975            0     59212480    12.683315    22.410359    13.178964    19.733928    33.266264   -91.429211    12.612127     22.30075    14.235163 
  208000    219.58402     59211255            0     59212110    12.683308    22.410383    13.179017    19.733228    33.268625     -91.4239    12.612127     22.30075    14.235163 
  208200    235.32238     59210838            0     59211754    12.683327    22.410346      13.1789    19.735182     33.26496    -91.43561    12.612127     22.30075    14.235163 
  208400    153.61851     59211827            0     59212425    12.683325    22.410334    13.178818    19.734991    33.263796   -91.443796    12.612127     22.30075    14.235163 
  208600    244.35004     59211868            0     59212820    12.683316    22.410353    13.179141       19.734    33.265679   -91.411473    12.612127     22.30075    14.235163 
  208800    284.38657     59212666            0     59213773    12.683327    22.410353     13.17885    19.735184    33.265647   -91.440555    12.612127     22.30075    14.235163 
  209000    308.17043     59211936            0     59213136    12.683317    22.410341     13.17881    19.734152    33.264428    -91.44459    12.612127     22.30075    14.235163 
  209200    205.83589     59211304            0     59212106    12.683351    22.410354    13.179153    19.737516    33.265746    -91.41024    12.612127     22.30075    14.235163 
  209400    289.64388     59211180            0     59212307    12.683339     22.41035    13.179078    19.736343    33.265377   -91.417773    12.612127     22.30075    14.235163 
  209600    199.37336     59212674            0     59213451    12.683313    22.410357    13.179363    19.733797    33.266079   -91.389252    12.612127     22.30075    14.235163 
  209800    171.05306     59211401            0     59212067    12.683323    22.410372    13.179141    19.734702    33.267584   -91.411463    12.612127     22.30075    14.235163 
  210000    162.23006     59212077            0     59212708    12.683323    22.410353    13.179069    19.734704    33.265641    -91.41866    12.612127     22.30075    14.235163 
  210200    208.30728     59211148            0     59211959    12.683312    22.410357    13.179022    19.733653    33.266108   -91.423381    12.612127     22.30075    14.235163 
  210400    213.42825     59210691            0     59211522    12.683357    22.410363    13.178901    19.738132    33.266632   -91.435516    12.612127     22.30075    14.235163 
  210600    322.02154     59212597            0     59213850    12.683328    22.410355    13.178942    19.735284    33.265847   -91.431323    12.612127     22.30075    14.235163 
  210800    187.44411     59211978            0     59212708    12.683291      22.4104    13.179233    19.731506    33.270373   -91.402205    12.612127     22.30075    14.235163 
  211000    255.93885     59210961            0     59211957     12.68332     22.41034    13.179063    19.734468    33.264342   -91.419297    12.612127     22.30075    14.235163 
  211200    165.87709     59212073            0     59212718    12.683309    22.410365    13.178916    19.733388    33.266837   -91.433978    12.612127     22.30075    14.235163 
  211400    270.92879     59210913            0     59211967    12.683304    22.410354    13.179121    19.732895     33.26574   -91.413493    12.612127     22.30075    14.235163 
  211600    241.56017     59211397            0     59212337    12.683328    22.410362    13.179203    19.735202    33.266516   -91.405254    12.612127     22.30075    14.235163 
  211800    396.55614     59211411            0     59212955    12.683313    22.410355    13.179205    19.733723    33.265877   -91.405059    12.612127     22.30075    14.235163 
  212000    168.80664     59211671            0     59212329    12.683282    22.410355    13.178965    19.730638     33.26586   -91.429066    12.612127     22.30075    14.235163 
  212200     262.2402     59212289            0     59213310    12.683306    22.410354    13.178981    19.733025    33.265796   -91.427507    12.612127     22.30075    14.235163 
  212400    232.21448     59211546            0     59212450    12.683318    22.410371    13.179118    19.734238    33.267488   -91.413745    12.612127     22.30075    14.235163 
  212600    363.50206     59210474            0     59211889    12.683341    22.410355    13.179203    19.736527    33.265814   -91.405274    12.612127     22.30075    14.235163 
  212800     160.8348     59211350            0     59211976    12.683307    22.410377    13.179005    19.733194    33.268012   -91.425064    12.612127     22.30075    14.235163 
  213000    334.59501     59211162            0     59212464    12.683321    22.410353    13.179038    19.734499    33.265674   -91.421781    12.612127     22.30075    14.235163 
  213200    242.88617     59211371            0     59212317     12.68331    22.410343    13.179065    19.733398    33.264686   -91.419052    12.612127     22.30075    14.235163 
  213400    355.60181     59211807            0     59213191    12.683322    22.410353    13.179136    19.734621    33.265643   -91.411997    12.612127     22.30075    14.235163 
  213600    185.97708     59211507            0     59212231    12.683312    22.410367    13.179165    19.733639    33.267032   -91.409014    12.612127     22.30075    14.235163 
  213800    113.15452     59212004            0     59212444    12.683309    22.410428    13.179027    19.733391    33.273181   -91.422873    12.612127     22.30075    14.235163 
  214000    110.59726     59212722            0     59213152    12.683315    22.410353    13.178984    19.733997    33.265683    -91.42716    12.612127     22.30075    14.235163 
  214200    138.65281     59211559            0     59212099    12.683319    22.410351    13.178951    19.734373    33.265502   -91.430472    12.612127     22.30075    14.235163 
  214400    78.297172     59212382            0     59212686    12.683301    22.410358     13.17899    19.732525    33.266184   -91.426575    12.612127     22.30075    14.235163 
  214600    293.05729     59211124            0     59212265    12.683321    22.410353    13.178962    19.734518     33.26565   -91.429401    12.612127     22.30075    14.235163 
  214800    194.49783     59211390            0     59212148    12.683293    22.410354    13.179043    19.731716    33.265728   -91.421265    12.612127     22.30075    14.235163 
  215000    260.10398     59212723            0     59213736    12.683285    22.410343    13.179013    19.730897    33.264665   -91.424231    12.612127     22.30075    14.235163 
  215200    294.84296     59211557            0     59212705    12.683314    22.410352    13.178884    19.733851    33.265597   -91.437122    12.612127     22.30075    14.235163 
  215400    274.45174     59211666            0     59212734    12.683325    22.410363    13.179047    19.734923    33.266617   -91.420865    12.612127     22.30075    14.235163 
  215600     148.8327     59211767            0     59212346    12.683316    22.410354    13.179217    19.734012    33.265777   -91.403899    12.612127     22.30075    14.235163 
  215800    222.21386     59211776            0     59212641    12.683305    22.410372    13.178826    19.732992    33.267536   -91.442938    12.612127     22.30075    14.235163 
  216000    97.160902     59211748            0     59212126    12.683315    22.410295    13.179217    19.733951    33.259837    -91.40387    12.612127     22.30075    14.235163 
  216200    131.03935     59211554            0     59212064    12.683339    22.410346    13.179047    19.736306    33.264908   -91.420815    12.612127     22.30075    14.235163 
  216400      367.198     59211687            0     59213117    12.683325    22.410359    13.178949    19.734951    33.266252    -91.43064    12.612127     22.30075    14.235163 
  216600    125.51121     59211002            0     59211490    12.683307    22.410342    13.178961    19.733117    33.264605   -91.429463    12.612127     22.30075    14.235163 
  216800    93.555285     59210590            0     59210954    12.683278    22.410355    13.178979    19.730274    33.265877   -91.427642    12.612127     22.30075    14.235163 
  217000    158.85752     59212255            0     59212873    12.683316    22.410364    13.178954    19.734022    33.266775   -91.430213    12.612127     22.30075    14.235163 
  217200    442.81361     59212025            0     59213749     12.68331    22.410354     13.17897     19.73346    33.265718    -91.42852    12.612127     22.30075    14.235163 
  217400    201.35866     59210844            0     59211628    12.683316    22.410353    13.179283    19.734002    33.265673   -91.397244    12.612127     22.30075    14.235163 
  217600    325.45654     59212040            0     59213307    12.683309    22.410376    13.179123    19.733356    33.268008   -91.413294    12.612127     22.30075    14.235163 
  217800    337.80749     59211733            0     59213048    12.683316    22.410353    13.179053    19.734006    33.265687   -91.420303    12.612127     22.30075    14.235163 
  218000    310.62183     59210101            0     59211311    12.683305    22.410356     13.17894    19.732986    33.265933   -91.431579    12.612127     22.30075    14.235163 
  218200    263.83489     59211638            0     59212665    12.683229    22.410358    13.179009    19.725323    33.266154   -91.424703    12.612127     22.30075    14.235163 
  218400    132.06362     59211393            0     59211907    12.683304    22.410354     13.17919    19.732858    33.265745   -91.406574    12.612127     22.30075    14.235163 
  218600    98.558363     59211114            0     59211498    12.683316    22.410353    13.179011    19.734064    33.265693    -91.42445    12.612127     22.30075    14.235163 
  218800    202.92754     59211003            0     59211793    12.683296     22.41035    13.179188    19.732076    33.265322   -91.406759    12.612127     22.30075    14.235163 
  219000    240.34131     59210834            0     59211770    12.683335    22.410392    13.179131    19.735969    33.269566   -91.412417    12.612127     22.30075    14.235163 
  219200    218.57879     59212051            0     59212901    12.683352    22.410351    13.178876    19.737688    33.265475   -91.437929    12.612127     22.30075    14.235163 
  219400     268.2021     59211536            0     59212580    12.683318    22.410349     13.17899    19.734199    33.265299   -91.426532    12.612127     22.30075    14.235163 
  219600    386.64674     59212061            0     59213566    12.683315    22.410352    13.179129    19.733939    33.265587    -91.41265    12.612127     22.30075    14.235163 
  219800    163.52844     59212966            0     59213603    12.683325     22.41035    13.179199    19.734989    33.265314    -91.40562    12.612127     22.30075    14.235163 
  220000    201.63619     59211445            0     59212230    12.683315    22.410353    13.179222    19.733946    33.265682   -91.403393    12.612127     22.30075    14.235163 
  220200    237.07921     59211709            0     59212632    12.683305    22.410329    13.179105    19.732978    33.263228   -91.415059    12.612127     22.30075    14.235163 
  220400    275.52365     59212279            0     59213352    12.683326    22.410334    13.179127    19.735032    33.263741   -91.412902    12.612127     22.30075    14.235163 
  220600    210.04251     59212136            0     59212954    12.683308     22.41036    13.179167    19.733272    33.266368   -91.408877    12.612127     22.30075    14.235163 
  220800    308.77753     59211618            0     59212820    12.683308    22.410322    13.179007    19.733266    33.262536   -91.424844    12.612127     22.30075    14.235163 
  221000    199.27108     59212123            0     59212898     12.68332    22.410375    13.178976    19.734424    33.267888   -91.427931    12.612127     22.30075    14.235163 
  221200    165.40559     59211306            0     59211950    12.683317    22.410413    13.179065    19.734146     33.27163   -91.419087    12.612127     22.30075    14.235163 
  221400    179.69926     59210741            0     59211440    12.683303    22.410335    13.178983    19.732783    33.263824     -91.4273    12.612127     22.30075    14.235163 
  221600    149.28111     59211111            0     59211693    12.683354    22.410355    13.179061    19.737812    33.265877   -91.419439    12.612127     22.30075    14.235163 
  221800    183.62271     59211933            0     59212647    12.683337    22.410357    13.179019    19.736156    33.266011   -91.423671    12.612127     22.30075    14.235163 
  222000     307.5341     59211746            0     59212943    12.683325    22.410351    13.179122    19.734904    33.265491   -91.413389    12.612127     22.30075    14.235163 
  222200    336.15743     59210561            0     59211870    12.683324     22.41037    13.179099    19.734867    33.267346   -91.415708    12.612127     22.30075    14.235163 
  222400    259.94026     59212472            0     59213484    12.683326    22.410316    13.179186    19.735088    33.261988    -91.40692    12.612127     22.30075    14.235163 
  222600    181.37295     59211783            0     59212489    12.683316    22.410353    13.179324    19.733999     33.26568   -91.393111    12.612127     22.30075    14.235163 
  222800    287.47108     59211822            0     59212941    12.683297     22.41032     13.17908    19.732102     33.26234   -91.417564    12.612127     22.30075    14.235163 
  223000    204.98305     59211307            0     59212105    12.683324    22.410368    13.179214    19.734804    33.267141   -91.404164    12.612127     22.30075    14.235163 
  223200    164.67004     59211980            0     59212621    12.683335    22.410322    13.178884    19.735975    33.262537   -91.437196    12.612127     22.30075    14.235163 
  223400     200.0375     59211640            0     59212419    12.683332    22.410331    13.179131    19.735638    33.263441   -91.412456    12.612127     22.30075    14.235163 
  223600    249.18863     59212394            0     59213364    12.683327    22.410388     13.17884    19.735161    33.269193   -91.441581    12.612127     22.30075    14.235163 
  223800    96.667823     59212520            0     59212896    12.683316    22.410353    13.179187       19.734    33.265679    -91.40682    12.612127     22.30075    14.235163 
  224000    243.25495     59212248            0     59213195    12.683308     22.41034    13.178998    19.733258    33.264346    -91.42574    12.612127     22.30075    14.235163 
  224200    248.10063     59210900            0     59211866    12.683316    22.410352    13.178927    19.734093    33.265534    -91.43285    12.612127     22.30075    14.235163 
  224400     464.7785     59212036            0     59213845    12.683297    22.410369    13.178784    19.732105    33.267254   -91.447181    12.612127     22.30075    14.235163 
  224600    219.30668     59211898            0     59212752    12.683304    22.410334    13.179136    19.732801      33.2638   -91.411981    12.612127     22.30075    14.235163 
  224800    222.65567     59212132            0     59212998    12.683312     22.41035    13.179113    19.733598    33.265327   -91.414281    12.612127     22.30075    14.235163 
  225000    205.65674     59211501            0     59212302    12.683295    22.410338    13.178901    19.731939    33.264182   -91.435516    12.612127     22.30075    14.235163 
  225200    144.05341     59211271            0     59211831    12.683323    22.410347    13.179157    19.734755     33.26506   -91.409887    12.612127     22.30075    14.235163 
  225400    259.18184     59211442            0     59212451    12.683321    22.410363     13.17919     19.73457    33.266664   -91.406529    12.612127     22.30075    14.235163 
  225600    320.11978     59210027            0     59211274    12.683305    22.410338    13.178909    19.732913    33.264177   -91.434685    12.612127     22.30075    14.235163 
  225800    207.02431     59212240            0     59213046    12.683336    22.410341    13.179004    19.736061     33.26442    -91.42521    12.612127     22.30075    14.235163 
  226000    159.03028     59211615            0     59212234     12.68331    22.410356    13.179102    19.733483    33.265956   -91.415329    12.612127     22.30075    14.235163 
  226200    246.70331     59211083            0     59212044    12.683306    22.410373    13.179154    19.733072     33.26763   -91.410112    12.612127     22.30075    14.235163 
  226400     236.4497     59210563            0     59211483    12.683305    22.410377    13.179147    19.732931    33.268069    -91.41082    12.612127     22.30075    14.235163 
  226600     354.2249     59211914            0     59213293    12.683312    22.410361    13.179188     19.73361    33.266488   -91.406729    12.612127     22.30075    14.235163 
  226800    201.99737     59212501            0     59213287    12.683345    22.410352    13.179074    19.736926    33.265517   -91.418193    12.612127     22.30075    14.235163 
  227000    187.04451     59211294            0     59212022     12.68333    22.410332    13.179027    19.735494    33.263592   -91.422865    12.612127     22.30075    14.235163 
  227200    213.21541     59211955            0     59212785     12.68335    22.410351     13.17904    19.737496    33.265486   -91.421575    12.612127     22.30075    14.235163 
  227400    326.30939     59212003            0     59213273    12.683317    22.410365    13.179138     19.73413    33.266906   -91.411741    12.612127     22.30075    14.235163 
  227600    222.47019     59212760            0     59213626    12.683281    22.410362    13.178911    19.730581    33.266575   -91.434468    12.612127     22.30075    14.235163 
  227800      331.378     59211122            0     59212412    12.683361    22.410346    13.179034    19.738509    33.264985   -91.422205    12.612127     22.30075    14.235163 
  228000    251.40967     59211750            0     59212729    12.683329    22.410365    13.179226    19.735323    33.266887    -91.40299    12.612127     22.30075    14.235163 
  228200     193.7845     59210625            0     59211379    12.683305    22.410373    13.179167    19.732915    33.267678   -91.408832    12.612127     22.30075    14.235163 
  228400    200.05529     59211873            0     59212651    12.683316    22.410343    13.178893    19.733997    33.264644   -91.436279    12.612127     22.30075    14.235163 
  228600      323.953     59211025            0     59212286    12.683324    22.410363    13.178942    19.734854    33.266651   -91.431376    12.612127     22.30075    14.235163 
  228800    226.56329     59210960            0     59211842    12.683324    22.410351    13.178914    19.734848    33.265487   -91.434216    12.612127     22.30075    14.235163 
  229000    111.27368     59211348            0     59211781    12.683322    22.410378    13.179091    19.734598    33.268167   -91.416453    12.612127     22.30075    14.235163 
  229200    242.43629     59211554            0     59212498    12.683316    22.410353      13.1791    19.733999    33.265679   -91.415582    12.612127     22.30075    14.235163 
  229400    102.09559     59211136            0     59211534    12.683318    22.410327     13.17901    19.734198    33.263061   -91.424603    12.612127     22.30075    14.235163 
  229600    131.93978     59211295            0     59211809    12.683315    22.410353    13.178972    19.733916    33.265683    -91.42837    12.612127     22.30075    14.235163 
  229800    123.14022     59211080            0     59211559    12.683288    22.410381    13.179074    19.731218    33.268494    -91.41818    12.612127     22.30075    14.235163 
  230000    219.02632     59211157            0     59212010    12.683311    22.410363    13.179102    19.733507    33.266627   -91.415405    12.612127     22.30075    14.235163 
  230200    98.571846     59211930            0     59212314    12.683336    22.410385     13.17898    19.736004    33.268843   -91.427592    12.612127     22.30075    14.235163 
  230400    251.83012     59211893            0     59212873    12.683336    22.410335    13.179181    19.736041    33.263814   -91.407477    12.612127     22.30075    14.235163 
  230600    343.54358     59211991            0     59213328    12.683313    22.410359     13.17888    19.733738    33.266278   -91.437577    12.612127     22.30075    14.235163 
  230800    213.38324     59211274            0     59212105    12.683316    22.410352    13.178974    19.734059    33.265518   -91.428207    12.612127     22.30075    14.235163 
  231000      351.916     59212109            0     59213479    12.683316    22.410353    13.178953    19.734059    33.265676   -91.430232    12.612127     22.30075    14.235163 
  231200    251.23382     59210483            0     59211461    12.683357    22.410332    13.179131    19.738167    33.263571   -91.412465    12.612127     22.30075    14.235163 
  231400    145.39542     59211351            0     59211917    12.683288    22.410339    13.178972    19.731294    33.264232   -91.428414    12.612127     22.30075    14.235163 
  231600    364.55145     59211908            0     59213327    12.683299    22.410378     13.17909    19.732371    33.268168   -91.416555    12.612127     22.30075    14.235163 
  231800    230.06059     59211259            0     59212155    12.683307    22.410371     13.17906    19.733118    33.267419   -91.419542    12.612127     22.30075    14.235163 
  232000    304.51603     59211126            0     59212311    12.683316    22.410353    13.178985    19.734012    33.265678   -91.427035    12.612127     22.30075    14.235163 
  232200    255.92096     59212817            0     59213813    12.683314    22.410366    13.179101      19.7338    33.266986   -91.415414    12.612127     22.30075    14.235163 
  232400    260.63423     59211681            0     59212696    12.683311    22.410346    13.179151     19.73351    33.264914   -91.410434    12.612127     22.30075    14.235163 
  232600    322.77596     59211039            0     59212295    12.683313    22.410359    13.179171     19.73379    33.266279   -91.408443    12.612127     22.30075    14.235163 
  232800    126.93868     59211405            0     59211899    12.683307    22.410345    13.179018    19.733126    33.264809   -91.423758    12.612127     22.30075    14.235163 
  233000    152.73032     59211966            0     59212560    12.683335    22.410347    13.178976    19.735928    33.265031   -91.427941    12.612127     22.30075    14.235163 
  233200    319.69132     59211100            0     59212345    12.683293     22.41035    13.179016    19.731758    33.265333   -91.423921    12.612127     22.30075    14.235163 
  233400    247.53664     59211791            0     59212755    12.683305    22.410355    13.179266    19.732922    33.265831    -91.39894    12.612127     22.30075    14.235163 
  233600    225.52564     59211934            0     59212812    12.683339     22.41035    13.179081    19.736377    33.265364   -91.417429    12.612127     22.30075    14.235163 
  233800    151.61216     59210789            0     59211379     12.68332    22.410341    13.178977     19.73445    33.264471   -91.427875    12.612127     22.30075    14.235163 
  234000    352.77272     59211717            0     59213091    12.683325    22.410353    13.179246    19.734942    33.265627   -91.400989    12.612127     22.30075    14.235163 
  234200    184.39872     59212174            0     59212891    12.683314    22.410345    13.179138    19.733874    33.264875   -91.411734    12.612127     22.30075    14.235163 
  234400    189.56851     59211828            0     59212566    12.683316    22.410353    13.178899       19.734    33.265678   -91.435667    12.612127     22.30075    14.235163 
  234600    246.15015     59211578            0     59212536    12.683312    22.410361    13.178991    19.733619    33.266434   -91.426477    12.612127     22.30075    14.235163 
  234800    208.39521     59212043            0     59212855    12.683339    22.410351    13.179145    19.736313    33.265485   -91.411059    12.612127     22.30075    14.235163 
  235000    209.28555     59211006            0     59211820    12.683345    22.410353     13.17911    19.736979    33.265679   -91.414579    12.612127     22.30075    14.235163 
  235200    282.17344     59211353            0     59212452    12.683319    22.410351    13.179161    19.734379    33.265439   -91.409443    12.612127     22.30075    14.235163 
  235400    110.34454     59211187            0     59211616    12.683328    22.410374    13.178832    19.735294    33.267724    -91.44235    12.612127     22.30075    14.235163 
  235600    238.23221     59210778            0     59211706    12.683315    22.410353    13.179029    19.733993    33.265696   -91.422635    12.612127     22.30075    14.235163 
  235800    253.16198     59212196            0     59213182    12.683329    22.410333    13.179006    19.735304    33.263664   -91.424978    12.612127     22.30075    14.235163 
  236000    129.11721     59212647            0     59213150    12.683296     22.41037    13.179172    19.732024    33.267401   -91.408371    12.612127     22.30075    14.235163 
  236200    165.02475     59212830            0     59213473     12.68333    22.410338    13.179258    19.735487    33.264116   -91.399771    12.612127     22.30075    14.235163 
  236400    284.18822     59211667            0     59212774    12.683316    22.410353    13.178948    19.734017    33.265658   -91.430795    12.612127     22.30075    14.235163 
  236600     138.5151     59211044            0     59211584    12.683312    22.410388    13.178927    19.733629    33.269116    -91.43287    12.612127     22.30075    14.235163 
  236800    238.46579     59211172            0     59212100    12.683325    22.410343    13.179007    19.734919    33.264649    -91.42485    12.612127     22.30075    14.235163 
  237000    131.41271     59212114            0     59212625    12.683357    22.410352    13.179034    19.738136    33.265571   -91.422148    12.612127     22.30075    14.235163 
  237200    81.647052     59212301            0     59212619    12.683314     22.41035    13.179067    19.733896    33.265342    -91.41886    12.612127     22.30075    14.235163 
  237400     336.9714     59211182            0     59212494    12.683312    22.410343    13.179111    19.733597    33.264632   -91.414489    12.612127     22.30075    14.235163 
  237600    144.03341     59212870            0     59213430     12.68331    22.410323    13.178859    19.733441    33.262644   -91.439688    12.612127     22.30075    14.235163 
  237800    257.81152     59211439            0     59212443     12.68335     22.41038    13.179121    19.737484    33.268312   -91.413485    12.612127     22.30075    14.235163 
  238000    65.726574     59211348            0     59211604    12.683321    22.410347    13.178773    19.734546    33.265025   -91.448307    12.612127     22.30075    14.235163 
  238200    182.61151     59211992            0     59212703     12.68333    22.410296    13.179067    19.735459     33.25996   -91.418828    12.612127     22.30075    14.235163 
  238400    253.91531     59210599            0     59211588    12.683326    22.410364    13.178951    19.735026    33.266738   -91.430482    12.612127     22.30075    14.235163 
  238600    189.21018     59211815            0     59212552      12.6833    22.410356     13.17902    19.732457     33.26596   -91.423597    12.612127     22.30075    14.235163 
  238800    169.25255     59212474            0     59213133    12.683328    22.410348    13.178987    19.735256     33.26513   -91.426856    12.612127     22.30075    14.235163 
  239000    242.03206     59212212            0     59213155    12.683319    22.410348    13.178799    19.734392    33.265146   -91.445688    12.612127     22.30075    14.235163 
  239200    264.99473     59211465            0     59212496    12.683303    22.410335    13.179021    19.732762    33.263837   -91.423434    12.612127     22.30075    14.235163 
  239400    342.09807     59213097            0     59214429    12.683328    22.410355    13.179241    19.735237    33.265848   -91.401419    12.612127     22.30075    14.235163 
  239600     336.0033     59211572            0     59212880    12.683314    22.410353    13.179212     19.73382      33.2657   -91.404396    12.612127     22.30075    14.235163 
  239800    178.99538     59211126            0     59211823    12.683307    22.410362    13.179093    19.733182    33.266559   -91.416278    12.612127     22.30075    14.235163 
  240000     225.9386     59210910            0     59211790    12.683321    22.410323    13.179085    19.734585    33.262679   -91.417055    12.612127     22.30075    14.235163 
  240200    240.50164     59210758            0     59211694    12.683335    22.410386    13.179039    19.735937    33.268954   -91.421634    12.612127     22.30075    14.235163 
  240400    118.57722     59212463            0     59212924    12.683327    22.410334    13.178832    19.735116    33.263716   -91.442323    12.612127     22.30075    14.235163 
  240600    203.64895     59210760            0     59211553    12.683337    22.410352    13.179142    19.736125    33.265564   -91.411396    12.612127     22.30075    14.235163 
  240800    253.66758     59211292            0     59212279    12.683318    22.410364    13.178929    19.734271    33.266715   -91.432641    12.612127     22.30075    14.235163 
  241000    179.97953     59211817            0     59212517    12.683323    22.410361    13.178929    19.734773    33.266422   -91.432655    12.612127     22.30075    14.235163 
  241200    236.45638     59212648            0     59213569    12.683305    22.410373    13.178989    19.732981    33.267691   -91.426668    12.612127     22.30075    14.235163 
  241400    254.97458     59211879            0     59212871    12.683319    22.410353    13.179255    19.734301    33.265622   -91.400017    12.612127     22.30075    14.235163 
  241600    169.25889     59211451            0     59212110    12.683317    22.410382    13.179037    19.734159    33.268608   -91.421817    12.612127     22.30075    14.235163 
  241800    165.66682     59213142            0     59213787      12.6833    22.410367    13.179005    19.732432    33.267096   -91.425032    12.612127     22.30075    14.235163 
  242000    215.41842     59211313            0     59212152    12.683321    22.410342    13.178927     19.73457    33.264546   -91.432831    12.612127     22.30075    14.235163 
  242200    281.98706     59212125            0     59213222    12.683316    22.410353    13.179204    19.734029    33.265677     -91.4052    12.612127     22.30075    14.235163 
  242400    291.47084     59212036            0     59213170    12.683325    22.410333    13.179055    19.734917    33.263612   -91.420016    12.612127     22.30075    14.235163 
  242600    367.28787     59212338            0     59213768    12.683328    22.410352    13.179064    19.735199    33.265518   -91.419168    12.612127     22.30075    14.235163 
  242800    119.51274     59212159            0     59212624    12.683325    22.410312    13.179047    19.734981    33.261555   -91.420842    12.612127     22.30075    14.235163 
  243000     229.8488     59211213            0     59212108    12.683339    22.410389     13.17903    19.736317    33.269271   -91.422525    12.612127     22.30075    14.235163 
  243200     293.9685     59211702            0     59212846    12.683297    22.410354    13.179374      19.7321    33.265785   -91.388139    12.612127     22.30075    14.235163 
  243400    163.83977     59212590            0     59213228    12.683316    22.410353    13.179084    19.734002    33.265656   -91.417181    12.612127     22.30075    14.235163 
  243600    215.54159     59211552            0     59212391     12.68329     22.41036    13.178943    19.731408    33.266401   -91.431223    12.612127     22.30075    14.235163 
  243800    114.76578     59211681            0     59212128    12.683337    22.410346    13.179091    19.736155    33.264914   -91.416411    12.612127     22.30075    14.235163 
  244000    161.07494     59211090            0     59211718    12.683309    22.410336    13.179218    19.733386    33.263956   -91.403796    12.612127     22.30075    14.235163 
  244200     161.1929     59211131            0     59211759    12.683298    22.410373    13.179255    19.732206    33.267685   -91.400089    12.612127     22.30075    14.235163 
  244400     235.9057     59211675            0     59212593    12.683339    22.410352     13.17924    19.736315    33.265552   -91.401603    12.612127     22.30075    14.235163 
  244600    155.76861     59211964            0     59212571    12.683318    22.410357    13.179306     19.73426     33.26606   -91.394983    12.612127     22.30075    14.235163 
  244800    378.91011     59210962            0     59212437    12.683348    22.410347    13.179111    19.737209    33.265018   -91.414476    12.612127     22.30075    14.235163 
  245000    253.86895     59211804            0     59212792    12.683305    22.410364    13.179037    19.732976    33.266787   -91.421826    12.612127     22.30075    14.235163 
  245200    244.12129     59211928            0     59212879    12.683307    22.410354    13.178897    19.733142    33.265773    -91.43583    12.612127     22.30075    14.235163 
  245400    196.88178     59211593            0     59212359    12.683315    22.410336     13.17898    19.733989    33.263953   -91.427591    12.612127     22.30075    14.235163 
  245600    290.75074     59211165            0     59212297    12.683303    22.410327    13.179114    19.732723    33.263036    -91.41418    12.612127     22.30075    14.235163 
  245800    185.84515     59212542            0     59213265      12.6833    22.410333    13.179035    19.732427    33.263692   -91.422096    12.612127     22.30075    14.235163 
  246000    165.90196     59212172            0     59212818    12.683317    22.410353    13.178822    19.734191    33.265679   -91.443359    12.612127     22.30075    14.235163 
  246200    183.52897     59210741            0     59211456    12.683311    22.410361    13.179032    19.733543    33.266451   -91.422319    12.612127     22.30075    14.235163 
  246400    137.74761     59210940            0     59211476     12.68335    22.410363    13.179013    19.737426    33.266692   -91.424244    12.612127     22.30075    14.235163 
  246600    256.32353     59212090            0     59213087    12.683321    22.410366    13.179055     19.73451    33.266997   -91.420018    12.612127     22.30075    14.235163 
  246800    96.843654     59212145            0     59212522    12.683328     22.41035    13.178877     19.73525    33.265372    -91.43784    12.612127     22.30075    14.235163 
  247000    116.38123     59212736            0     59213189    12.683316    22.410399    13.178988     19.73409    33.270219   -91.426765    12.612127     22.30075    14.235163 
  247200    393.07039     59211458            0     59212988    12.683333    22.410337    13.178945    19.735712    33.264045    -91.43106    12.612127     22.30075    14.235163 
  247400    414.66988     59211437            0     59213051    12.683319    22.410353    13.179193    19.734334    33.265659    -91.40621    12.612127     22.30075    14.235163 
  247600    253.07579     59212874            0     59213859     12.68333    22.410321    13.179013    19.735481    33.262455   -91.424306    12.612127     22.30075    14.235163 
  247800    309.14141     59211407            0     59212611    12.683338    22.410366    13.179007     19.73622    33.266946   -91.424826    12.612127     22.30075    14.235163 
  248000    187.46803     59210992            0     59211722    12.683323     22.41035    13.179111    19.734762    33.265406   -91.414413    12.612127     22.30075    14.235163 
  248200    261.52401     59210618            0     59211636    12.683284    22.410346    13.179141    19.730829    33.264978   -91.411508    12.612127     22.30075    14.235163 
  248400    209.19702     59212623            0     59213438    12.683315    22.410354    13.178969    19.733973    33.265737   -91.428663    12.612127     22.30075    14.235163 
  248600     222.7515     59211713            0     59212580    12.683345     22.41037    13.178961    19.736989    33.267333    -91.42943    12.612127     22.30075    14.235163 
  248800     221.3525     59211895            0     59212756    12.683311     22.41036    13.179148    19.733507    33.266348   -91.410804    12.612127     22.30075    14.235163 
  249000     215.1768     59211946            0     59212783     12.68336    22.410321    13.179084    19.738453    33.262431   -91.417137    12.612127     22.30075    14.235163 
  249200    202.60011     59211239            0     59212027    12.683342    22.410352    13.179179    19.736645    33.265537   -91.407673    12.612127     22.30075    14.235163 
  249400    207.49994     59211715            0     59212523    12.683315    22.410353    13.178986     19.73396    33.265624   -91.427003    12.612127     22.30075    14.235163 
  249600    376.04123     59210784            0     59212248    12.683314    22.410353    13.179106    19.733872      33.2657   -91.414987    12.612127     22.30075    14.235163 
  249800    121.80035     59211124            0     59211598    12.683283    22.410347     13.17906    19.730712     33.26503    -91.41955    12.612127     22.30075    14.235163 
  250000     295.7968     59211612            0     59212763    12.683298    22.410349    13.179003    19.732275    33.265229   -91.425273    12.612127     22.30075    14.235163 
  250200    248.25941     59211273            0     59212240    12.683332    22.410378    13.179074    19.735659     33.26818   -91.418175    12.612127     22.30075    14.235163 
  250400    178.49619     59211365            0     59212060    12.683324    22.410336    13.179099    19.734891    33.263921   -91.415672    12.612127     22.30075    14.235163 
  250600    111.33104     59211517            0     59211951    12.683329    22.410329    13.179176    19.735324    33.263271    -91.40795    12.612127     22.30075    14.235163 
  250800    220.10455     59212062            0     59212919    12.683315    22.410353    13.178915    19.733973     33.26568   -91.434073    12.612127     22.30075    14.235163 
  251000    93.129861     59210777            0     59211139     12.68335    22.410351    13.179064    19.737484    33.265486   -91.419128    12.612127     22.30075    14.235163 
  251200    228.08627     59211457            0     59212345    12.683305    22.410351    13.179042    19.732965    33.265426   -91.421363    12.612127     22.30075    14.235163 
  251400    167.96462     59211093            0     59211747    12.683349    22.410353    13.179078    19.737301    33.265615   -91.417764    12.612127     22.30075    14.235163 
  251600    349.92395     59211589            0     59212951    12.683315    22.410353    13.178775    19.733954    33.265683   -91.448103    12.612127     22.30075    14.235163 
  251800    244.96077     59211035            0     59211988    12.683315    22.410379    13.179106     19.73393    33.268281   -91.414963    12.612127     22.30075    14.235163 
  252000    255.70173     59212961            0     59213957    12.683316    22.410353    13.178941    19.733998    33.265682   -91.431512    12.612127     22.30075    14.235163 
  252200    327.34313     59212678            0     59213953    12.683364    22.410337    13.179017    19.738884    33.264042   -91.423842    12.612127     22.30075    14.235163 
  252400    283.68754     59211868            0     59212973    12.683319    22.410372    13.178857    19.734361    33.267519   -91.439904    12.612127     22.30075    14.235163 
  252600    100.58781     59212295            0     59212687     12.68332    22.410333    13.178665    19.734399    33.263663   -91.459055    12.612127     22.30075    14.235163 
  252800    183.38294     59213195            0     59213909    12.683319    22.410346    13.179117    19.734305    33.264953   -91.413844    12.612127     22.30075    14.235163 
  253000    129.96463     59210795            0     59211301    12.683316    22.410353    13.179188    19.734041    33.265636   -91.406726    12.612127     22.30075    14.235163 
  253200    245.06716     59211874            0     59212828    12.683324    22.410361    13.179192    19.734854    33.266435   -91.406343    12.612127     22.30075    14.235163 
  253400     195.9906     59211329            0     59212092    12.683369     22.41035    13.179031    19.739339    33.265369   -91.422473    12.612127     22.30075    14.235163 
  253600    187.74634     59210895            0     59211626    12.683286    22.410328    13.179051    19.730996    33.263204   -91.420496    12.612127     22.30075    14.235163 
  253800    149.43603     59212604            0     59213186    12.683352    22.410343    13.179189    19.737604     33.26461   -91.406627    12.612127     22.30075    14.235163 
  254000    335.56614     59211047            0     59212353    12.683306    22.410354    13.179075    19.733093    33.265734   -91.418049    12.612127     22.30075    14.235163 
  254200    243.63997     59213057            0     59214006    12.683279    22.410349    13.179237    19.730323    33.265306   -91.401902    12.612127     22.30075    14.235163 
  254400    150.93169     59211892            0     59212479    12.683315    22.410352     13.17887     19.73393    33.265592   -91.438571    12.612127     22.30075    14.235163 
  254600     150.2882     59211111            0     59211696    12.683302    22.410357    13.178931    19.732683    33.266104   -91.432479    12.612127     22.30075    14.235163 
  254800    293.45634     59212093            0     59213236    12.683318    22.410354    13.178946    19.734247    33.265789   -91.430931    12.612127     22.30075    14.235163 
  255000    270.40588     59211390            0     59212443    12.683313     22.41036    13.179227    19.733702    33.266315    -91.40284    12.612127     22.30075    14.235163 
  255200    232.01314     59211922            0     59212825    12.683315    22.410353    13.179337    19.733968    33.265643   -91.391821    12.612127     22.30075    14.235163 
  255400    256.44356     59212024            0     59213022    12.683306    22.410367    13.179026    19.733077    33.267082   -91.422933    12.612127     22.30075    14.235163 
  255600    373.82191     59212764            0     59214219    12.683315    22.410354    13.179169    19.733926    33.265728   -91.408677    12.612127     22.30075    14.235163 
  255800    64.612845     59211996            0     59212248    12.683268    22.410366    13.179082    19.729246    33.266968   -91.417399    12.612127     22.30075    14.235163 
  256000    94.147328     59211548            0     59211914    12.683309     22.41036    13.178921    19.733387    33.266384   -91.433502    12.612127     22.30075    14.235163 
  256200    214.48346     59211023            0     59211857    12.683326    22.410371    13.179142     19.73502    33.267444   -91.411336    12.612127     22.30075    14.235163 
  256400    257.16928     59211837            0     59212838    12.683315    22.410354    13.179193    19.733968    33.265723   -91.406293    12.612127     22.30075    14.235163 
  256600    216.58806     59212642            0     59213485    12.683316    22.410353     13.17929    19.734005    33.265679   -91.396542    12.612127     22.30075    14.235163 
  256800    279.63074     59212006            0     59213095    12.683303    22.410383     13.17901    19.732789    33.268676   -91.424552    12.612127     22.30075    14.235163 
  257000    255.81385     59210595            0     59211591     12.68333    22.410409    13.179024    19.735451    33.271232    -91.42319    12.612127     22.30075    14.235163 
  257200    204.64831     59212153            0     59212950    12.683297    22.410354    13.179157    19.732156    33.265781   -91.409819    12.612127     22.30075    14.235163 
  257400    189.94498     59211431            0     59212170    12.683316    22.410358    13.179168    19.734043    33.266111   -91.408717    12.612127     22.30075    14.235163 
  257600    293.01156     59211298            0     59212438    12.683325    22.410346    13.178948    19.734906    33.264922   -91.430811    12.612127     22.30075    14.235163 
  257800    174.97064     59211860            0     59212542    12.683346    22.410366    13.178891    19.737021    33.266909   -91.436519    12.612127     22.30075    14.235163 
  258000    168.39991     59211219            0     59211874    12.683319    22.410357     13.17897    19.734357    33.266088   -91.428571    12.612127     22.30075    14.235163 
  258200    285.80107     59211123            0     59212236    12.683349     22.41037    13.178955    19.737371    33.267381   -91.430073    12.612127     22.30075    14.235163 
  258400    230.00905     59212924            0     59213819    12.683314    22.410349    13.178905    19.733862    33.265209    -91.43508    12.612127     22.30075    14.235163 
  258600    174.24215     59211467            0     59212145    12.683331    22.410313     13.17907    19.735543    33.261704   -91.418593    12.612127     22.30075    14.235163 
  258800    277.09026     59211617            0     59212696    12.683316    22.410353    13.178899    19.734057     33.26562   -91.435702    12.612127     22.30075    14.235163 
  259000    194.88934     59211155            0     59211914    12.683314    22.410348    13.179133     19.73386    33.265179   -91.412264    12.612127     22.30075    14.235163 
  259200    209.93219     59211812            0     59212630    12.683327    22.410353      13.1792    19.735155    33.265687   -91.405574    12.612127     22.30075    14.235163 
  259400    69.470244     59211581            0     59211851    12.683312    22.410348    13.179029    19.733632    33.265119   -91.422698    12.612127     22.30075    14.235163 
  259600    190.93042     59211865            0     59212608    12.683316    22.410353    13.179044    19.733999    33.265679   -91.421198    12.612127     22.30075    14.235163 
  259800    219.21078     59211935            0     59212788    12.683308    22.410366    13.179008    19.733211    33.266912   -91.424745    12.612127     22.30075    14.235163 
  260000    368.37605     59211715            0     59213149    12.683293    22.410351    13.179353    19.731791    33.265447    -91.39022    12.612127     22.30075    14.235163 
  260200    339.34302     59211771            0     59213092    12.683334    22.410347    13.179258    19.735817    33.265065    -91.39977    12.612127     22.30075    14.235163 
  260400    267.64953     59211376            0     59212418    12.683328     22.41034    13.178835    19.735279    33.264339   -91.442086    12.612127     22.30075    14.235163 
  260600    228.17024     59211573            0     59212461    12.683313    22.410341    13.179104    19.733772    33.264411   -91.415208    12.612127     22.30075    14.235163 
  260800    170.95946     59211955            0     59212621    12.683316    22.410353    13.179023       19.734    33.265679   -91.423254    12.612127     22.30075    14.235163 
  261000    302.29939     59211039            0     59212216    12.683317    22.410362    13.179024    19.734175    33.266573    -91.42319    12.612127     22.30075    14.235163 
  261200      215.424     59210511            0     59211349    12.683314    22.410351    13.179023    19.733809    33.265464   -91.423226    12.612127     22.30075    14.235163 
  261400    367.28478     59211219            0     59212649    12.683283    22.410391    13.179024    19.730699     33.26948    -91.42316    12.612127     22.30075    14.235163 
  261600    262.92107     59211187            0     59212210    12.683324    22.410365    13.179126    19.734869    33.266888   -91.413007    12.612127     22.30075    14.235163 
  261800    235.79933     59210645            0     59211563    12.683294     22.41037    13.179011    19.731825    33.267328   -91.424456    12.612127     22.30075    14.235163 
  262000    179.56106     59211244            0     59211943    12.683304    22.410339     13.17925    19.732847    33.264252   -91.400579    12.612127     22.30075    14.235163 
  262200     263.7088     59210532            0     59211558    12.683315    22.410353    13.179087    19.733991    33.265671   -91.416825    12.612127     22.30075    14.235163 
  262400    166.22131     59210926            0     59211573    12.683317    22.410357     13.17898     19.73415    33.266068   -91.427572    12.612127     22.30075    14.235163 
  262600    106.96381     59211417            0     59211833    12.683316    22.410354     13.17913    19.734041    33.265743   -91.412528    12.612127     22.30075    14.235163 
  262800    168.18533     59211145            0     59211800    12.683308    22.410334    13.178964    19.733251    33.263734   -91.429124    12.612127     22.30075    14.235163 
  263000    467.19973     59211526            0     59213344    12.683322    22.410361    13.179078    19.734601    33.266463   -91.417799    12.612127     22.30075    14.235163 
  263200    192.32325     59210258            0     59211006    12.683316    22.410353     13.17891    19.734029    33.265623   -91.434531    12.612127     22.30075    14.235163 
  263400    190.61704     59212726            0     59213468    12.683289    22.410355    13.178986    19.731343    33.265844   -91.426961    12.612127     22.30075    14.235163 
  263600    260.66991     59212684            0     59213699    12.683312    22.410353    13.178892    19.733696    33.265696   -91.436324    12.612127     22.30075    14.235163 
  263800    158.22407     59212000            0     59212616    12.683355    22.410336    13.179128    19.737995    33.263978   -91.412717    12.612127     22.30075    14.235163 
  264000    271.83241     59211468            0     59212526    12.683328    22.410348    13.179192    19.735226    33.265128   -91.406338    12.612127     22.30075    14.235163 
  264200    277.70675     59211419            0     59212500    12.683328    22.410353    13.179263    19.735252     33.26561   -91.399289    12.612127     22.30075    14.235163 
  264400    345.27501     59211542            0     59212886    12.683338    22.410369    13.179012     19.73623    33.267234   -91.424386    12.612127     22.30075    14.235163 
  264600    311.01667     59211983            0     59213194    12.683335    22.410359    13.178981    19.735921    33.266278   -91.427468    12.612127     22.30075    14.235163 
  264800    256.85041     59210868            0     59211868    12.683299    22.410349    13.179111     19.73235    33.265212   -91.414492    12.612127     22.30075    14.235163 
  265000    218.82012     59211473            0     59212324    12.683341    22.410361    13.178924    19.736583    33.266409   -91.433178    12.612127     22.30075    14.235163 
  265200    183.87952     59211841            0     59212557    12.683349     22.41035    13.179181    19.737312    33.265379   -91.407458    12.612127     22.30075    14.235163 
  265400     310.5725     59211281            0     59212490    12.683325    22.410353    13.179178    19.734913    33.265629   -91.407804    12.612127     22.30075    14.235163 
  265600    141.63265     59212322            0     59212873    12.683303    22.410347    13.178799    19.732756    33.265099   -91.445671    12.612127     22.30075    14.235163 
  265800    293.34141     59211624            0     59212766    12.683322    22.410345    13.179121    19.734681    33.264865   -91.413441    12.612127     22.30075    14.235163 
  266000    256.39662     59211392            0     59212390    12.683316    22.410349    13.178856    19.734075    33.265271   -91.439956    12.612127     22.30075    14.235163 
  266200    185.48091     59210943            0     59211665    12.683297    22.410314    13.178887     19.73215     33.26178   -91.436823    12.612127     22.30075    14.235163 
  266400    148.27296     59213578            0     59214155    12.683316    22.410353    13.179417    19.734004    33.265678   -91.383837    12.612127     22.30075    14.235163 
  266600    284.49125     59211856            0     59212963    12.683323    22.410364    13.179061    19.734782    33.266774   -91.419503    12.612127     22.30075    14.235163 
  266800    180.42344     59211469            0     59212171    12.683301    22.410384     13.17901    19.732556     33.26881   -91.424526    12.612127     22.30075    14.235163 
  267000    235.93241     59211633            0     59212552    12.683359     22.41036    13.179245    19.738334    33.266384   -91.401018    12.612127     22.30075    14.235163 
  267200     168.9082     59212226            0     59212884    12.683323    22.410353    13.179191    19.734783    33.265635   -91.406484    12.612127     22.30075    14.235163 
  267400    209.42222     59210980            0     59211796    12.683309    22.410318    13.179128    19.733391    33.262107   -91.412774    12.612127     22.30075    14.235163 
  267600      262.508     59210655            0     59211677    12.683333    22.410382    13.178903    19.735763    33.268534   -91.435272    12.612127     22.30075    14.235163 
  267800    265.41508     59211910            0     59212944    12.683292    22.410354    13.179128    19.731644    33.265784   -91.412788    12.612127     22.30075    14.235163 
  268000    305.93348     59212100            0     59213291    12.683338    22.410357       13.179      19.7362    33.266095   -91.425588    12.612127     22.30075    14.235163 
  268200     232.9201     59211950            0     59212857    12.683335    22.410349    13.179226    19.735988    33.265279   -91.402971    12.612127     22.30075    14.235163 
  268400     359.2284     59211617            0     59213015    12.683316    22.410353     13.17906    19.734001    33.265668    -91.41955    12.612127     22.30075    14.235163 
  268600    211.65427     59211658            0     59212482    12.683303    22.410347     13.17915    19.732769      33.2651   -91.410538    12.612127     22.30075    14.235163 
  268800    50.482571     59211241            0     59211438    12.683315    22.410353    13.179094    19.733937    33.265643   -91.416143    12.612127     22.30075    14.235163 
  269000    271.76726     59211541            0     59212599    12.683312    22.410323     13.17906    19.733602    33.262664   -91.419597    12.612127     22.30075    14.235163 
  269200     223.8641     59210999            0     59211870    12.683311     22.41031    13.179051    19.733519    33.261333   -91.420446    12.612127     22.30075    14.235163 
  269400    262.80504     59211494            0     59212517    12.683326    22.410353    13.178996       19.735    33.265651   -91.425979    12.612127     22.30075    14.235163 
  269600    168.18465     59212175            0     59212829    12.683353    22.410364    13.179045    19.737797    33.266713   -91.421062    12.612127     22.30075    14.235163 
  269800    304.24792     59211921            0     59213105    12.683317    22.410353     13.17908    19.734197    33.265668   -91.417571    12.612127     22.30075    14.235163 
  270000    325.53226     59211521            0     59212789    12.683331    22.410321    13.179112      19.7355    33.262422   -91.414331    12.612127     22.30075    14.235163 
  270200    198.62456     59212044            0     59212817    12.683316    22.410355     13.17899    19.734011    33.265829   -91.426555    12.612127     22.30075    14.235163 
  270400    180.33338     59211348            0     59212050    12.683312    22.410356      13.1789    19.733645    33.265949   -91.435599    12.612127     22.30075    14.235163 
  270600    219.16297     59211827            0     59212680    12.683343    22.410332    13.179097    19.736699    33.263582   -91.415817    12.612127     22.30075    14.235163 
  270800    496.79166     59211010            0     59212944    12.683296    22.410328    13.179003    19.732042    33.263207   -91.425293    12.612127     22.30075    14.235163 
  271000    347.73341     59210626            0     59211980    12.683298    22.410354    13.179137    19.732218    33.265778   -91.411823    12.612127     22.30075    14.235163 
  271200    163.27765     59211932            0     59212568    12.683338    22.410367    13.178871    19.736265    33.267079   -91.438518    12.612127     22.30075    14.235163 
  271400    383.29733     59210474            0     59211967      12.6833    22.410388     13.17901     19.73242    33.269201     -91.4246    12.612127     22.30075    14.235163 
  271600     327.9325     59212078            0     59213354    12.683299    22.410355    13.179171    19.732358    33.265819   -91.408421    12.612127     22.30075    14.235163 
  271800    126.77465     59211454            0     59211947    12.683301    22.410334    13.178895     19.73252    33.263754   -91.436091    12.612127     22.30075    14.235163 
  272000    171.70305     59210931            0     59211599    12.683307    22.410353    13.178862    19.733184    33.265623   -91.439407    12.612127     22.30075    14.235163 
  272200    154.71485     59211772            0     59212375    12.683319    22.410354    13.179306    19.734349    33.265764   -91.394932    12.612127     22.30075    14.235163 
  272400    275.47022     59211665            0     59212737    12.683319    22.410353    13.179204    19.734375     33.26566   -91.405154    12.612127     22.30075    14.235163 
  272600    157.07806     59212035            0     59212646    12.683302    22.410365    13.178944    19.732664    33.266878   -91.431177    12.612127     22.30075    14.235163 
  272800    290.35042     59210737            0     59211868    12.683313    22.410357    13.178999    19.733784      33.2661   -91.425629    12.612127     22.30075    14.235163 
  273000    159.74452     59211662            0     59212284    12.683342     22.41032    13.179102    19.736614    33.262344   -91.415364    12.612127     22.30075    14.235163 
  273200    267.41112     59211664            0     59212705    12.683316    22.410343    13.179293    19.734043    33.264656   -91.396259    12.612127     22.30075    14.235163 
  273400    128.95551     59211702            0     59212204    12.683306    22.410308    13.178917     19.73302    33.261205   -91.433906    12.612127     22.30075    14.235163 
  273600    236.47067     59212821            0     59213742    12.683334    22.410336    13.178767    19.735834    33.263922   -91.448918    12.612127     22.30075    14.235163 
  273800     205.9078     59211970            0     59212771    12.683298    22.410367    13.179075    19.732236    33.267024   -91.418018    12.612127     22.30075    14.235163 
  274000     391.9273     59212844            0     59214369    12.683326    22.410333    13.179013    19.735006     33.26369   -91.424246    12.612127     22.30075    14.235163 
  274200    93.033346     59211316            0     59211678    12.683315    22.410354     13.17914    19.733956    33.265802   -91.411549    12.612127     22.30075    14.235163 
  274400    275.79769     59212379            0     59213453    12.683314    22.410353    13.179149    19.733818    33.265689   -91.410621    12.612127     22.30075    14.235163 
  274600    177.94775     59212231            0     59212924      12.6833    22.410371    13.179114    19.732404    33.267442   -91.414163    12.612127     22.30075    14.235163 
  274800    277.02624     59211136            0     59212214    12.683316    22.410353    13.178948    19.733999    33.265679   -91.430751    12.612127     22.30075    14.235163 
  275000    221.03034     59212090            0     59212950    12.683316    22.410353    13.178954    19.734001    33.265679   -91.430186    12.612127     22.30075    14.235163 
  275200     299.8662     59210911            0     59212079    12.683296    22.410391    13.179093    19.732066    33.269464   -91.416259    12.612127     22.30075    14.235163 
  275400     316.9872     59211231            0     59212465    12.683298    22.410354    13.179096    19.732211    33.265714   -91.416008    12.612127     22.30075    14.235163 
  275600    336.57846     59211224            0     59212534    12.683336    22.410347    13.179098    19.736041     33.26509   -91.415803    12.612127     22.30075    14.235163 
  275800    104.57258     59211862            0     59212269    12.683302    22.410332    13.178835    19.732644     33.26354   -91.442107    12.612127     22.30075    14.235163 
  276000    201.52027     59211521            0     59212305    12.683333    22.410336    13.179119    19.735798    33.263982   -91.413679    12.612127     22.30075    14.235163 
  276200    473.57601     59210921            0     59212765      12.6833    22.410348    13.179259    19.732487     33.26518   -91.399702    12.612127     22.30075    14.235163 
  276400    163.92075     59211809            0     59212447    12.683315    22.410366    13.179163    19.733966    33.266962   -91.409238    12.612127     22.30075    14.235163 
  276600    356.57746     59212286            0     59213675    12.683307    22.410372     13.17918    19.733123    33.267522    -91.40751    12.612127     22.30075    14.235163 
  276800     169.2757     59210676            0     59211335    12.683297    22.410367    13.178999    19.732172    33.267079   -91.425617    12.612127     22.30075    14.235163 
  277000    448.78054     59212435            0     59214182    12.683314    22.410369    13.178964    19.733814    33.267253     -91.4292    12.612127     22.30075    14.235163 
  277200      152.734     59212297            0     59212892    12.683315     22.41035    13.179219    19.733955    33.265354    -91.40364    12.612127     22.30075    14.235163 
  277400    178.43389     59211804            0     59212499    12.683307    22.410339    13.178972    19.733177    33.264208   -91.428413    12.612127     22.30075    14.235163 
  277600    284.17926     59212201            0     59213307     12.68331    22.410358    13.179171    19.733438    33.266127    -91.40848    12.612127     22.30075    14.235163 
  277800    248.10134     59211219            0     59212184    12.683302    22.410372    13.179269    19.732604    33.267557   -91.398612    12.612127     22.30075    14.235163 
  278000    248.77626     59211288            0     59212256    12.683352    22.410367    13.178822    19.737657    33.267022   -91.443327    12.612127     22.30075    14.235163 
  278200    145.90844     59211700            0     59212268    12.683328    22.410372    13.178957     19.73522     33.26757   -91.429894    12.612127     22.30075    14.235163 
  278400    66.000745     59212632            0     59212889    12.683333    22.410322    13.178948    19.735779    33.262564    -91.43077    12.612127     22.30075    14.235163 
  278600    205.09844     59211929            0     59212728    12.683283    22.410394    13.179082     19.73073    33.269715   -91.417354    12.612127     22.30075    14.235163 
  278800     305.3191     59211908            0     59213097    12.683336    22.410352    13.179197    19.736058    33.265565    -91.40582    12.612127     22.30075    14.235163 
  279000      209.449     59211220            0     59212035    12.683316    22.410293    13.178925    19.734055    33.259606   -91.433041    12.612127     22.30075    14.235163 
  279200    248.20353     59211371            0     59212337     12.68334    22.410384    13.179201    19.736417    33.268773   -91.405485    12.612127     22.30075    14.235163 
  279400    352.84097     59211480            0     59212854    12.683314    22.410355    13.178926    19.733893    33.265895   -91.432952    12.612127     22.30075    14.235163 
  279600    213.53436     59210864            0     59211695    12.683317    22.410353    13.179217    19.734174    33.265642   -91.403822    12.612127     22.30075    14.235163 
  279800    111.30991     59210835            0     59211269    12.683308     22.41039    13.179044    19.733268    33.269314    -91.42115    12.612127     22.30075    14.235163 
  280000    334.54071     59211198            0     59212500    12.683313    22.410363    13.179184    19.733704    33.266626   -91.407196    12.612127     22.30075    14.235163 
  280200    147.35455     59211378            0     59211951    12.683339    22.410328    13.179073    19.736387     33.26314   -91.418272    12.612127     22.30075    14.235163 
  280400    146.64682     59211028            0     59211598    12.683332    22.410337    13.178999    19.735623    33.264103   -91.425666    12.612127     22.30075    14.235163 
  280600    183.10859     59211913            0     59212626     12.68331    22.410364    13.179024    19.733472     33.26672   -91.423142    12.612127     22.30075    14.235163 
  280800    346.21432     59210990            0     59212338    12.683316    22.410353    13.179016    19.733998    33.265679   -91.423955    12.612127     22.30075    14.235163 
  281000    168.57193     59211750            0     59212406    12.683322    22.410338    13.179112    19.734624    33.264177    -91.41432    12.612127     22.30075    14.235163 
  281200    246.49339     59211749            0     59212708    12.683303    22.410396    13.179139    19.732701    33.269927   -91.411651    12.612127     22.30075    14.235163 
  281400    216.58503     59211746            0     59212589    12.683322    22.410353    13.179164    19.734693    33.265706   -91.409167    12.612127     22.30075    14.235163 
  281600    193.91096     59210736            0     59211491    12.683318    22.410348    13.179086    19.734256     33.26517   -91.416997    12.612127     22.30075    14.235163 
  281800    223.85068     59211159            0     59212030    12.683308    22.410356    13.179022    19.733198    33.265958   -91.423396    12.612127     22.30075    14.235163 
  282000    165.31807     59211809            0     59212452    12.683305    22.410369    13.179029    19.732969    33.267244   -91.422649    12.612127     22.30075    14.235163 
  282200     133.7735     59211359            0     59211880    12.683316    22.410353    13.178793    19.733999    33.265678   -91.446225    12.612127     22.30075    14.235163 
  282400    396.28179     59212006            0     59213549    12.683308    22.410354    13.179171    19.733209     33.26572   -91.408474    12.612127     22.30075    14.235163 
  282600    377.15915     59211009            0     59212477    12.683318    22.410356    13.179088    19.734243    33.265932   -91.416746    12.612127     22.30075    14.235163 
  282800    216.43632     59210933            0     59211776     12.68331    22.410347    13.179108      19.7334    33.265025   -91.414765    12.612127     22.30075    14.235163 
  283000    169.23661     59212188            0     59212847    12.683314    22.410355    13.178903    19.733844     33.26585   -91.435275    12.612127     22.30075    14.235163 
  283200     188.1129     59211913            0     59212645    12.683304    22.410357    13.178842    19.732847    33.266079   -91.441348    12.612127     22.30075    14.235163 
  283400    210.99259     59211861            0     59212683     12.68335     22.41032    13.179149    19.737485    33.262321   -91.410644    12.612127     22.30075    14.235163 
  283600     108.8837     59210982            0     59211406    12.683327    22.410352    13.179017    19.735124    33.265511   -91.423843    12.612127     22.30075    14.235163 
  283800    236.39466     59211338            0     59212258    12.683315    22.410365    13.178946    19.733992    33.266819   -91.430925    12.612127     22.30075    14.235163 
  284000    32.714031     59211458            0     59211585    12.683356    22.410336    13.178993    19.738038    33.263989   -91.426285    12.612127     22.30075    14.235163 
  284200    345.74502     59211126            0     59212472    12.683317    22.410353     13.17912    19.734105    33.265693   -91.413548    12.612127     22.30075    14.235163 
  284400    210.75926     59211175            0     59211996    12.683349    22.410348     13.17904    19.737377    33.265109   -91.421547    12.612127     22.30075    14.235163 
  284600    258.18287     59211572            0     59212577    12.683299    22.410342    13.178985    19.732316    33.264544   -91.427061    12.612127     22.30075    14.235163 
  284800    159.15239     59211320            0     59211939    12.683316    22.410353    13.178938    19.733999    33.265679   -91.431782    12.612127     22.30075    14.235163 
  285000    333.47415     59211270            0     59212569    12.683336    22.410311    13.179179    19.736057    33.261505   -91.407685    12.612127     22.30075    14.235163 
  285200     175.0902     59211783            0     59212464    12.683324    22.410333    13.179227    19.734839    33.263663    -91.40282    12.612127     22.30075    14.235163 
  285400    89.238858     59212438            0     59212785    12.683315    22.410352    13.179249    19.733995    33.265551   -91.400702    12.612127     22.30075    14.235163 
  285600     136.7952     59211495            0     59212028    12.683307    22.410359    13.179067    19.733184    33.266251   -91.418876    12.612127     22.30075    14.235163 
  285800    242.12763     59212308            0     59213251     12.68332    22.410374    13.178829    19.734459    33.267722   -91.442655    12.612127     22.30075    14.235163 
  286000    254.57887     59211870            0     59212861    12.683317    22.410351    13.179141     19.73412    33.265486   -91.411433    12.612127     22.30075    14.235163 
  286200    168.54198     59212519            0     59213175    12.683337    22.410356    13.179191    19.736127    33.265948   -91.406463    12.612127     22.30075    14.235163 
  286400    253.68628     59211069            0     59212056    12.683333    22.410372    13.179065    19.735713    33.267519   -91.419096    12.612127     22.30075    14.235163 
  286600     310.4911     59211410            0     59212619     12.68329    22.410345    13.179139    19.731402    33.264858   -91.411706    12.612127     22.30075    14.235163 
  286800    310.79789     59211013            0     59212223    12.683296    22.410353    13.179108    19.732004    33.265693   -91.414731    12.612127     22.30075    14.235163 
  287000     140.3652     59212673            0     59213220    12.683312    22.410337    13.179093    19.733655    33.264033   -91.416223    12.612127     22.30075    14.235163 
  287200    220.08194     59210850            0     59211707    12.683322    22.410344    13.178927    19.734617    33.264744   -91.432859    12.612127     22.30075    14.235163 
  287400     285.2587     59210878            0     59211988     12.68339    22.410362    13.178963    19.741405    33.266538   -91.429228    12.612127     22.30075    14.235163 
  287600    108.68079     59212694            0     59213117    12.683305    22.410348    13.179153    19.732997     33.26517   -91.410273    12.612127     22.30075    14.235163 
  287800    263.82689     59211268            0     59212295    12.683295    22.410372    13.178814     19.73193    33.267604    -91.44415    12.612127     22.30075    14.235163 
  288000    277.49496     59211677            0     59212757    12.683309    22.410354    13.179095    19.733389    33.265713   -91.416067    12.612127     22.30075    14.235163 
  288200    356.57413     59211836            0     59213224     12.68333     22.41037    13.179186    19.735406    33.267367      -91.407    12.612127     22.30075    14.235163 
  288400    161.79914     59211073            0     59211703    12.683296    22.410354    13.179237    19.732077    33.265761   -91.401831    12.612127     22.30075    14.235163 
  288600    316.58876     59211881            0     59213113    12.683309    22.410367    13.179061    19.733368    33.267046   -91.419484    12.612127     22.30075    14.235163 
  288800    175.20176     59211206            0     59211888    12.683325    22.410348     13.17931    19.734954    33.265128   -91.394576    12.612127     22.30075    14.235163 
  289000    218.50687     59212074            0     59212925    12.683313    22.410357    13.178952    19.733789    33.266081   -91.430396    12.612127     22.30075    14.235163 
  289200    270.90851     59210849            0     59211903    12.683322    22.410353    13.179023     19.73468    33.265641   -91.423242    12.612127     22.30075    14.235163 
  289400    281.79724     59211436            0     59212533    12.683311    22.410339    13.179048    19.733575    33.264215   -91.420767    12.612127     22.30075    14.235163 
  289600    198.12945     59211894            0     59212665    12.683316    22.410356    13.179047    19.734089    33.265985   -91.420909    12.612127     22.30075    14.235163 
  289800    193.19096     59211162            0     59211914    12.683316    22.410354    13.179083    19.734022    33.265754   -91.417259    12.612127     22.30075    14.235163 
  290000    266.99573     59213133            0     59214172    12.683315    22.410353    13.178982    19.733996    33.265676   -91.427379    12.612127     22.30075    14.235163 
  290200     151.1791     59212570            0     59213159    12.683323    22.410354    13.178919      19.7347    33.265733   -91.433715    12.612127     22.30075    14.235163 
  290400    238.46703     59212038            0     59212966    12.683318    22.410356    13.179167    19.734199    33.266007   -91.408906    12.612127     22.30075    14.235163 
  290600     286.5822     59212215            0     59213331    12.683318    22.410338    13.178995     19.73424    33.264159   -91.426075    12.612127     22.30075    14.235163 
  290800    173.12642     59212215            0     59212889     12.68332     22.41035    13.179126    19.734478    33.265321   -91.412958    12.612127     22.30075    14.235163 
  291000     229.4734     59212261            0     59213155    12.683347    22.410351    13.179031    19.737187    33.265503   -91.422505    12.612127     22.30075    14.235163 
  291200     296.3672     59211738            0     59212892    12.683295    22.410354    13.178773    19.731996    33.265794   -91.448294    12.612127     22.30075    14.235163 
  291400    279.10976     59211778            0     59212864    12.683312    22.410366    13.179139    19.733663    33.266915   -91.411614    12.612127     22.30075    14.235163 
  291600    188.79394     59211832            0     59212567    12.683304    22.410371    13.178859    19.732847     33.26744   -91.439713    12.612127     22.30075    14.235163 
  291800    199.40102     59210890            0     59211667    12.683316    22.410353    13.179071    19.734001    33.265679   -91.418415    12.612127     22.30075    14.235163 
  292000    169.67598     59212415            0     59213075    12.683311    22.410362    13.178997    19.733566    33.266528   -91.425843    12.612127     22.30075    14.235163 
  292200    126.15048     59212166            0     59212657     12.68331    22.410364    13.179087    19.733465    33.266732   -91.416898    12.612127     22.30075    14.235163 
  292400    307.45262     59211265            0     59212462    12.683338    22.410352    13.179071    19.736263    33.265554   -91.418457    12.612127     22.30075    14.235163 
  292600    258.78817     59213023            0     59214031    12.683303    22.410385    13.178894    19.732708    33.268892   -91.436183    12.612127     22.30075    14.235163 
  292800    178.16302     59211661            0     59212355    12.683341    22.410352    13.179315    19.736518    33.265578   -91.394091    12.612127     22.30075    14.235163 
  293000    269.32954     59211932            0     59212981    12.683324    22.410337    13.179082    19.734802    33.264094   -91.417383    12.612127     22.30075    14.235163 
  293200    264.03201     59211088            0     59212116    12.683316    22.410353    13.178909       19.734    33.265678   -91.434691    12.612127     22.30075    14.235163 
  293400    236.97616     59211046            0     59211969    12.683316    22.410353    13.179012    19.734003    33.265678   -91.424388    12.612127     22.30075    14.235163 
  293600    193.20272     59211510            0     59212262    12.683332    22.410357    13.178972    19.735691    33.266078   -91.428378    12.612127     22.30075    14.235163 
  293800    325.64851     59211308            0     59212576    12.683325    22.410353    13.179101    19.734948    33.265653   -91.415477    12.612127     22.30075    14.235163 
  294000    284.36526     59211131            0     59212238    12.683333    22.410326    13.179095    19.735745    33.262943   -91.416092    12.612127     22.30075    14.235163 
  294200    348.89926     59211521            0     59212879    12.683331    22.410345    13.179239    19.735504    33.264854   -91.401668    12.612127     22.30075    14.235163 
  294400    113.90346     59213137            0     59213581    12.683313     22.41035    13.178531    19.733796    33.265364   -91.472525    12.612127     22.30075    14.235163 
  294600    162.41114     59211977            0     59212609    12.683334    22.410354    13.179085    19.735884    33.265711   -91.417038    12.612127     22.30075    14.235163 
  294800    317.44239     59212721            0     59213957    12.683311    22.410362    13.178891    19.733561    33.266566   -91.436464    12.612127     22.30075    14.235163 
  295000    186.97968     59211884            0     59212612    12.683316    22.410353    13.179153       19.734    33.265679   -91.410252    12.612127     22.30075    14.235163 
  295200     253.2754     59212715            0     59213701    12.683325     22.41037    13.178811     19.73494    33.267353   -91.444508    12.612127     22.30075    14.235163 
  295400    213.09796     59210978            0     59211807    12.683318    22.410362    13.179019    19.734275    33.266547   -91.423681    12.612127     22.30075    14.235163 
  295600    238.87239     59211105            0     59212035    12.683325    22.410368    13.179203    19.734971    33.267165   -91.405208    12.612127     22.30075    14.235163 
  295800    247.52432     59211542            0     59212506    12.683315    22.410353    13.178912    19.733982     33.26568   -91.434393    12.612127     22.30075    14.235163 
  296000    128.55447     59212255            0     59212755    12.683305     22.41034    13.179036    19.732957    33.264335   -91.421989    12.612127     22.30075    14.235163 
  296200    186.79749     59211698            0     59212425    12.683318    22.410337     13.17918    19.734234    33.264027   -91.407582    12.612127     22.30075    14.235163 
  296400    88.355961     59211857            0     59212201    12.683295    22.410354    13.179025    19.731977    33.265785   -91.423039    12.612127     22.30075    14.235163 
  296600    175.01371     59212355            0     59213036    12.683325    22.410351    13.178788    19.734989    33.265494    -91.44677    12.612127     22.30075    14.235163 
  296800     181.4707     59211689            0     59212395    12.683315    22.410352    13.179271     19.73397    33.265557   -91.398421    12.612127     22.30075    14.235163 
  297000    342.29357     59211832            0     59213165    12.683317    22.410353    13.179068    19.734105    33.265672   -91.418746    12.612127     22.30075    14.235163 
  297200    279.27896     59211964            0     59213051     12.68335    22.410356    13.179028    19.737432    33.265996   -91.422726    12.612127     22.30075    14.235163 
  297400     179.1172     59212062            0     59212759    12.683309    22.410343    13.178873    19.733366    33.264623   -91.438247    12.612127     22.30075    14.235163 
  297600    110.88342     59213346            0     59213778    12.683324    22.410351    13.179247    19.734867    33.265422   -91.400883    12.612127     22.30075    14.235163 
  297800    235.43525     59211349            0     59212265    12.683316    22.410352    13.179019    19.734085    33.265603   -91.423627    12.612127     22.30075    14.235163 
  298000    247.64798     59211764            0     59212728    12.683356     22.41037    13.179193    19.738052    33.267365   -91.406274    12.612127     22.30075    14.235163 
  298200    375.54569     59212463            0     59213925    12.683292    22.410352    13.178973    19.731623    33.265583   -91.428236    12.612127     22.30075    14.235163 
  298400    215.13005     59211948            0     59212786    12.683306    22.410322    13.178883    19.733046    33.262556   -91.437317    12.612127     22.30075    14.235163 
  298600    289.05829     59211281            0     59212407     12.68331    22.410346     13.17911    19.733423    33.264916   -91.414523    12.612127     22.30075    14.235163 
  298800    194.31256     59212513            0     59213269     12.68332    22.410341    13.179309    19.734465    33.264466   -91.394672    12.612127     22.30075    14.235163 
  299000    176.97061     59211993            0     59212682     12.68329    22.410361    13.179187    19.731442    33.266493   -91.406878    12.612127     22.30075    14.235163 
  299200    236.29462     59211843            0     59212763    12.683341    22.410353    13.178785    19.736579     33.26567   -91.447116    12.612127     22.30075    14.235163 
  299400    201.39854     59212892            0     59213676    12.683282    22.410335     13.17869    19.730657    33.263855   -91.456584    12.612127     22.30075    14.235163 
  299600    188.65787     59212463            0     59213197    12.683327    22.410365    13.178879    19.735167    33.266865   -91.437642    12.612127     22.30075    14.235163 
  299800    127.80101     59214157            0     59214655    12.683293    22.410327    13.178558    19.731767     33.26303   -91.469761    12.612127     22.30075    14.235163 
  300000    177.19113     59212598            0     59213288    12.683274    22.410361    13.178751    19.729869     33.26648   -91.450442    12.612127     22.30075    14.235163 
  300200    320.79742     59211830            0     59213079    12.683331    22.410319    13.178672    19.735576    33.262216   -91.458414    12.612127     22.30075    14.235163 
  300400    262.68758     59212327            0     59213349    12.683319    22.410371    13.178981    19.734307    33.267491   -91.427483    12.612127     22.30075    14.235163 
  300600    376.49376     59212747            0     59214213    12.683287    22.410322     13.17887    19.731195    33.262562    -91.43862    12.612127     22.30075    14.235163 
  300800    199.57683     59210927            0     59211704    12.683337     22.41035     13.17905    19.736104    33.265367     -91.4206    12.612127     22.30075    14.235163 
  301000    298.70446     59211845            0     59213008    12.683307    22.410379    13.179004    19.733177     33.26827   -91.425202    12.612127     22.30075    14.235163 
  301200    130.61077     59211421            0     59211929    12.683314    22.410369    13.178979     19.73385    33.267241   -91.427664    12.612127     22.30075    14.235163 
  301400    235.48283     59212414            0     59213331     12.68334    22.410309    13.178951    19.736474    33.261274   -91.430453    12.612127     22.30075    14.235163 
  301600    216.72194     59211658            0     59212501    12.683317    22.410356    13.178985    19.734143    33.265911   -91.427016    12.612127     22.30075    14.235163 
  301800    375.58578     59211735            0     59213197    12.683292    22.410355    13.179179     19.73163    33.265835   -91.407706    12.612127     22.30075    14.235163 
  302000    231.13361     59212005            0     59212905    12.683305     22.41034    13.179063    19.732943    33.264381   -91.419278    12.612127     22.30075    14.235163 
  302200    137.85112     59211024            0     59211561     12.68332    22.410352    13.178942     19.73445    33.265597   -91.431379    12.612127     22.30075    14.235163 
  302400    242.04391     59211994            0     59212937    12.683302    22.410336    13.178873    19.732623    33.264007   -91.438234    12.612127     22.30075    14.235163 
  302600    469.03759     59211829            0     59213655    12.683314    22.410353    13.179214    19.733869    33.265689   -91.404136    12.612127     22.30075    14.235163 
  302800    463.94935     59212175            0     59213981    12.683353    22.410344     13.17892    19.737708    33.264778   -91.433607    12.612127     22.30075    14.235163 
  303000    129.14396     59211601            0     59212104    12.683282    22.410326    13.178963    19.730601    33.262962   -91.429217    12.612127     22.30075    14.235163 
  303200    274.14845     59211151            0     59212218    12.683318    22.410322    13.179077    19.734261    33.262564   -91.417841    12.612127     22.30075    14.235163 
  303400    102.81013     59212220            0     59212620    12.683349    22.410341    13.178882    19.737355    33.264475   -91.437343    12.612127     22.30075    14.235163 
  303600    215.55576     59211728            0     59212567    12.683326    22.410364    13.179119    19.735089    33.266793   -91.413624    12.612127     22.30075    14.235163 
  303800    264.46274     59211206            0     59212235    12.683285     22.41034    13.178928    19.730901    33.264315   -91.432753    12.612127     22.30075    14.235163 
  304000    163.54752     59211333            0     59211970    12.683329    22.410322    13.179388     19.73536    33.262571   -91.386725    12.612127     22.30075    14.235163 
  304200    211.18633     59212625            0     59213447    12.683266    22.410356    13.179156    19.729011    33.265978   -91.409971    12.612127     22.30075    14.235163 
  304400    124.88129     59212351            0     59212837    12.683346    22.410344    13.179287    19.737074    33.264751   -91.396866    12.612127     22.30075    14.235163 
  304600    323.37219     59211283            0     59212542    12.683316    22.410352    13.179014    19.734044    33.265592   -91.424155    12.612127     22.30075    14.235163 
  304800    178.85935     59212440            0     59213136    12.683319    22.410358    13.179271    19.734331    33.266137   -91.398476    12.612127     22.30075    14.235163 
  305000    132.93576     59212162            0     59212679    12.683341    22.410325    13.179308    19.736541    33.262824    -91.39472    12.612127     22.30075    14.235163 
  305200    227.84498     59211727            0     59212614    12.683315    22.410352    13.179108    19.733937    33.265516   -91.414749    12.612127     22.30075    14.235163 
  305400      260.308     59213367            0     59214380      12.6833    22.410354    13.179158    19.732466    33.265772   -91.409794    12.612127     22.30075    14.235163 
  305600    459.95803     59211731            0     59213522    12.683321    22.410357     13.17918    19.734499    33.266099   -91.407541    12.612127     22.30075    14.235163 
  305800    184.49745     59212538            0     59213256    12.683314    22.410353    13.178913    19.733839    33.265687   -91.434237    12.612127     22.30075    14.235163 
  306000    72.070834     59212566            0     59212847    12.683323    22.410377    13.179091    19.734733    33.268077   -91.416431    12.612127     22.30075    14.235163 
  306200    306.25694     59212183            0     59213375    12.683316    22.410354    13.178869    19.734053    33.265797   -91.438687    12.612127     22.30075    14.235163 
  306400    320.95415     59212274            0     59213523     12.68333    22.410351    13.178987    19.735485     33.26549   -91.426861    12.612127     22.30075    14.235163 
  306600    421.89897     59212284            0     59213926    12.683315    22.410354    13.178869    19.733956    33.265744    -91.43868    12.612127     22.30075    14.235163 
  306800    189.53185     59211048            0     59211785     12.68329     22.41037    13.179165    19.731467    33.267399   -91.409094    12.612127     22.30075    14.235163 
  307000    329.08253     59211526            0     59212807     12.68331    22.410358    13.178921    19.733425    33.266137    -91.43351    12.612127     22.30075    14.235163 
  307200    312.63536     59213072            0     59214289    12.683314    22.410353    13.179012    19.733827    33.265685   -91.424355    12.612127     22.30075    14.235163 
  307400    292.42475     59210887            0     59212026    12.683363    22.410348    13.179041    19.738777    33.265145   -91.421498    12.612127     22.30075    14.235163 
  307600     254.4269     59211178            0     59212169    12.683329    22.410329    13.179095    19.735356    33.263238   -91.416083    12.612127     22.30075    14.235163 
  307800    432.06513     59211152            0     59212834    12.683323    22.410347    13.179257    19.734706    33.265047   -91.399805    12.612127     22.30075    14.235163 
  308000    125.69093     59211454            0     59211943    12.683334    22.410353    13.178899    19.735853    33.265677   -91.435671    12.612127     22.30075    14.235163 
  308200    267.83025     59211632            0     59212675    12.683333    22.410353    13.179127    19.735764    33.265696   -91.412878    12.612127     22.30075    14.235163 
  308400    170.26614     59212178            0     59212841    12.683316    22.410353    13.178794    19.734051    33.265676   -91.446203    12.612127     22.30075    14.235163 
  308600    306.16447     59211411            0     59212602     12.68331    22.410336    13.179006    19.733435    33.263962   -91.424962    12.612127     22.30075    14.235163 
  308800    142.81839     59211059            0     59211615    12.683303    22.410376    13.179137    19.732699    33.267953   -91.411856    12.612127     22.30075    14.235163 
  309000    276.11544     59210930            0     59212004    12.683312    22.410353    13.179181    19.733602    33.265679   -91.407436    12.612127     22.30075    14.235163 
  309200     161.1352     59211074            0     59211701    12.683319    22.410345    13.179042    19.734377    33.264837   -91.421318    12.612127     22.30075    14.235163 
  309400    128.46036     59212205            0     59212705    12.683314     22.41035    13.179193    19.733804    33.265376   -91.406238    12.612127     22.30075    14.235163 
  309600    313.64737     59212061            0     59213282    12.683307    22.410353    13.179136    19.733191    33.265619    -91.41195    12.612127     22.30075    14.235163 
  309800    88.424762     59212246            0     59212590    12.683315    22.410344    13.179032     19.73392    33.264798   -91.422321    12.612127     22.30075    14.235163 
  310000     471.4481     59211168            0     59213003    12.683302    22.410337    13.179165    19.732662    33.264049   -91.409093    12.612127     22.30075    14.235163 
  310200    267.82797     59211412            0     59212455    12.683297    22.410347    13.178961    19.732144    33.265099   -91.429468    12.612127     22.30075    14.235163 
  310400    197.55255     59212143            0     59212913    12.683303    22.410334    13.179001    19.732763    33.263773    -91.42542    12.612127     22.30075    14.235163 
  310600    329.80956     59210677            0     59211961    12.683316    22.410353    13.178937       19.734     33.26568   -91.431877    12.612127     22.30075    14.235163 
  310800    165.74935     59210908            0     59211554    12.683317    22.410372    13.179032    19.734154    33.267564   -91.422371    12.612127     22.30075    14.235163 
  311000    182.86664     59211196            0     59211908    12.683334    22.410407    13.179123    19.735873    33.271011   -91.413227    12.612127     22.30075    14.235163 
  311200    238.54966     59211527            0     59212455    12.683293    22.410349    13.179114    19.731707    33.265303   -91.414161    12.612127     22.30075    14.235163 
  311400    136.35684     59211118            0     59211649    12.683315    22.410353    13.179171    19.733996    33.265673   -91.408494    12.612127     22.30075    14.235163 
  311600    229.62396     59212283            0     59213177    12.683314    22.410353    13.179398     19.73385    33.265644   -91.385797    12.612127     22.30075    14.235163 
  311800    249.21804     59211688            0     59212658    12.683308    22.410359    13.178929    19.733225    33.266216    -91.43264    12.612127     22.30075    14.235163 
  312000    364.11674     59211174            0     59212591    12.683329    22.410374    13.178882    19.735349    33.267745   -91.437338    12.612127     22.30075    14.235163 
  312200    270.39981     59211344            0     59212396    12.683331    22.410333    13.178901    19.735571    33.263618   -91.435497    12.612127     22.30075    14.235163 
  312400    261.41192     59211548            0     59212566     12.68333    22.410352    13.179038    19.735414    33.265606   -91.421729    12.612127     22.30075    14.235163 
  312600    307.55646     59211370            0     59212567    12.683324    22.410349    13.179147    19.734863     33.26528   -91.410893    12.612127     22.30075    14.235163 
  312800    162.13053     59211094            0     59211725    12.683317    22.410363     13.17897    19.734149    33.266643     -91.4286    12.612127     22.30075    14.235163 
  313000    262.19153     59211605            0     59212626    12.683312    22.410359    13.179344    19.733652    33.266234   -91.391135    12.612127     22.30075    14.235163 
  313200    334.46733     59211578            0     59212880    12.683314    22.410356    13.179134    19.733841    33.265968   -91.412164    12.612127     22.30075    14.235163 
  313400    170.97556     59211326            0     59211991    12.683309    22.410359    13.179045    19.733318     33.26622   -91.421024    12.612127     22.30075    14.235163 
  313600     197.5204     59212142            0     59212911    12.683308    22.410376    13.178956    19.733276    33.268004   -91.430016    12.612127     22.30075    14.235163 
  313800    78.491126     59211556            0     59211862     12.68329    22.410371    13.179121     19.73142    33.267475   -91.413417    12.612127     22.30075    14.235163 
  314000    226.54285     59211317            0     59212199    12.683296    22.410356    13.178901    19.732025    33.265978   -91.435423    12.612127     22.30075    14.235163 
  314200     300.8379     59211007            0     59212178    12.683303    22.410364    13.179119    19.732736    33.266749   -91.413706    12.612127     22.30075    14.235163 
  314400    372.95455     59211233            0     59212685    12.683331    22.410354    13.179022    19.735562    33.265774   -91.423341    12.612127     22.30075    14.235163 
  314600    202.33036     59211466            0     59212254     12.68334    22.410344    13.178974    19.736475    33.264723   -91.428211    12.612127     22.30075    14.235163 
  314800    237.71325     59211559            0     59212484    12.683315    22.410343    13.178991    19.733948    33.264675   -91.426436    12.612127     22.30075    14.235163 
  315000    172.61804     59212157            0     59212829    12.683321    22.410353    13.179084      19.7345    33.265658   -91.417168    12.612127     22.30075    14.235163 
  315200    332.96869     59210819            0     59212115    12.683329     22.41032    13.178982    19.735324    33.262364   -91.427381    12.612127     22.30075    14.235163 
  315400    69.144548     59213052            0     59213321    12.683318    22.410352    13.178751    19.734263     33.26558   -91.450497    12.612127     22.30075    14.235163 
  315600    198.26566     59210613            0     59211385    12.683331    22.410346    13.179087     19.73558    33.264958   -91.416831    12.612127     22.30075    14.235163 
  315800    245.67973     59211624            0     59212580    12.683315    22.410353    13.178798    19.733946      33.2657   -91.445773    12.612127     22.30075    14.235163 
  316000    100.24896     59211241            0     59211631    12.683343    22.410347    13.179001    19.736747    33.265091   -91.425452    12.612127     22.30075    14.235163 
  316200    114.99182     59212616            0     59213063    12.683319    22.410335    13.179047    19.734321    33.263894   -91.420841    12.612127     22.30075    14.235163 
  316400    252.44731     59211416            0     59212399    12.683349    22.410327    13.179104    19.737309     33.26301   -91.415163    12.612127     22.30075    14.235163 
  316600     180.2803     59211137            0     59211839    12.683314    22.410343    13.179202    19.733814    33.264692   -91.405341    12.612127     22.30075    14.235163 
  316800      242.525     59211363            0     59212307    12.683295    22.410339    13.179138    19.731928    33.264252   -91.411783    12.612127     22.30075    14.235163 
  317000    96.564492     59211282            0     59211658    12.683315    22.410353    13.178996    19.733997    33.265684   -91.425965    12.612127     22.30075    14.235163 
  317200    93.257871     59212222            0     59212585    12.683306    22.410323    13.179271    19.733013    33.262696   -91.398455    12.612127     22.30075    14.235163 
  317400    285.83196     59210695            0     59211808    12.683316    22.410353    13.178974       19.734    33.265679   -91.428117    12.612127     22.30075    14.235163 
  317600    359.98933     59211251            0     59212653    12.683322    22.410392     13.17925    19.734603     33.26951   -91.400545    12.612127     22.30075    14.235163 
  317800     398.9959     59212065            0     59213618    12.683286    22.410351    13.179256     19.73103    33.265432   -91.399993    12.612127     22.30075    14.235163 
  318000    282.08328     59211696            0     59212794    12.683318    22.410349     13.17893    19.734277     33.26522   -91.432601    12.612127     22.30075    14.235163 
  318200    408.13123     59211243            0     59212832    12.683316    22.410353    13.178843    19.733999    33.265677   -91.441315    12.612127     22.30075    14.235163 
  318400    211.12834     59212919            0     59213740    12.683316     22.41035    13.178934    19.734034    33.265398   -91.432143    12.612127     22.30075    14.235163 
  318600    234.30782     59211121            0     59212033     12.68331     22.41035    13.179038    19.733464    33.265393   -91.421739    12.612127     22.30075    14.235163 
  318800    259.90567     59211866            0     59212877    12.683319    22.410334    13.179217    19.734382    33.263769   -91.403903    12.612127     22.30075    14.235163 
  319000    235.60036     59210882            0     59211799    12.683287    22.410357     13.17905    19.731111    33.266053   -91.420561    12.612127     22.30075    14.235163 
  319200    154.71288     59212468            0     59213070    12.683295    22.410371    13.178854    19.731966    33.267455   -91.440217    12.612127     22.30075    14.235163 
  319400    252.81112     59211443            0     59212427    12.683315    22.410355    13.179119     19.73392     33.26587   -91.413631    12.612127     22.30075    14.235163 
  319600    369.88861     59211777            0     59213217    12.683303    22.410364    13.178875    19.732734    33.266748   -91.438107    12.612127     22.30075    14.235163 
  319800    286.57507     59210548            0     59211664    12.683311    22.410372    13.178966     19.73356    33.267584   -91.428963    12.612127     22.30075    14.235163 
  320000    202.16608     59211978            0     59212765    12.683324     22.41034    13.178917    19.734877    33.264362     -91.4339    12.612127     22.30075    14.235163 
  320200    273.79782     59211331            0     59212397     12.68331    22.410353    13.179243    19.733454    33.265702    -91.40121    12.612127     22.30075    14.235163 
  320400    149.86242     59211164            0     59211747    12.683307    22.410404    13.179036    19.733106    33.270711   -91.421959    12.612127     22.30075    14.235163 
  320600      165.907     59213339            0     59213985    12.683358    22.410354     13.17881    19.738203    33.265808   -91.444592    12.612127     22.30075    14.235163 
  320800    183.06699     59212916            0     59213629    12.683314    22.410316    13.178791    19.733801    33.261943   -91.446512    12.612127     22.30075    14.235163 
  321000    257.11729     59213218            0     59214219    12.683323    22.410366    13.178744    19.734698    33.266991   -91.451147    12.612127     22.30075    14.235163 
  321200    152.40202     59213288            0     59213881    12.683329    22.410368    13.178903    19.735392     33.26719   -91.435263    12.612127     22.30075    14.235163 
  321400     327.4313     59211981            0     59213256    12.683312    22.410369    13.178821    19.733689    33.267263   -91.443486    12.612127     22.30075    14.235163 
  321600    212.80512     59213282            0     59214110    12.683324    22.410355     13.17893    19.734857    33.265873   -91.432598    12.612127     22.30075    14.235163 
  321800     225.2898     59211847            0     59212724     12.68329    22.410347    13.178825    19.731465    33.265062   -91.443101    12.612127     22.30075    14.235163 
  322000    138.42482     59211827            0     59212366    12.683321    22.410338    13.178722    19.734552    33.264147   -91.453423    12.612127     22.30075    14.235163 
  322200     113.6272     59211769            0     59212212    12.683329    22.410368    13.178999    19.735371    33.267199   -91.425664    12.612127     22.30075    14.235163 
  322400    318.09847     59210497            0     59211736    12.683308    22.410368    13.179175    19.733243    33.267174    -91.40801    12.612127     22.30075    14.235163 
  322600    254.65107     59212097            0     59213089    12.683305    22.410374    13.179155    19.732947    33.267766   -91.410076    12.612127     22.30075    14.235163 
  322800    231.40525     59212006            0     59212907    12.683323    22.410344    13.178986    19.734743    33.264714   -91.426961    12.612127     22.30075    14.235163 
  323000    118.57946     59211615            0     59212076    12.683328    22.410377    13.179148     19.73529    33.268043   -91.410767    12.612127     22.30075    14.235163 
  323200    361.65375     59212034            0     59213442    12.683305    22.410349    13.179017     19.73296    33.265271   -91.423838    12.612127     22.30075    14.235163 
  323400    194.80844     59211693            0     59212451    12.683315    22.410377    13.178821    19.733983    33.268065   -91.443497    12.612127     22.30075    14.235163 
  323600    344.68192     59211842            0     59213184    12.683316    22.410353    13.179014    19.733999    33.265679   -91.424159    12.612127     22.30075    14.235163 
  323800     318.8829     59211844            0     59213086    12.683323    22.410353    13.179068    19.734753    33.265637   -91.418769    12.612127     22.30075    14.235163 
  324000    122.20051     59211225            0     59211701    12.683327    22.410332    13.179192    19.735171    33.263593   -91.406333    12.612127     22.30075    14.235163 
  324200    191.76397     59210796            0     59211542    12.683345    22.410359    13.179176    19.736902    33.266301   -91.407981    12.612127     22.30075    14.235163 
  324400    266.38671     59212634            0     59213671     12.68333    22.410358    13.179181    19.735405    33.266163   -91.407464    12.612127     22.30075    14.235163 
  324600    168.00275     59211809            0     59212463    12.683314    22.410353    13.179236    19.733888    33.265637   -91.401918    12.612127     22.30075    14.235163 
  324800    223.68939     59212706            0     59213577    12.683301    22.410387     13.17879    19.732519     33.26902   -91.446563    12.612127     22.30075    14.235163 
  325000    239.74482     59211222            0     59212156    12.683352    22.410345    13.179009    19.737654    33.264903   -91.424656    12.612127     22.30075    14.235163 
  325200    388.57902     59212229            0     59213742    12.683328    22.410372    13.178984    19.735219    33.267545   -91.427211    12.612127     22.30075    14.235163 
  325400    155.90407     59211384            0     59211991    12.683322    22.410348    13.178992    19.734625    33.265125   -91.426347    12.612127     22.30075    14.235163 
  325600    329.61281     59213119            0     59214402    12.683315    22.410353    13.179247    19.733956    33.265704   -91.400869    12.612127     22.30075    14.235163 
  325800    151.69239     59210882            0     59211472    12.683335    22.410342    13.179201    19.735912    33.264509   -91.405431    12.612127     22.30075    14.235163 
  326000    142.12094     59211711            0     59212264    12.683332    22.410351    13.178916    19.735621    33.265442    -91.43399    12.612127     22.30075    14.235163 
  326200    69.909335     59211420            0     59211693    12.683365    22.410309    13.178864    19.738975    33.261278   -91.439147    12.612127     22.30075    14.235163 
  326400    267.03379     59211390            0     59212430    12.683331    22.410362    13.179015    19.735511    33.266583   -91.424047    12.612127     22.30075    14.235163 
  326600    230.00079     59210481            0     59211377    12.683332    22.410369     13.17913    19.735681    33.267282   -91.412565    12.612127     22.30075    14.235163 
  326800    154.43388     59211478            0     59212079    12.683303    22.410355    13.179078    19.732697    33.265859   -91.417809    12.612127     22.30075    14.235163 
  327000     320.8964     59212254            0     59213503    12.683325    22.410355    13.178914    19.734988    33.265833   -91.434138    12.612127     22.30075    14.235163 
  327200    126.71574     59211259            0     59211753    12.683315    22.410339    13.179208    19.733985    33.264249   -91.404707    12.612127     22.30075    14.235163 
  327400    331.61511     59211224            0     59212514    12.683311    22.410353    13.179045    19.733529    33.265704   -91.421017    12.612127     22.30075    14.235163 
  327600    217.61401     59211014            0     59211861    12.683317    22.410349    13.179102    19.734146    33.265225   -91.415328    12.612127     22.30075    14.235163 
  327800    169.14097     59211242            0     59211901    12.683338    22.410364    13.179135    19.736244    33.266787   -91.412096    12.612127     22.30075    14.235163 
  328000    196.02523     59210734            0     59211498    12.683283    22.410349    13.179164    19.730727    33.265284   -91.409143    12.612127     22.30075    14.235163 
  328200    243.37268     59211928            0     59212876    12.683316    22.410353    13.178938    19.734023    33.265677   -91.431762    12.612127     22.30075    14.235163 
  328400    172.82615     59210475            0     59211148    12.683329    22.410292    13.179018    19.735377    33.259547   -91.423726    12.612127     22.30075    14.235163 
  328600    325.62294     59212260            0     59213527    12.683331    22.410359    13.179301    19.735552    33.266239   -91.395477    12.612127     22.30075    14.235163 
  328800    234.05611     59211620            0     59212531    12.683327    22.410353    13.178908    19.735157    33.265615   -91.434722    12.612127     22.30075    14.235163 
  329000     220.4468     59213089            0     59213947    12.683316    22.410353    13.179163    19.733999    33.265678   -91.409223    12.612127     22.30075    14.235163 
  329200    350.98862     59211707            0     59213074    12.683291    22.410374    13.179314    19.731573    33.267789   -91.394155    12.612127     22.30075    14.235163 
  329400    176.83314     59211386            0     59212074    12.683327    22.410372    13.179212    19.735138    33.267536   -91.404344    12.612127     22.30075    14.235163 
  329600    292.39986     59211758            0     59212896    12.683319    22.410383    13.179016    19.734324    33.268648   -91.423936    12.612127     22.30075    14.235163 
  329800    218.18024     59211622            0     59212471    12.683292    22.410349    13.178989    19.731654    33.265292   -91.426684    12.612127     22.30075    14.235163 
  330000    201.65736     59210928            0     59211714    12.683327    22.410398    13.179135    19.735195    33.270158   -91.412065    12.612127     22.30075    14.235163 
  330200    180.66464     59211785            0     59212488     12.68331    22.410352     13.17897     19.73347    33.265595     -91.4286    12.612127     22.30075    14.235163 
  330400    282.30154     59210618            0     59211717    12.683344    22.410355     13.17912    19.736883    33.265837   -91.413552    12.612127     22.30075    14.235163 
  330600    185.42848     59211765            0     59212487    12.683313    22.410355    13.179022    19.733726    33.265868   -91.423377    12.612127     22.30075    14.235163 
  330800    256.30326     59210530            0     59211528    12.683329    22.410348    13.179065     19.73531    33.265181   -91.419032    12.612127     22.30075    14.235163 
  331000    322.29643     59212220            0     59213475    12.683339    22.410352    13.179006    19.736318     33.26556   -91.425013    12.612127     22.30075    14.235163 
  331200    250.99392     59211812            0     59212789    12.683312    22.410358    13.179106    19.733631    33.266165    -91.41501    12.612127     22.30075    14.235163 
  331400    131.26493     59212525            0     59213036    12.683343    22.410366    13.179116    19.736776    33.266909   -91.413996    12.612127     22.30075    14.235163 
  331600    221.43477     59211116            0     59211978    12.683314    22.410356    13.179048    19.733887    33.265926   -91.420765    12.612127     22.30075    14.235163 
  331800    200.28993     59210646            0     59211426    12.683316    22.410353    13.178971    19.734008     33.26569   -91.428463    12.612127     22.30075    14.235163 
  332000     129.8304     59212017            0     59212523     12.68331    22.410342    13.178966    19.733427    33.264512   -91.429014    12.612127     22.30075    14.235163 
  332200    120.33899     59211563            0     59212031    12.683301    22.410354    13.179065    19.732575    33.265759   -91.419066    12.612127     22.30075    14.235163 
  332400    176.28552     59211694            0     59212380    12.683328    22.410357    13.178974    19.735288    33.266037   -91.428139    12.612127     22.30075    14.235163 
  332600    333.92029     59212607            0     59213907    12.683335    22.410368    13.179454    19.735991    33.267192   -91.380174    12.612127     22.30075    14.235163 
  332800    247.56145     59211543            0     59212507    12.683329    22.410353    13.178978    19.735348    33.265677   -91.427788    12.612127     22.30075    14.235163 
  333000    239.17358     59212460            0     59213391    12.683307    22.410354    13.179278    19.733159    33.265721    -91.39774    12.612127     22.30075    14.235163 
  333200    246.98197     59211423            0     59212385    12.683314    22.410382    13.179083    19.733854    33.268545   -91.417222    12.612127     22.30075    14.235163 
  333400    290.59647     59212829            0     59213960    12.683344    22.410352    13.178962    19.736862    33.265523   -91.429357    12.612127     22.30075    14.235163 
  333600    237.70736     59211602            0     59212527    12.683331    22.410323    13.179115    19.735508    33.262696    -91.41404    12.612127     22.30075    14.235163 
  333800    373.99778     59212036            0     59213492    12.683319    22.410353    13.178994    19.734392    33.265695   -91.426126    12.612127     22.30075    14.235163 
  334000    149.23001     59213343            0     59213924    12.683293     22.41032    13.179344    19.731761    33.262362   -91.391126    12.612127     22.30075    14.235163 
  334200    343.23282     59211371            0     59212707    12.683309    22.410354    13.179137    19.733363    33.265742    -91.41185    12.612127     22.30075    14.235163 
  334400    309.60013     59212432            0     59213637    12.683325    22.410364    13.179093    19.734923    33.266735   -91.416284    12.612127     22.30075    14.235163 
  334600    384.58595     59211305            0     59212802    12.683316    22.410353    13.179186    19.734023    33.265657   -91.406963    12.612127     22.30075    14.235163 
  334800    384.23189     59211374            0     59212870    12.683327    22.410344    13.178777     19.73517    33.264782   -91.447849    12.612127     22.30075    14.235163 
  335000    79.619996     59212089            0     59212399    12.683315    22.410353    13.178862    19.733991    33.265667   -91.439382    12.612127     22.30075    14.235163 
  335200    221.15462     59211793            0     59212654    12.683315    22.410358    13.179025    19.733924    33.266174    -91.42306    12.612127     22.30075    14.235163 
  335400    180.27064     59211562            0     59212264    12.683265    22.410348    13.179032    19.728949    33.265155   -91.422317    12.612127     22.30075    14.235163 
  335600     363.3092     59211716            0     59213130     12.68331    22.410365    13.178901    19.733417    33.266828   -91.435495    12.612127     22.30075    14.235163 
  335800    196.48069     59212551            0     59213316    12.683282    22.410369    13.178981    19.730598    33.267248   -91.427487    12.612127     22.30075    14.235163 
  336000     165.9975     59212914            0     59213561    12.683293    22.410353    13.179186    19.731721    33.265694   -91.406972    12.612127     22.30075    14.235163 
  336200    249.95538     59211846            0     59212819    12.683314    22.410351     13.17879    19.733804    33.265488   -91.446558    12.612127     22.30075    14.235163 
  336400    240.48539     59211356            0     59212292    12.683291    22.410377    13.179061    19.731565    33.268068   -91.419445    12.612127     22.30075    14.235163 
  336600    229.31762     59211671            0     59212564    12.683362    22.410374    13.179069    19.738624    33.267803   -91.418674    12.612127     22.30075    14.235163 
  336800    235.68907     59211178            0     59212095    12.683325    22.410333    13.178948    19.734986    33.263651   -91.430782    12.612127     22.30075    14.235163 
  337000    146.75524     59211763            0     59212335    12.683307    22.410359    13.178989    19.733113    33.266218   -91.426691    12.612127     22.30075    14.235163 
  337200    295.80378     59211210            0     59212361    12.683319    22.410325    13.178998    19.734378    33.262876   -91.425735    12.612127     22.30075    14.235163 
  337400    113.28414     59210683            0     59211124     12.68329    22.410366    13.179148    19.731487    33.266933   -91.410777    12.612127     22.30075    14.235163 
  337600    204.19124     59211494            0     59212289    12.683308    22.410345    13.178953    19.733217    33.264879   -91.430294    12.612127     22.30075    14.235163 
  337800    186.65916     59211239            0     59211965    12.683316    22.410335    13.179061    19.734042    33.263882   -91.419426    12.612127     22.30075    14.235163 
  338000    196.18726     59211568            0     59212332    12.683271    22.410356    13.179251    19.729552    33.265929   -91.400485    12.612127     22.30075    14.235163 
  338200       79.771     59212193            0     59212503    12.683291    22.410357     13.17893    19.731542    33.266075   -91.432536    12.612127     22.30075    14.235163 
  338400    189.44297     59211275            0     59212012    12.683307    22.410347    13.178935    19.733184    33.265087   -91.432046    12.612127     22.30075    14.235163 
  338600    64.432856     59211401            0     59211652    12.683313    22.410349    13.179172    19.733745      33.2653   -91.408325    12.612127     22.30075    14.235163 
  338800    216.91788     59211141            0     59211985    12.683304    22.410354    13.178958    19.732834    33.265742   -91.429785    12.612127     22.30075    14.235163 
  339000    313.82733     59211693            0     59212914    12.683286    22.410354    13.178958     19.73105    33.265741   -91.429795    12.612127     22.30075    14.235163 
  339200    421.59046     59212126            0     59213767    12.683315    22.410353    13.179239    19.733983    33.265661   -91.401675    12.612127     22.30075    14.235163 
  339400    321.12327     59210932            0     59212182    12.683332    22.410343    13.178874    19.735649     33.26462   -91.438158    12.612127     22.30075    14.235163 
  339600    217.85619     59211646            0     59212494     12.68331    22.410364    13.178907    19.733437    33.266745   -91.434822    12.612127     22.30075    14.235163 
  339800    263.93741     59212426            0     59213454    12.683313    22.410354    13.178758    19.733788    33.265767   -91.449725    12.612127     22.30075    14.235163 
  340000    265.48843     59211702            0     59212736      12.6833    22.410384    13.179066    19.732433    33.268777   -91.418967    12.612127     22.30075    14.235163 
  340200    61.402418     59211705            0     59211944    12.683316    22.410353    13.179186       19.734    33.265678   -91.406942    12.612127     22.30075    14.235163 
  340400    140.49786     59211347            0     59211894    12.683298    22.410367    13.178979    19.732199    33.267097   -91.427634    12.612127     22.30075    14.235163 
  340600    238.54187     59211198            0     59212127    12.683313    22.410355     13.17902    19.733747    33.265848   -91.423567    12.612127     22.30075    14.235163 
  340800    174.89855     59212519            0     59213200    12.683347    22.410381    13.178986    19.737155    33.268466   -91.426985    12.612127     22.30075    14.235163 
  341000    364.03381     59211018            0     59212436    12.683327    22.410322     13.17906    19.735174    33.262574   -91.419545    12.612127     22.30075    14.235163 
  341200    147.13462     59211546            0     59212118    12.683266    22.410364    13.179069    19.729064    33.266753   -91.418699    12.612127     22.30075    14.235163 
  341400    304.11778     59212568            0     59213752    12.683318    22.410355    13.178689    19.734257    33.265827   -91.456699    12.612127     22.30075    14.235163 
  341600    188.25757     59212448            0     59213180    12.683318    22.410333    13.178884      19.7342    33.263614   -91.437139    12.612127     22.30075    14.235163 
  341800    299.99718     59210982            0     59212150    12.683335    22.410371    13.178937    19.735915    33.267471   -91.431898    12.612127     22.30075    14.235163 
  342000    293.63974     59211675            0     59212818    12.683309    22.410362    13.179233    19.733362    33.266606   -91.402233    12.612127     22.30075    14.235163 
  342200    338.14014     59210955            0     59212271    12.683314    22.410358    13.179115    19.733825    33.266168   -91.414052    12.612127     22.30075    14.235163 
  342400    134.72836     59213216            0     59213740    12.683302    22.410363    13.178985    19.732663     33.26664     -91.4271    12.612127     22.30075    14.235163 
  342600    100.81987     59211762            0     59212155    12.683288    22.410356    13.178782    19.731279     33.26599    -91.44736    12.612127     22.30075    14.235163 
  342800    230.82525     59211760            0     59212658    12.683359    22.410354    13.178998    19.738393    33.265725    -91.42573    12.612127     22.30075    14.235163 
  343000    371.64836     59212019            0     59213466    12.683336    22.410356    13.178793    19.736083    33.265962   -91.446276    12.612127     22.30075    14.235163 
  343200    301.79595     59213243            0     59214418     12.68331    22.410362    13.178886    19.733408     33.26651   -91.436944    12.612127     22.30075    14.235163 
  343400     160.3726     59211929            0     59212553    12.683341    22.410355    13.178933    19.736576     33.26581    -91.43229    12.612127     22.30075    14.235163 
  343600    278.73425     59213259            0     59214344    12.683315    22.410354    13.178964    19.733944     33.26578   -91.429176    12.612127     22.30075    14.235163 
  343800    151.17999     59212113            0     59212701    12.683305    22.410354    13.178999    19.732915    33.265739   -91.425711    12.612127     22.30075    14.235163 
  344000    177.27478     59211264            0     59211954    12.683315    22.410355    13.179067    19.733938    33.265891   -91.418889    12.612127     22.30075    14.235163 
  344200    270.28506     59210876            0     59211929    12.683338    22.410389     13.17914    19.736203    33.269285    -91.41158    12.612127     22.30075    14.235163 
  344400    181.19096     59212325            0     59213031    12.683316    22.410353      13.1788    19.734004    33.265678   -91.445556    12.612127     22.30075    14.235163 
  344600    263.93349     59211284            0     59212311    12.683302    22.410363    13.179077    19.732667    33.266681   -91.417897    12.612127     22.30075    14.235163 
  344800    248.25302     59210730            0     59211697    12.683337    22.410356    13.179108    19.736135     33.26596   -91.414741    12.612127     22.30075    14.235163 
  345000    468.07932     59211777            0     59213599    12.683342    22.410338    13.178907    19.736609     33.26418   -91.434838    12.612127     22.30075    14.235163 
  345200      353.892     59211743            0     59213121    12.683319    22.410356    13.179145    19.734315    33.265961   -91.411105    12.612127     22.30075    14.235163 
  345400    254.03586     59211357            0     59212346      12.6833    22.410338    13.178869    19.732451    33.264168   -91.438654    12.612127     22.30075    14.235163 
  345600    250.40219     59212270            0     59213245    12.683306    22.410356    13.178723    19.733068    33.266006   -91.453272    12.612127     22.30075    14.235163 
  345800    173.45361     59212143            0     59212819    12.683335    22.410353     13.17906    19.735959    33.265661   -91.419593    12.612127     22.30075    14.235163 
  346000    241.57305     59213249            0     59214189    12.683348    22.410351    13.179352    19.737287    33.265474   -91.390348    12.612127     22.30075    14.235163 
  346200    256.27579     59211337            0     59212335    12.683307    22.410366    13.178946    19.733171    33.266992   -91.430962    12.612127     22.30075    14.235163 
  346400    207.74657     59212422            0     59213231    12.683341    22.410351    13.179044     19.73659    33.265475   -91.421153    12.612127     22.30075    14.235163 
  346600     260.0917     59211793            0     59212805    12.683332    22.410371    13.178969    19.735666    33.267484   -91.428658    12.612127     22.30075    14.235163 
  346800    225.39581     59211294            0     59212171    12.683323    22.410372    13.179302    19.734763    33.267526   -91.395332    12.612127     22.30075    14.235163 
  347000    491.26538     59211058            0     59212970    12.683328    22.410369    13.178955    19.735236      33.2673   -91.430057    12.612127     22.30075    14.235163 
  347200    264.11104     59211386            0     59212414    12.683323    22.410376    13.178896    19.734748    33.267946    -91.43592    12.612127     22.30075    14.235163 
  347400    296.57845     59211622            0     59212776    12.683334    22.410352    13.179008    19.735839    33.265552   -91.424786    12.612127     22.30075    14.235163 
  347600    261.73414     59213172            0     59214190    12.683322    22.410353    13.179249    19.734686    33.265628   -91.400617    12.612127     22.30075    14.235163 
  347800    208.42809     59211719            0     59212530    12.683314    22.410359    13.179122    19.733871     33.26628    -91.41334    12.612127     22.30075    14.235163 
  348000    186.06249     59211974            0     59212698    12.683316    22.410353    13.179354    19.734007    33.265663   -91.390194    12.612127     22.30075    14.235163 
  348200    160.63657     59211541            0     59212166    12.683314    22.410353    13.179132    19.733832    33.265679   -91.412384    12.612127     22.30075    14.235163 
  348400    361.98246     59211674            0     59213083    12.683316    22.410353    13.179106    19.734021    33.265678   -91.414922    12.612127     22.30075    14.235163 
  348600    321.85301     59211458            0     59212711    12.683311    22.410349    13.178837    19.733524    33.265269   -91.441828    12.612127     22.30075    14.235163 
  348800     203.3163     59212922            0     59213713    12.683304    22.410336    13.179091    19.732873    33.263962   -91.416435    12.612127     22.30075    14.235163 
  349000     409.5431     59212132            0     59213726    12.683305    22.410337    13.178931    19.732948    33.264066    -91.43246    12.612127     22.30075    14.235163 
  349200    192.06072     59212039            0     59212787    12.683312    22.410353     13.17885    19.733641    33.265633   -91.440578    12.612127     22.30075    14.235163 
  349400    210.66286     59211180            0     59212000    12.683336    22.410344    13.178979    19.736042    33.264756   -91.427697    12.612127     22.30075    14.235163 
  349600    255.29084     59212860            0     59213854    12.683307    22.410345    13.179018    19.733142    33.264904   -91.423769    12.612127     22.30075    14.235163 
  349800    393.34179     59211618            0     59213149    12.683342    22.410359    13.179126    19.736613    33.266265   -91.412914    12.612127     22.30075    14.235163 
  350000    190.68862     59212059            0     59212802    12.683309    22.410369    13.178999    19.733331    33.267303   -91.425708    12.612127     22.30075    14.235163 
  350200    248.95123     59211040            0     59212009    12.683312    22.410361    13.179016    19.733607    33.266492   -91.423956    12.612127     22.30075    14.235163 
  350400    417.52336     59212382            0     59214008    12.683293    22.410354    13.178791    19.731698    33.265806   -91.446462    12.612127     22.30075    14.235163 
  350600    259.94242     59211152            0     59212164    12.683309    22.410362    13.179076    19.733303    33.266528   -91.417972    12.612127     22.30075    14.235163 
  350800    268.54902     59211966            0     59213011    12.683326    22.410337    13.179041    19.735075    33.264053   -91.421505    12.612127     22.30075    14.235163 
  351000    194.52373     59212290            0     59213047    12.683342    22.410366     13.17925    19.736631    33.266937   -91.400594    12.612127     22.30075    14.235163 
  351200    299.96699     59211411            0     59212579    12.683327    22.410353    13.179068    19.735143    33.265612   -91.418801    12.612127     22.30075    14.235163 
  351400    353.46451     59212078            0     59213454    12.683316    22.410353    13.179113       19.734    33.265679   -91.414299    12.612127     22.30075    14.235163 
  351600    236.66812     59211095            0     59212017    12.683293    22.410343     13.17891    19.731779    33.264672   -91.434566    12.612127     22.30075    14.235163 
  351800    217.98721     59212758            0     59213607     12.68331    22.410337    13.179153     19.73345    33.264008   -91.410246    12.612127     22.30075    14.235163 
  352000    159.38348     59213154            0     59213775    12.683308    22.410356    13.178643    19.733247     33.26591   -91.461245    12.612127     22.30075    14.235163 
  352200    193.15718     59213410            0     59214162    12.683323    22.410365    13.179245    19.734752    33.266883   -91.401011    12.612127     22.30075    14.235163 
  352400    241.64649     59211577            0     59212518    12.683309    22.410356    13.178838    19.733326    33.265927   -91.441735    12.612127     22.30075    14.235163 
  352600     306.8181     59212608            0     59213803    12.683304    22.410344    13.179399    19.732807    33.264795   -91.385688    12.612127     22.30075    14.235163 
  352800    419.14018     59212144            0     59213776    12.683331    22.410386    13.179063    19.735537    33.268959   -91.419242    12.612127     22.30075    14.235163 
  353000     245.1323     59212420            0     59213375    12.683318    22.410379    13.179015    19.734277    33.268278   -91.424066    12.612127     22.30075    14.235163 
  353200    407.34125     59211284            0     59212870     12.68334    22.410368    13.178976    19.736424     33.26718   -91.427947    12.612127     22.30075    14.235163 
  353400    236.48537     59211559            0     59212479    12.683339    22.410352    13.178777    19.736328    33.265551   -91.447901    12.612127     22.30075    14.235163 
  353600    156.35763     59210970            0     59211579    12.683323     22.41033    13.178999    19.734729    33.263372   -91.425634    12.612127     22.30075    14.235163 
  353800    214.49742     59211944            0     59212779     12.68333    22.410376    13.179229    19.735468    33.267947   -91.402626    12.612127     22.30075    14.235163 
  354000    190.07635     59210937            0     59211677    12.683309    22.410366    13.178938    19.733369    33.266931   -91.431741    12.612127     22.30075    14.235163 
  354200    149.83526     59211688            0     59212271    12.683296    22.410356     13.17902    19.732016    33.266005   -91.423532    12.612127     22.30075    14.235163 
  354400    311.99887     59212290            0     59213505    12.683329    22.410374    13.179276    19.735361    33.267763      -91.398    12.612127     22.30075    14.235163 
  354600    239.34737     59211577            0     59212509    12.683329    22.410395    13.179031    19.735338    33.269849   -91.422471    12.612127     22.30075    14.235163 
  354800    218.95293     59211493            0     59212345    12.683323    22.410372    13.179039    19.734765    33.267602   -91.421703    12.612127     22.30075    14.235163 
  355000    213.15748     59213821            0     59214651     12.68333    22.410371    13.179218    19.735402    33.267446   -91.403779    12.612127     22.30075    14.235163 
  355200    193.77756     59212188            0     59212942    12.683309    22.410382     13.17922    19.733326    33.268533   -91.403508    12.612127     22.30075    14.235163 
  355400      192.425     59212241            0     59212990    12.683311    22.410355    13.179007    19.733522     33.26587   -91.424862    12.612127     22.30075    14.235163 
  355600    264.06439     59210939            0     59211967    12.683334    22.410348    13.179056    19.735829    33.265109   -91.419994    12.612127     22.30075    14.235163 
  355800    161.30608     59211990            0     59212618    12.683348    22.410367    13.179045    19.737209    33.267078   -91.421016    12.612127     22.30075    14.235163 
  356000    262.90102     59211577            0     59212600    12.683326    22.410344    13.178931    19.735068    33.264727   -91.432418    12.612127     22.30075    14.235163 
  356200    278.02354     59212578            0     59213660    12.683319    22.410354    13.179202    19.734338    33.265795   -91.405332    12.612127     22.30075    14.235163 
  356400    387.78444     59212497            0     59214006    12.683315    22.410353    13.178996    19.733964    33.265653   -91.425941    12.612127     22.30075    14.235163 
  356600    238.95669     59212358            0     59213288    12.683309    22.410362    13.178881    19.733356    33.266605   -91.437519    12.612127     22.30075    14.235163 
  356800    165.43665     59211811            0     59212455    12.683331    22.410334    13.178793    19.735558    33.263718   -91.446235    12.612127     22.30075    14.235163 
  357000    210.93015     59211362            0     59212183    12.683303    22.410373     13.17931    19.732724    33.267611   -91.394577    12.612127     22.30075    14.235163 
  357200    68.605255     59212597            0     59212864    12.683301    22.410357    13.178997    19.732573    33.266015   -91.425871    12.612127     22.30075    14.235163 
  357400    182.64476     59211819            0     59212530    12.683304    22.410366    13.178831    19.732817    33.266956   -91.442509    12.612127     22.30075    14.235163 
  357600    204.05507     59211943            0     59212738    12.683301    22.410346    13.178704    19.732546    33.264988   -91.455226    12.612127     22.30075    14.235163 
  357800    275.51213     59212134            0     59213206    12.683317    22.410331    13.178772    19.734185    33.263473   -91.448369    12.612127     22.30075    14.235163 
  358000    153.24655     59214050            0     59214646    12.683296    22.410361    13.179042    19.732064    33.266461   -91.421331    12.612127     22.30075    14.235163 
  358200    272.27594     59210687            0     59211747    12.683338    22.410358    13.178943    19.736297    33.266169   -91.431301    12.612127     22.30075    14.235163 
  358400    269.15658     59211923            0     59212970    12.683308    22.410342     13.17931    19.733282    33.264581   -91.394525    12.612127     22.30075    14.235163 
  358600    204.23218     59212360            0     59213155    12.683353    22.410355    13.178993    19.737721    33.265866   -91.426266    12.612127     22.30075    14.235163 
  358800    233.14525     59212171            0     59213079    12.683317    22.410351    13.179164    19.734161    33.265485   -91.409188    12.612127     22.30075    14.235163 
  359000    212.11772     59211664            0     59212490    12.683376    22.410333    13.178882    19.740038    33.263633   -91.437354    12.612127     22.30075    14.235163 
  359200    340.66247     59211624            0     59212950    12.683306    22.410338    13.179195    19.733024    33.264182    -91.40604    12.612127     22.30075    14.235163 
  359400    220.79265     59211457            0     59212317    12.683327    22.410352    13.178846      19.7351    33.265587    -91.44093    12.612127     22.30075    14.235163 
  359600    205.41015     59213160            0     59213960    12.683323    22.410355    13.178966    19.734763    33.265868   -91.428931    12.612127     22.30075    14.235163 
  359800    308.95845     59211780            0     59212983    12.683358    22.410397    13.178959    19.738261    33.270084    -91.42962    12.612127     22.30075    14.235163 
  360000    280.64144     59212079            0     59213171     12.68328    22.410329    13.179041    19.730432    33.263209   -91.421479    12.612127     22.30075    14.235163 
  360200    231.59678     59211767            0     59212668     12.68334     22.41034    13.179202    19.736476     33.26432   -91.405331    12.612127     22.30075    14.235163 
  360400     207.4829     59212119            0     59212927    12.683328    22.410353    13.178945      19.7352    33.265695   -91.431087    12.612127     22.30075    14.235163 
  360600    475.81976     59211290            0     59213142    12.683316    22.410353    13.179123    19.734027    33.265677   -91.413247    12.612127     22.30075    14.235163 
  360800    182.20934     59211258            0     59211968    12.683274    22.410347    13.179022    19.729819    33.265075   -91.423324    12.612127     22.30075    14.235163 
  361000    167.24927     59211372            0     59212023    12.683288    22.410349    13.179082    19.731229    33.265268    -91.41737    12.612127     22.30075    14.235163 
  361200    272.32252     59211868            0     59212928    12.683263    22.410361    13.178916     19.72879    33.266489   -91.433972    12.612127     22.30075    14.235163 
  361400     213.1279     59211681            0     59212511    12.683307    22.410365    13.179216    19.733112    33.266885   -91.403915    12.612127     22.30075    14.235163 
  361600    182.97762     59210993            0     59211705    12.683292    22.410399    13.179121    19.731692     33.27022   -91.413493    12.612127     22.30075    14.235163 
  361800    375.20184     59212777            0     59214238    12.683327    22.410357    13.178963    19.735164    33.266088   -91.429299    12.612127     22.30075    14.235163 
  362000    344.55685     59211535            0     59212877    12.683316    22.410353    13.179043    19.734002    33.265675    -91.42123    12.612127     22.30075    14.235163 
  362200    261.40053     59212222            0     59213240     12.68331    22.410364    13.179091    19.733445    33.266803   -91.416481    12.612127     22.30075    14.235163 
  362400    162.07758     59211527            0     59212158    12.683316    22.410359    13.178973     19.73401    33.266246   -91.428277    12.612127     22.30075    14.235163 
  362600       224.71     59212360            0     59213235     12.68332    22.410339    13.179006     19.73442    33.264287   -91.424916    12.612127     22.30075    14.235163 
  362800    161.55396     59210829            0     59211458     12.68329    22.410342    13.178975    19.731406    33.264526   -91.428072    12.612127     22.30075    14.235163 
  363000    396.29567     59211802            0     59213345    12.683335    22.410316    13.179184    19.735908    33.261964   -91.407122    12.612127     22.30075    14.235163 
  363200    367.22256     59210614            0     59212043    12.683324    22.410359    13.179054    19.734847    33.266213   -91.420186    12.612127     22.30075    14.235163 
  363400    225.13567     59212465            0     59213341    12.683311    22.410328    13.179148    19.733559    33.263137   -91.410808    12.612127     22.30075    14.235163 
  363600    407.30382     59212637            0     59214223    12.683308    22.410354    13.179226    19.733219    33.265722   -91.402988    12.612127     22.30075    14.235163 
  363800    243.06083     59212154            0     59213100    12.683316    22.410352    13.179408     19.73404    33.265605   -91.384708    12.612127     22.30075    14.235163 
  364000    211.06042     59212388            0     59213210     12.68332    22.410355    13.178792    19.734445    33.265871   -91.446401    12.612127     22.30075    14.235163 
  364200    183.88927     59212333            0     59213049    12.683326    22.410378    13.179236    19.735052    33.268208   -91.401923    12.612127     22.30075    14.235163 
  364400    197.58697     59211014            0     59211783    12.683298    22.410344    13.178969    19.732273    33.264777   -91.428653    12.612127     22.30075    14.235163 
  364600    153.95913     59211802            0     59212401    12.683308    22.410304    13.178879    19.733232    33.260761    -91.43765    12.612127     22.30075    14.235163 
  364800    187.09546     59211274            0     59212002    12.683316    22.410353     13.17926       19.734    33.265679   -91.399528    12.612127     22.30075    14.235163 
  365000    233.21969     59211753            0     59212661    12.683324    22.410362    13.179302    19.734862    33.266564   -91.395349    12.612127     22.30075    14.235163 
  365200    370.25569     59212090            0     59213532    12.683297    22.410348    13.179314    19.732114    33.265109   -91.394168    12.612127     22.30075    14.235163 
  365400    259.38923     59211227            0     59212237    12.683326    22.410338    13.178729    19.735031    33.264134   -91.452642    12.612127     22.30075    14.235163 
  365600    237.21795     59212735            0     59213659    12.683342    22.410394    13.178501     19.73664    33.269722   -91.475444    12.612127     22.30075    14.235163 
  365800    193.87208     59212304            0     59213059    12.683323    22.410404    13.178836    19.734781    33.270768    -91.44196    12.612127     22.30075    14.235163 
  366000    218.50589     59211329            0     59212180    12.683338    22.410326    13.179208    19.736224    33.262923    -91.40473    12.612127     22.30075    14.235163 
  366200    319.11515     59211686            0     59212928     12.68331    22.410353    13.179042    19.733454    33.265657   -91.421406    12.612127     22.30075    14.235163 
  366400    304.80946     59212616            0     59213803    12.683313    22.410332    13.179118    19.733787    33.263518   -91.413771    12.612127     22.30075    14.235163 
  366600    544.07709     59211237            0     59213355    12.683291    22.410355     13.17891    19.731524    33.265858    -91.43454    12.612127     22.30075    14.235163 
  366800    291.06275     59211915            0     59213048    12.683329    22.410356    13.178826    19.735325    33.265935   -91.442988    12.612127     22.30075    14.235163 
  367000    82.794427     59211725            0     59212048    12.683325    22.410357    13.179105    19.734981    33.266102   -91.415034    12.612127     22.30075    14.235163 
  367200    275.21306     59211985            0     59213056    12.683287    22.410298    13.179106    19.731117    33.260146   -91.415003    12.612127     22.30075    14.235163 
  367400    189.54849     59211634            0     59212372    12.683359    22.410351    13.179011    19.738359    33.265424   -91.424437    12.612127     22.30075    14.235163 
  367600    261.67686     59212501            0     59213520    12.683291    22.410355    13.178683    19.731525    33.265836   -91.457286    12.612127     22.30075    14.235163 
  367800    253.21768     59212395            0     59213381      12.6833    22.410361    13.178426    19.732489    33.266425   -91.482975    12.612127     22.30075    14.235163 
  368000    284.80685     59214074            0     59215183      12.6833    22.410377    13.178251    19.732458     33.26805   -91.500517    12.612127     22.30075    14.235163 
  368200    463.94608     59213668            0     59215474    12.683316    22.410361    13.178706    19.734084    33.266458    -91.45499    12.612127     22.30075    14.235163 
  368400    367.25935     59211327            0     59212757    12.683316    22.410353    13.178732    19.734004     33.26568   -91.452335    12.612127     22.30075    14.235163 
  368600    70.229753     59211422            0     59211696    12.683277    22.410347     13.17873    19.730179     33.26503   -91.452548    12.612127     22.30075    14.235163 
  368800    149.77433     59212449            0     59213032    12.683316    22.410353    13.178819    19.734004    33.265685   -91.443625    12.612127     22.30075    14.235163 
  369000    242.61936     59212638            0     59213583    12.683316    22.410353    13.179254    19.734018    33.265678   -91.400129    12.612127     22.30075    14.235163 
  369200    232.74963     59213557            0     59214463    12.683301    22.410354    13.178605    19.732557    33.265753   -91.465094    12.612127     22.30075    14.235163 
  369400    278.60788     59211707            0     59212791    12.683292    22.410403    13.178858    19.731597    33.270619   -91.439752    12.612127     22.30075    14.235163 
  369600    281.19526     59211628            0     59212723    12.683308    22.410357    13.178827      19.7332    33.266063   -91.442837    12.612127     22.30075    14.235163 
  369800    255.24659     59211979            0     59212973    12.683298    22.410354     13.17907    19.732256    33.265775   -91.418584    12.612127     22.30075    14.235163 
  370000    214.69084     59212250            0     59213086    12.683292    22.410347    13.178877    19.731606    33.265082   -91.437894    12.612127     22.30075    14.235163 
  370200    208.15799     59211367            0     59212177    12.683308    22.410357    13.179046    19.733224    33.266075   -91.420922    12.612127     22.30075    14.235163 
  370400    116.57478     59212579            0     59213033    12.683318     22.41035    13.178861    19.734222     33.26534   -91.439468    12.612127     22.30075    14.235163 
  370600    144.98574     59212831            0     59213395    12.683312    22.410359    13.178745    19.733678    33.266285   -91.451052    12.612127     22.30075    14.235163 
  370800    137.85264     59210939            0     59211476    12.683327    22.410331     13.17889    19.735115    33.263424   -91.436552    12.612127     22.30075    14.235163 
  371000    567.31263     59210770            0     59212978    12.683287    22.410344    13.179012    19.731167    33.264793   -91.424332    12.612127     22.30075    14.235163 
  371200    196.47806     59211481            0     59212246    12.683291    22.410316    13.179103    19.731566    33.261978   -91.415257    12.612127     22.30075    14.235163 
  371400    234.23246     59211475            0     59212387    12.683286    22.410339     13.17909    19.731032    33.264225   -91.416596    12.612127     22.30075    14.235163 
  371600    335.49148     59211373            0     59212679    12.683323    22.410347    13.179153    19.734795    33.265052    -91.41022    12.612127     22.30075    14.235163 
  371800    220.94504     59211557            0     59212417    12.683312    22.410376    13.178982    19.733607    33.267992    -91.42732    12.612127     22.30075    14.235163 
  372000    199.59489     59212074            0     59212851    12.683307     22.41039    13.179207     19.73315    33.269398   -91.404847    12.612127     22.30075    14.235163 
  372200    202.73625     59212040            0     59212830    12.683292    22.410351    13.179065    19.731669    33.265443   -91.419076    12.612127     22.30075    14.235163 
  372400    335.56391     59211841            0     59213148      12.6833    22.410324    13.179069    19.732464    33.262739   -91.418624    12.612127     22.30075    14.235163 
  372600    402.22512     59211492            0     59213058    12.683321    22.410353    13.179108    19.734586    33.265694   -91.414796    12.612127     22.30075    14.235163 
  372800    334.99234     59211563            0     59212867    12.683312    22.410359    13.179325    19.733694    33.266233    -91.39305    12.612127     22.30075    14.235163 
  373000    309.38333     59210568            0     59211772    12.683316    22.410353    13.179042    19.734001    33.265679   -91.421387    12.612127     22.30075    14.235163 
  373200    385.98222     59211898            0     59213400    12.683324    22.410334    13.179058     19.73489    33.263735   -91.419769    12.612127     22.30075    14.235163 
  373400    385.76913     59211259            0     59212761     12.68332    22.410356    13.179064    19.734457    33.266001   -91.419113    12.612127     22.30075    14.235163 
  373600    150.42731     59211921            0     59212506    12.683307     22.41037    13.179079    19.733147    33.267339   -91.417709    12.612127     22.30075    14.235163 
  373800    260.91627     59211850            0     59212866    12.683334    22.410353    13.179097    19.735881    33.265647   -91.415872    12.612127     22.30075    14.235163 
  374000     174.4287     59212077            0     59212756    12.683316    22.410353    13.178984    19.734053    33.265676   -91.427164    12.612127     22.30075    14.235163 
  374200    183.91141     59211600            0     59212316    12.683316    22.410353    13.179007    19.734003    33.265656    -91.42482    12.612127     22.30075    14.235163 
  374400    358.18368     59210930            0     59212325    12.683313    22.410344    13.179208    19.733702    33.264786   -91.404756    12.612127     22.30075    14.235163 
  374600    271.39292     59211690            0     59212747    12.683315    22.410353    13.179044    19.733958    33.265678   -91.421125    12.612127     22.30075    14.235163 
  374800    254.91136     59212250            0     59213243    12.683315    22.410352    13.178893    19.733989    33.265541   -91.436301    12.612127     22.30075    14.235163 
  375000    106.86441     59211378            0     59211794    12.683316    22.410354    13.179097    19.734059    33.265799   -91.415887    12.612127     22.30075    14.235163 
  375200    233.62479     59212738            0     59213648    12.683315    22.410353    13.179095    19.733995    33.265672   -91.416036    12.612127     22.30075    14.235163 
  375400    362.37754     59211517            0     59212927    12.683315    22.410353    13.179031    19.733989    33.265683   -91.422457    12.612127     22.30075    14.235163 
  375600    327.54276     59211950            0     59213225    12.683296    22.410371    13.178914    19.732056    33.267486   -91.434149    12.612127     22.30075    14.235163 
  375800    224.17031     59212377            0     59213250    12.683306    22.410355    13.179112    19.733085    33.265872   -91.414323    12.612127     22.30075    14.235163 
  376000    142.75219     59211802            0     59212358    12.683312    22.410349    13.179082    19.733618    33.265282   -91.417324    12.612127     22.30075    14.235163 
  376200    275.50696     59212748            0     59213820    12.683287    22.410395    13.179356     19.73117    33.269847   -91.389974    12.612127     22.30075    14.235163 
  376400    230.06419     59211892            0     59212788    12.683317    22.410355    13.179086    19.734099    33.265819   -91.416925    12.612127     22.30075    14.235163 
  376600    292.21298     59211774            0     59212911    12.683332    22.410352    13.179223    19.735625    33.265537   -91.403211    12.612127     22.30075    14.235163 
  376800    493.92642     59211423            0     59213346    12.683328    22.410342    13.179159    19.735294    33.264601   -91.409648    12.612127     22.30075    14.235163 
  377000    81.902196     59212331            0     59212649    12.683275    22.410306    13.179054    19.729978    33.260989   -91.420198    12.612127     22.30075    14.235163 
  377200    169.05002     59211889            0     59212547    12.683316    22.410353    13.179392    19.734011    33.265697   -91.386321    12.612127     22.30075    14.235163 
  377400    240.30515     59211465            0     59212401    12.683308     22.41031    13.179221    19.733259    33.261377   -91.403483    12.612127     22.30075    14.235163 
  377600    201.64564     59210666            0     59211451    12.683292    22.410357    13.179127    19.731629     33.26608   -91.412903    12.612127     22.30075    14.235163 
  377800    333.39685     59211938            0     59213236     12.68332    22.410393     13.17902    19.734425    33.269669   -91.423606    12.612127     22.30075    14.235163 
  378000    251.23677     59211392            0     59212370    12.683315    22.410353     13.17912    19.733979    33.265681   -91.413605    12.612127     22.30075    14.235163 
  378200     169.2642     59211489            0     59212148    12.683307    22.410352    13.178829    19.733148    33.265574   -91.442688    12.612127     22.30075    14.235163 
  378400    310.53393     59211409            0     59212618     12.68332    22.410391     13.17887    19.734432    33.269454    -91.43854    12.612127     22.30075    14.235163 
  378600    260.83003     59211036            0     59212051    12.683341     22.41035    13.179091    19.736545    33.265347    -91.41647    12.612127     22.30075    14.235163 
  378800     311.6526     59212806            0     59214019    12.683315     22.41034     13.17929    19.733972    33.264308   -91.396555    12.612127     22.30075    14.235163 
  379000    149.01016     59211863            0     59212444    12.683374    22.410337    13.178909    19.739866    33.264074   -91.434627    12.612127     22.30075    14.235163 
  379200    256.11822     59212103            0     59213100    12.683322    22.410353    13.179147    19.734622    33.265634    -91.41081    12.612127     22.30075    14.235163 
  379400    385.31778     59212149            0     59213649    12.683304    22.410353    13.178976    19.732816    33.265612   -91.427987    12.612127     22.30075    14.235163 
  379600    240.13285     59213315            0     59214250    12.683279    22.410348    13.179131    19.730354    33.265146   -91.412499    12.612127     22.30075    14.235163 
  379800    281.77491     59211757            0     59212854    12.683308    22.410348    13.179097    19.733285    33.265126   -91.415844    12.612127     22.30075    14.235163 
  380000     289.2618     59211176            0     59212302    12.683315    22.410342    13.179028     19.73393     33.26457   -91.422747    12.612127     22.30075    14.235163 
  380200    273.76025     59211697            0     59212762    12.683296    22.410354    13.179091       19.732    33.265751   -91.416494    12.612127     22.30075    14.235163 
  380400     210.1204     59212256            0     59213074    12.683315    22.410353    13.179156    19.733937    33.265615   -91.409912    12.612127     22.30075    14.235163 
  380600    455.11649     59210917            0     59212688     12.68331    22.410353    13.179026    19.733454    33.265619    -91.42294    12.612127     22.30075    14.235163 
  380800     139.4211     59211071            0     59211614    12.683322    22.410341    13.179033     19.73464    33.264416   -91.422235    12.612127     22.30075    14.235163 
  381000    254.76911     59211966            0     59212957    12.683359    22.410394    13.179225    19.738319    33.269773   -91.403017    12.612127     22.30075    14.235163 
  381200    417.41534     59212222            0     59213847     12.68332    22.410333    13.179301    19.734443     33.26365   -91.395437    12.612127     22.30075    14.235163 
  381400    196.62166     59212100            0     59212865    12.683316    22.410372    13.179018    19.734082    33.267605   -91.423757    12.612127     22.30075    14.235163 
  381600    232.01658     59211994            0     59212897     12.68333    22.410352    13.179244    19.735487    33.265597   -91.401148    12.612127     22.30075    14.235163 
  381800    98.885885     59212561            0     59212946    12.683315    22.410375    13.179032    19.733919    33.267875   -91.422342    12.612127     22.30075    14.235163 
  382000    169.76517     59212185            0     59212846    12.683316    22.410353    13.179104    19.733998    33.265678   -91.415206    12.612127     22.30075    14.235163 
  382200    243.92601     59210422            0     59211371    12.683287    22.410365    13.179148    19.731102    33.266828   -91.410784    12.612127     22.30075    14.235163 
  382400    271.05925     59211710            0     59212765    12.683304    22.410376    13.179024    19.732868    33.267978   -91.423193    12.612127     22.30075    14.235163 
  382600    298.52127     59211243            0     59212405    12.683316    22.410353    13.179058    19.734044    33.265629   -91.419775    12.612127     22.30075    14.235163 
  382800    233.81518     59212674            0     59213584    12.683305    22.410374    13.178827    19.732983    33.267762    -91.44284    12.612127     22.30075    14.235163 
  383000    234.33589     59211227            0     59212139    12.683291     22.41035    13.179138    19.731498    33.265312   -91.411757    12.612127     22.30075    14.235163 
  383200    126.72715     59211349            0     59211842    12.683337    22.410407    13.178988    19.736113    33.271056   -91.426719    12.612127     22.30075    14.235163 
  383400    140.10436     59210900            0     59211445    12.683312    22.410358    13.179057    19.733639     33.26611   -91.419833    12.612127     22.30075    14.235163 
  383600    474.08799     59212025            0     59213871    12.683349    22.410354    13.178791    19.737307    33.265753   -91.446467    12.612127     22.30075    14.235163 
  383800    336.05722     59211061            0     59212369    12.683313    22.410318    13.179091    19.733739    33.262206   -91.416467    12.612127     22.30075    14.235163 
  384000    315.00384     59210822            0     59212049    12.683326     22.41036    13.179015    19.735063    33.266321   -91.424035    12.612127     22.30075    14.235163 
  384200    78.469209     59210988            0     59211294    12.683352    22.410338    13.178939    19.737631    33.264117   -91.431714    12.612127     22.30075    14.235163 
  384400    227.00267     59212508            0     59213392     12.68335    22.410331     13.17918    19.737435    33.263462   -91.407556    12.612127     22.30075    14.235163 
  384600    403.59169     59212812            0     59214383    12.683315    22.410353    13.179129    19.733921    33.265708   -91.412697    12.612127     22.30075    14.235163 
  384800    297.86242     59211592            0     59212751    12.683313    22.410337    13.179059     19.73372    33.264042    -91.41971    12.612127     22.30075    14.235163 
  385000    313.00397     59211272            0     59212490    12.683322    22.410373    13.178931    19.734621    33.267669   -91.432449    12.612127     22.30075    14.235163 
  385200    153.47682     59211274            0     59211871     12.68336    22.410337    13.178879    19.738427    33.264031   -91.437651    12.612127     22.30075    14.235163 
  385400      207.437     59212434            0     59213241    12.683362    22.410325    13.178963    19.738638    33.262811   -91.429291    12.612127     22.30075    14.235163 
  385600    186.25596     59211119            0     59211844    12.683349    22.410317    13.179225    19.737367    33.262094   -91.403077    12.612127     22.30075    14.235163 
  385800     355.2921     59211904            0     59213287    12.683343    22.410341    13.179108      19.7367    33.264501   -91.414738    12.612127     22.30075    14.235163 
  386000    270.33253     59212164            0     59213216    12.683315    22.410353    13.178735    19.733997     33.26568   -91.452055    12.612127     22.30075    14.235163 
  386200    200.98805     59211271            0     59212053    12.683312    22.410356    13.179014    19.733599    33.265968   -91.424212    12.612127     22.30075    14.235163 
  386400    339.29391     59212412            0     59213733    12.683319    22.410347    13.179248    19.734367     33.26506   -91.400711    12.612127     22.30075    14.235163 
  386600    129.53698     59211456            0     59211960    12.683298    22.410332    13.179041    19.732212    33.263595   -91.421451    12.612127     22.30075    14.235163 
  386800    237.27705     59211825            0     59212749    12.683335    22.410372    13.179122    19.735929    33.267591   -91.413316    12.612127     22.30075    14.235163 
  387000    160.71253     59212031            0     59212657    12.683327    22.410353    13.179057    19.735147    33.265621   -91.419856    12.612127     22.30075    14.235163 
  387200    266.64278     59210919            0     59211957    12.683322    22.410372      13.1791    19.734673    33.267527   -91.415584    12.612127     22.30075    14.235163 
  387400    240.63916     59211919            0     59212856    12.683316    22.410353    13.179105       19.734    33.265679   -91.415056    12.612127     22.30075    14.235163 
  387600    335.69376     59211137            0     59212444    12.683333     22.41032    13.179135    19.735699    33.262397   -91.412014    12.612127     22.30075    14.235163 
  387800    121.31189     59212006            0     59212478    12.683295    22.410344    13.179007    19.731985    33.264735   -91.424822    12.612127     22.30075    14.235163 
  388000    197.09035     59211772            0     59212540    12.683284    22.410359    13.179018    19.730848     33.26625   -91.423764    12.612127     22.30075    14.235163 
  388200    286.97913     59211361            0     59212479    12.683304    22.410335    13.178742    19.732808     33.26385   -91.451374    12.612127     22.30075    14.235163 
  388400    245.56457     59211890            0     59212846    12.683334    22.410352    13.179055    19.735869    33.265575   -91.420086    12.612127     22.30075    14.235163 
  388600    168.95023     59211480            0     59212138     12.68328    22.410357    13.178797    19.730449    33.266065     -91.4459    12.612127     22.30075    14.235163 
  388800    227.34476     59210332            0     59211217    12.683324    22.410333    13.179023    19.734831    33.263646   -91.423248    12.612127     22.30075    14.235163 
  389000    197.93627     59211202            0     59211973     12.68334    22.410336    13.179094    19.736498    33.264007   -91.416176    12.612127     22.30075    14.235163 
  389200    299.69809     59211598            0     59212765     12.68329    22.410355    13.178922    19.731419    33.265818   -91.433402    12.612127     22.30075    14.235163 
  389400    324.41392     59211454            0     59212717    12.683316    22.410353     13.17913       19.734    33.265679   -91.412525    12.612127     22.30075    14.235163 
  389600    216.38531     59211768            0     59212610    12.683316    22.410353    13.179105    19.734003    33.265673   -91.415018    12.612127     22.30075    14.235163 
  389800    209.40765     59210666            0     59211482    12.683346    22.410364    13.178865    19.737013    33.266711   -91.439028    12.612127     22.30075    14.235163 
  390000    297.67834     59210948            0     59212107    12.683347     22.41037    13.178985    19.737113    33.267397    -91.42704    12.612127     22.30075    14.235163 
  390200    233.63489     59211292            0     59212201    12.683311    22.410336     13.17887     19.73355    33.263968   -91.438539    12.612127     22.30075    14.235163 
  390400    385.57806     59211672            0     59213173    12.683289    22.410417    13.179228    19.731343    33.272055   -91.402713    12.612127     22.30075    14.235163 
  390600    289.72987     59211749            0     59212877    12.683326    22.410347    13.179272    19.735028    33.265054   -91.398361    12.612127     22.30075    14.235163 
  390800     417.4027     59213019            0     59214644    12.683316    22.410353    13.178934    19.734052    33.265676   -91.432155    12.612127     22.30075    14.235163 
  391000    319.58865     59211158            0     59212402    12.683316    22.410353    13.179089    19.733999    33.265679   -91.416664    12.612127     22.30075    14.235163 
  391200    198.21109     59211550            0     59212322    12.683351    22.410351    13.179128    19.737517     33.26549   -91.412768    12.612127     22.30075    14.235163 
  391400    221.27456     59210813            0     59211674    12.683298     22.41038     13.17907    19.732264    33.268331   -91.418585    12.612127     22.30075    14.235163 
  391600    420.48732     59211392            0     59213029    12.683316    22.410353    13.179228    19.734004    33.265671     -91.4028    12.612127     22.30075    14.235163 
  391800    396.04348     59211619            0     59213161    12.683276    22.410326    13.179148    19.730047    33.263006   -91.410727    12.612127     22.30075    14.235163 
  392000    166.42607     59211260            0     59211908    12.683316    22.410353    13.179057    19.734008    33.265681   -91.419832    12.612127     22.30075    14.235163 
  392200    283.80659     59211793            0     59212898    12.683315    22.410347    13.179028    19.733993    33.265068     -91.4228    12.612127     22.30075    14.235163 
  392400      170.294     59211104            0     59211767     12.68333    22.410348    13.179109    19.735409    33.265204   -91.414638    12.612127     22.30075    14.235163 
  392600    345.11629     59212825            0     59214169    12.683306    22.410354    13.178655    19.733024    33.265766   -91.460078    12.612127     22.30075    14.235163 
  392800    268.74867     59212531            0     59213577    12.683307    22.410335      13.1787    19.733122    33.263821    -91.45562    12.612127     22.30075    14.235163 
  393000    237.53412     59212151            0     59213076      12.6833    22.410365    13.178824    19.732489    33.266888   -91.443126    12.612127     22.30075    14.235163 
  393200    227.79387     59212966            0     59213853    12.683315    22.410367    13.178692     19.73395    33.267081   -91.456382    12.612127     22.30075    14.235163 
  393400    228.10005     59213183            0     59214071    12.683303    22.410378    13.179155    19.732725    33.268152   -91.410017    12.612127     22.30075    14.235163 
  393600    333.92637     59211605            0     59212905    12.683324    22.410355    13.179152    19.734833    33.265863   -91.410404    12.612127     22.30075    14.235163 
  393800    252.66636     59212252            0     59213236    12.683303    22.410352    13.179067    19.732742    33.265546   -91.418842    12.612127     22.30075    14.235163 
  394000    78.751584     59211746            0     59212053    12.683322    22.410347     13.17929    19.734656    33.265101   -91.396598    12.612127     22.30075    14.235163 
  394200    374.69436     59211077            0     59212536    12.683356    22.410351    13.178855    19.738016    33.265445   -91.440058    12.612127     22.30075    14.235163 
  394400    124.03713     59211475            0     59211958    12.683311    22.410394     13.17895    19.733531    33.269784   -91.430539    12.612127     22.30075    14.235163 
  394600     282.7426     59211241            0     59212342     12.68334    22.410338    13.178913    19.736454    33.264168   -91.434285    12.612127     22.30075    14.235163 
  394800    212.15451     59212087            0     59212913     12.68334    22.410352    13.178942    19.736405    33.265511   -91.431383    12.612127     22.30075    14.235163 
  395000    247.34679     59211447            0     59212410    12.683282    22.410349    13.178922    19.730617    33.265266   -91.433354    12.612127     22.30075    14.235163 
  395200    337.29667     59211728            0     59213041    12.683307    22.410381    13.179159     19.73312    33.268474   -91.409688    12.612127     22.30075    14.235163 
  395400    342.77348     59210707            0     59212042    12.683328    22.410329    13.179153    19.735206    33.263289   -91.410307    12.612127     22.30075    14.235163 
  395600    344.50719     59211614            0     59212955    12.683316    22.410354    13.178983     19.73405    33.265771   -91.427245    12.612127     22.30075    14.235163 
  395800    288.12059     59212001            0     59213123    12.683297     22.41036    13.179317    19.732122    33.266374   -91.393897    12.612127     22.30075    14.235163 
  396000    224.65273     59211810            0     59212685    12.683316    22.410353    13.178907       19.734    33.265679   -91.434861    12.612127     22.30075    14.235163 
  396200    197.64783     59210777            0     59211546    12.683336     22.41035    13.178842    19.736047    33.265314   -91.441419    12.612127     22.30075    14.235163 
  396400    263.27456     59211729            0     59212754    12.683321    22.410342    13.179048     19.73457    33.264549   -91.420764    12.612127     22.30075    14.235163 
  396600    233.64878     59211758            0     59212668    12.683316    22.410314    13.178768    19.734054    33.261714   -91.448739    12.612127     22.30075    14.235163 
  396800     141.6336     59212805            0     59213356    12.683348    22.410373    13.178644     19.73726    33.267695    -91.46119    12.612127     22.30075    14.235163 
  397000    463.29285     59213111            0     59214915    12.683285    22.410347    13.178717     19.73097    33.265091   -91.453829    12.612127     22.30075    14.235163 
  397200    154.22791     59211488            0     59212088    12.683302    22.410367     13.17885    19.732613    33.267029   -91.440587    12.612127     22.30075    14.235163 
  397400    98.827669     59211831            0     59212216    12.683329    22.410333    13.178815    19.735313    33.263638   -91.444033    12.612127     22.30075    14.235163 
  397600    178.52173     59212616            0     59213311    12.683292     22.41036    13.179015    19.731671    33.266377   -91.424055    12.612127     22.30075    14.235163 
  397800    331.52805     59214188            0     59215478    12.683301    22.410351    13.179099    19.732551     33.26543   -91.415646    12.612127     22.30075    14.235163 
  398000    246.24037     59211064            0     59212023    12.683333    22.410353    13.179033    19.735774    33.265662   -91.422224    12.612127     22.30075    14.235163 
  398200    125.89922     59212364            0     59212854    12.683312    22.410354    13.178967    19.733669     33.26576    -91.42891    12.612127     22.30075    14.235163 
  398400    284.91165     59212390            0     59213500    12.683316    22.410353    13.178931    19.734001    33.265679   -91.432442    12.612127     22.30075    14.235163 
  398600     195.0957     59212381            0     59213141    12.683306    22.410353    13.179026    19.733011    33.265628   -91.422997    12.612127     22.30075    14.235163 
  398800    100.69832     59212877            0     59213269    12.683316    22.410353     13.17916    19.734003    33.265657   -91.409554    12.612127     22.30075    14.235163 
  399000    280.85371     59211996            0     59213090    12.683315    22.410353    13.179066    19.733995    33.265672   -91.418968    12.612127     22.30075    14.235163 
  399200    270.04391     59212405            0     59213456    12.683314    22.410353    13.179116    19.733887    33.265685   -91.413977    12.612127     22.30075    14.235163 
  399400    69.820957     59212080            0     59212352    12.683329    22.410356    13.179125    19.735381    33.265923    -91.41311    12.612127     22.30075    14.235163 
  399600    221.85536     59211512            0     59212375    12.683309    22.410358    13.179195    19.733376    33.266181   -91.406024    12.612127     22.30075    14.235163 
  399800    323.32498     59211300            0     59212559    12.683346    22.410352    13.179072    19.737003     33.26551   -91.418331    12.612127     22.30075    14.235163 
  400000    334.36883     59211122            0     59212424    12.683304    22.410363    13.178851    19.732802     33.26666   -91.440427    12.612127     22.30075    14.235163 
  400200    377.77773     59211589            0     59213059    12.683317    22.410371    13.178833    19.734161    33.267467   -91.442283    12.612127     22.30075    14.235163 
  400400    209.68078     59211599            0     59212415    12.683322    22.410353    13.178956    19.734646    33.265646   -91.430013    12.612127     22.30075    14.235163 
  400600    251.98191     59210940            0     59211921      12.6833     22.41035    13.179095    19.732398    33.265395   -91.416095    12.612127     22.30075    14.235163 
  400800    154.36279     59211720            0     59212321    12.683299    22.410384       13.179    19.732394    33.268807   -91.425608    12.612127     22.30075    14.235163 
  401000    381.82227     59212203            0     59213690    12.683307    22.410344    13.179065    19.733162    33.264718   -91.419083    12.612127     22.30075    14.235163 
  401200    295.32509     59211177            0     59212327    12.683316    22.410354    13.179096    19.733998    33.265717    -91.41594    12.612127     22.30075    14.235163 
  401400    143.08268     59211824            0     59212381    12.683319     22.41034    13.179226    19.734379    33.264316   -91.402915    12.612127     22.30075    14.235163 
  401600    129.40531     59211176            0     59211680    12.683332     22.41031    13.179074    19.735689    33.261381   -91.418185    12.612127     22.30075    14.235163 
  401800    327.59728     59211008            0     59212283    12.683323    22.410361    13.179079    19.734789     33.26641   -91.417688    12.612127     22.30075    14.235163 
  402000    225.24713     59212261            0     59213137    12.683315    22.410353    13.178893    19.733996    33.265667   -91.436288    12.612127     22.30075    14.235163 
  402200    340.89389     59210715            0     59212042    12.683327     22.41033    13.179142    19.735176    33.263356   -91.411333    12.612127     22.30075    14.235163 
  402400    207.21511     59211122            0     59211929    12.683287    22.410351    13.179051    19.731195    33.265458   -91.420428    12.612127     22.30075    14.235163 
  402600    235.51005     59212081            0     59212998    12.683313    22.410357    13.179148    19.733792    33.266103   -91.410729    12.612127     22.30075    14.235163 
  402800    276.43521     59210940            0     59212016     12.68332    22.410395    13.178993    19.734464     33.26986   -91.426246    12.612127     22.30075    14.235163 
  403000    205.14358     59211715            0     59212514    12.683275     22.41036    13.178762     19.72996    33.266341   -91.449368    12.612127     22.30075    14.235163 
  403200    245.54997     59211664            0     59212620    12.683304    22.410353    13.178853    19.732865    33.265682    -91.44027    12.612127     22.30075    14.235163 
  403400    354.29354     59210403            0     59211782    12.683322     22.41033    13.179066    19.734688    33.263388   -91.419011    12.612127     22.30075    14.235163 
  403600    257.65895     59210278            0     59211281    12.683315    22.410386    13.179085    19.733937    33.268958    -91.41704    12.612127     22.30075    14.235163 
  403800     269.5976     59211346            0     59212396    12.683326    22.410355    13.178974    19.735038    33.265896   -91.428204    12.612127     22.30075    14.235163 
  404000    319.84358     59211409            0     59212654    12.683321    22.410361    13.178995    19.734519    33.266489   -91.426113    12.612127     22.30075    14.235163 
  404200     239.9364     59211871            0     59212805    12.683322    22.410334    13.179132    19.734686    33.263798   -91.412357    12.612127     22.30075    14.235163 
  404400    232.97992     59211073            0     59211980      12.6833    22.410354    13.179037    19.732399    33.265767   -91.421885    12.612127     22.30075    14.235163 
  404600    366.42635     59211748            0     59213175     12.68332    22.410338    13.178838    19.734463    33.264167   -91.441726    12.612127     22.30075    14.235163 
  404800    391.42727     59211364            0     59212888    12.683306    22.410325    13.179013    19.733065    33.262828   -91.424277    12.612127     22.30075    14.235163 
  405000    169.23506     59212001            0     59212660    12.683319    22.410358    13.179021    19.734326    33.266113   -91.423493    12.612127     22.30075    14.235163 
  405200    202.16825     59211163            0     59211950    12.683316    22.410353    13.179011    19.733999    33.265679   -91.424468    12.612127     22.30075    14.235163 
  405400    172.01267     59213043            0     59213712    12.683317     22.41035    13.179228    19.734162      33.2654   -91.402761    12.612127     22.30075    14.235163 
  405600    345.91216     59211543            0     59212890    12.683316    22.410353    13.178847       19.734    33.265679   -91.440873    12.612127     22.30075    14.235163 
  405800    128.46114     59213119            0     59213619    12.683316    22.410353    13.178894    19.734011    33.265679   -91.436183    12.612127     22.30075    14.235163 
  406000    504.62345     59212083            0     59214048    12.683309    22.410364    13.179242    19.733361    33.266746   -91.401345    12.612127     22.30075    14.235163 
  406200     283.9898     59211403            0     59212509    12.683315    22.410353    13.179139    19.733899    33.265682   -91.411693    12.612127     22.30075    14.235163 
  406400    378.05911     59211522            0     59212994    12.683311    22.410353    13.178999    19.733569    33.265697   -91.425619    12.612127     22.30075    14.235163 
  406600    211.96214     59211131            0     59211956    12.683342    22.410351    13.179186     19.73665    33.265461   -91.406946    12.612127     22.30075    14.235163 
  406800    356.12565     59211316            0     59212702    12.683317    22.410353    13.178873      19.7341    33.265639   -91.438258    12.612127     22.30075    14.235163 
  407000    216.39929     59210736            0     59211579    12.683316    22.410353     13.17898    19.733999    33.265679   -91.427596    12.612127     22.30075    14.235163 
  407200    179.17586     59212068            0     59212765    12.683334    22.410354    13.179123    19.735888    33.265768   -91.413261    12.612127     22.30075    14.235163 
  407400    262.25378     59211763            0     59212784    12.683333    22.410382    13.179205    19.735748    33.268556   -91.405054    12.612127     22.30075    14.235163 
  407600    101.29939     59213239            0     59213633    12.683384    22.410308    13.178788    19.740835    33.261197   -91.446756    12.612127     22.30075    14.235163 
  407800    445.38299     59210769            0     59212503    12.683316    22.410348    13.179063    19.734012      33.2652   -91.419271    12.612127     22.30075    14.235163 
  408000    132.18196     59211607            0     59212121    12.683297    22.410354    13.179217     19.73216    33.265782   -91.403869    12.612127     22.30075    14.235163 
  408200    241.06919     59211074            0     59212012    12.683292    22.410344     13.17891    19.731637    33.264793    -91.43453    12.612127     22.30075    14.235163 
  408400      287.361     59211960            0     59213078    12.683304    22.410376    13.178661    19.732845    33.267943   -91.459468    12.612127     22.30075    14.235163 
  408600    332.29943     59211178            0     59212472    12.683314     22.41035    13.179265    19.733822    33.265394   -91.399016    12.612127     22.30075    14.235163 
  408800      228.493     59211899            0     59212789    12.683338    22.410325    13.179135    19.736253    33.262849   -91.412033    12.612127     22.30075    14.235163 
  409000    443.44551     59212432            0     59214158    12.683312    22.410345    13.178862    19.733663     33.26486   -91.439395    12.612127     22.30075    14.235163 
  409200    291.35801     59211280            0     59212415    12.683323    22.410363    13.178853    19.734705    33.266636   -91.440267    12.612127     22.30075    14.235163 
  409400     417.8532     59210082            0     59211709    12.683312    22.410335    13.179101    19.733674    33.263862   -91.415457    12.612127     22.30075    14.235163 
  409600    286.57973     59211126            0     59212242    12.683298    22.410355    13.179101    19.732209    33.265896   -91.415458    12.612127     22.30075    14.235163 
  409800    291.75048     59211978            0     59213114    12.683327    22.410382    13.179057    19.735113    33.268589   -91.419905    12.612127     22.30075    14.235163 
  410000    272.75939     59212379            0     59213441    12.683315    22.410353    13.179077    19.733938    33.265682   -91.417819    12.612127     22.30075    14.235163 
  410200    263.37491     59211386            0     59212411    12.683339    22.410318    13.178773    19.736355    33.262116    -91.44828    12.612127     22.30075    14.235163 
  410400    210.60999     59211838            0     59212658    12.683314    22.410351    13.179177    19.733836    33.265418   -91.407828    12.612127     22.30075    14.235163 
  410600    309.06227     59212312            0     59213515     12.68332    22.410378     13.17897    19.734407    33.268181   -91.428535    12.612127     22.30075    14.235163 
  410800    132.79743     59211168            0     59211685    12.683311    22.410353    13.179121    19.733564    33.265704   -91.413491    12.612127     22.30075    14.235163 
  411000    182.82352     59212150            0     59212861    12.683317     22.41035    13.179204    19.734111    33.265357   -91.405172    12.612127     22.30075    14.235163 
  411200    272.32399     59211511            0     59212571    12.683326    22.410341    13.178921    19.735061    33.264503   -91.433425    12.612127     22.30075    14.235163 
  411400    115.95633     59213490            0     59213941    12.683306    22.410369    13.179212    19.733088    33.267284   -91.404384    12.612127     22.30075    14.235163 
  411600    266.04167     59211483            0     59212518    12.683306    22.410366    13.179209    19.732998       33.267   -91.404672    12.612127     22.30075    14.235163 
  411800    248.62186     59211191            0     59212159    12.683289    22.410333    13.179143    19.731391    33.263672   -91.411276    12.612127     22.30075    14.235163 
  412000    225.13691     59211906            0     59212782    12.683336    22.410347    13.179295    19.736064    33.265065   -91.396072    12.612127     22.30075    14.235163 
  412200    205.62435     59211841            0     59212642    12.683303    22.410379     13.17895    19.732723    33.268262   -91.430604    12.612127     22.30075    14.235163 
  412400    152.91923     59211870            0     59212465    12.683332    22.410398    13.178874    19.735619    33.270144   -91.438145    12.612127     22.30075    14.235163 
  412600    329.40986     59211437            0     59212720    12.683316    22.410349    13.179129     19.73405    33.265303   -91.412646    12.612127     22.30075    14.235163 
  412800    152.67834     59211798            0     59212392    12.683289    22.410327    13.178686    19.731312    33.263077   -91.456929    12.612127     22.30075    14.235163 
  413000    194.59846     59212073            0     59212830    12.683294    22.410358    13.179168    19.731805    33.266197    -91.40871    12.612127     22.30075    14.235163 
  413200    246.18506     59211708            0     59212666    12.683302    22.410343    13.179421     19.73268    33.264685   -91.383493    12.612127     22.30075    14.235163 
  413400    162.54787     59211613            0     59212246    12.683321    22.410353    13.179125    19.734508    33.265641   -91.413034    12.612127     22.30075    14.235163 
  413600    74.296584     59211907            0     59212196    12.683333    22.410333     13.17898    19.735737    33.263668   -91.427525    12.612127     22.30075    14.235163 
  413800    93.349842     59212442            0     59212806    12.683285    22.410355    13.178818    19.730939    33.265849   -91.443819    12.612127     22.30075    14.235163 
  414000    214.10258     59212613            0     59213447    12.683332    22.410341    13.179049    19.735649    33.264507   -91.420676    12.612127     22.30075    14.235163 
  414200    309.82771     59212213            0     59213419    12.683307    22.410347    13.178971    19.733099    33.265083   -91.428424    12.612127     22.30075    14.235163 
  414400      149.431     59211642            0     59212223    12.683314    22.410332    13.179168    19.733828    33.263535   -91.408803    12.612127     22.30075    14.235163 
  414600    217.07743     59211557            0     59212402    12.683298    22.410336    13.179114    19.732289    33.263954   -91.414192    12.612127     22.30075    14.235163 
  414800    340.03255     59211959            0     59213283     12.68331    22.410345    13.179012     19.73344    33.264813   -91.424359    12.612127     22.30075    14.235163 
  415000    342.59335     59211961            0     59213295    12.683312    22.410361    13.179116    19.733624     33.26644   -91.413962    12.612127     22.30075    14.235163 
  415200    328.07569     59212222            0     59213500    12.683291    22.410367    13.178848    19.731518    33.267108    -91.44074    12.612127     22.30075    14.235163 
  415400    169.59977     59211264            0     59211924    12.683275    22.410356    13.179058     19.72993    33.265919   -91.419719    12.612127     22.30075    14.235163 
  415600    334.91591     59211428            0     59212732    12.683332    22.410363     13.17876    19.735638    33.266612   -91.449555    12.612127     22.30075    14.235163 
  415800    263.10931     59211502            0     59212526    12.683296    22.410352    13.179118    19.732089    33.265604   -91.413743    12.612127     22.30075    14.235163 
  416000    355.19416     59212931            0     59214313    12.683307    22.410353    13.179076    19.733107    33.265679    -91.41794    12.612127     22.30075    14.235163 
  416200    281.02927     59211519            0     59212613    12.683341    22.410354    13.178911    19.736593     33.26572   -91.434467    12.612127     22.30075    14.235163 
  416400    203.93684     59212053            0     59212846    12.683333    22.410333    13.178898    19.735699    33.263613   -91.435756    12.612127     22.30075    14.235163 
  416600    274.61704     59212224            0     59213294    12.683324    22.410378    13.179359    19.734861    33.268115   -91.389684    12.612127     22.30075    14.235163 
  416800     266.5635     59212821            0     59213859    12.683329    22.410353    13.179129    19.735322    33.265629   -91.412655    12.612127     22.30075    14.235163 
  417000    149.01833     59211620            0     59212200    12.683312    22.410353    13.178964    19.733608      33.2657   -91.429214    12.612127     22.30075    14.235163 
  417200     282.4499     59211805            0     59212904    12.683282    22.410336    13.179146    19.730663    33.263962   -91.410952    12.612127     22.30075    14.235163 
  417400    116.04363     59211818            0     59212270    12.683321    22.410339    13.179127    19.734566    33.264272   -91.412908    12.612127     22.30075    14.235163 
  417600    83.431857     59213079            0     59213404    12.683313    22.410349    13.178832    19.733794    33.265249   -91.442422    12.612127     22.30075    14.235163 
  417800    310.65882     59211450            0     59212659    12.683347    22.410351    13.179053    19.737138    33.265495   -91.420237    12.612127     22.30075    14.235163 
  418000    183.42797     59212077            0     59212791    12.683313    22.410331    13.178801    19.733698    33.263453   -91.445478    12.612127     22.30075    14.235163 
  418200    255.23957     59212323            0     59213317    12.683295    22.410324    13.179019    19.731991    33.262788   -91.423693    12.612127     22.30075    14.235163 
  418400    195.39648     59211595            0     59212355     12.68335     22.41034    13.178835    19.737467    33.264403   -91.442064    12.612127     22.30075    14.235163 
  418600     165.0031     59211757            0     59212400    12.683315    22.410355    13.179177    19.733922    33.265833   -91.407815    12.612127     22.30075    14.235163 
  418800    219.60653     59211627            0     59212482    12.683316    22.410353    13.178987    19.733999    33.265679   -91.426897    12.612127     22.30075    14.235163 
  419000    172.87115     59211694            0     59212367    12.683357    22.410383    13.178936    19.738168     33.26863   -91.431971    12.612127     22.30075    14.235163 
  419200    197.02487     59210773            0     59211540    12.683289    22.410354    13.179156    19.731395    33.265786   -91.409932    12.612127     22.30075    14.235163 
  419400    156.72172     59212750            0     59213360    12.683298    22.410353    13.179139    19.732275    33.265609   -91.411668    12.612127     22.30075    14.235163 
  419600    237.20941     59211252            0     59212176    12.683309    22.410338     13.17901     19.73334    33.264171   -91.424584    12.612127     22.30075    14.235163 
  419800     152.0772     59211653            0     59212245     12.68327    22.410354    13.178912    19.729456    33.265807   -91.434368    12.612127     22.30075    14.235163 
  420000    156.79672     59210725            0     59211335    12.683328    22.410352    13.178937    19.735266    33.265604   -91.431871    12.612127     22.30075    14.235163 
  420200     261.4704     59212326            0     59213344     12.68335    22.410341    13.179332    19.737407    33.264408    -91.39236    12.612127     22.30075    14.235163 
  420400    123.54341     59211652            0     59212133    12.683292    22.410337    13.179204    19.731628    33.264034   -91.405142    12.612127     22.30075    14.235163 
  420600    163.58581     59211317            0     59211954    12.683315    22.410353    13.179035      19.7339    33.265689   -91.422067    12.612127     22.30075    14.235163 
  420800     192.4285     59212033            0     59212782    12.683293    22.410354    13.178855    19.731762    33.265803    -91.44011    12.612127     22.30075    14.235163 
  421000    148.31256     59212075            0     59212653     12.68334    22.410374    13.179251      19.7364    33.267718    -91.40043    12.612127     22.30075    14.235163 
  421200    272.97019     59211516            0     59212578    12.683316    22.410353    13.179085    19.734027     33.26563   -91.417034    12.612127     22.30075    14.235163 
  421400    111.64671     59211340            0     59211775    12.683308    22.410384    13.178964    19.733237    33.268785   -91.429175    12.612127     22.30075    14.235163 
  421600    242.30339     59211605            0     59212548      12.6833    22.410381    13.179114    19.732452    33.268476    -91.41413    12.612127     22.30075    14.235163 
  421800    395.45357     59212468            0     59214007    12.683313    22.410329     13.17925    19.733777    33.263291   -91.400547    12.612127     22.30075    14.235163 
  422000    235.88692     59212492            0     59213411    12.683324    22.410336    13.178979     19.73485    33.263965   -91.427646    12.612127     22.30075    14.235163 
  422200    219.84078     59210844            0     59211700    12.683316    22.410354    13.178983    19.734067    33.265761   -91.427277    12.612127     22.30075    14.235163 
  422400    305.83207     59212578            0     59213769    12.683315    22.410353     13.17901    19.733966    33.265674   -91.424594    12.612127     22.30075    14.235163 
  422600    183.40272     59211334            0     59212048    12.683316    22.410353    13.178846    19.734024    33.265678   -91.441021    12.612127     22.30075    14.235163 
  422800    238.16266     59212297            0     59213224    12.683314    22.410357    13.179124    19.733827    33.266021   -91.413174    12.612127     22.30075    14.235163 
  423000    489.28288     59211378            0     59213283    12.683328    22.410353    13.179064    19.735212    33.265698   -91.419131    12.612127     22.30075    14.235163 
  423200    271.91125     59211491            0     59212549    12.683297    22.410357     13.17897    19.732192    33.266063   -91.428564    12.612127     22.30075    14.235163 
  423400    442.16064     59211816            0     59213537    12.683319    22.410347    13.179382    19.734314    33.265011   -91.387332    12.612127     22.30075    14.235163 
  423600    316.23838     59211708            0     59212939     12.68331    22.410372    13.178806    19.733422    33.267606   -91.444978    12.612127     22.30075    14.235163 
  423800    131.85214     59211567            0     59212080    12.683279    22.410355    13.178818     19.73038    33.265905   -91.443767    12.612127     22.30075    14.235163 
  424000    294.21212     59211482            0     59212628    12.683316    22.410353    13.179186       19.734    33.265679    -91.40695    12.612127     22.30075    14.235163 
  424200    310.99309     59210951            0     59212161    12.683307    22.410368    13.179024    19.733135    33.267169   -91.423211    12.612127     22.30075    14.235163 
  424400    189.63714     59210272            0     59211011    12.683326    22.410353     13.17907    19.735053    33.265679   -91.418554    12.612127     22.30075    14.235163 
  424600    196.80476     59212011            0     59212777    12.683321    22.410358    13.178711    19.734519    33.266181   -91.454503    12.612127     22.30075    14.235163 
  424800    270.95475     59214037            0     59215092    12.683327    22.410341    13.178585     19.73519     33.26442   -91.467104    12.612127     22.30075    14.235163 
  425000    322.49148     59211877            0     59213133    12.683284    22.410386    13.178666    19.730892    33.268927   -91.458938    12.612127     22.30075    14.235163 
  425200    196.33313     59212693            0     59213457    12.683356    22.410354    13.178374    19.738019    33.265739   -91.488162    12.612127     22.30075    14.235163 
  425400    196.89346     59212595            0     59213361    12.683333    22.410347    13.178398    19.735788    33.265073   -91.485826    12.612127     22.30075    14.235163 
  425600    206.55441     59213226            0     59214030    12.683307    22.410353    13.178446    19.733177    33.265689   -91.481012    12.612127     22.30075    14.235163 
  425800    357.72159     59212933            0     59214325    12.683318     22.41031    13.178391    19.734234    33.261357   -91.486505    12.612127     22.30075    14.235163 
  426000    212.00648     59212636            0     59213461    12.683304    22.410372    13.178722    19.732813    33.267575   -91.453338    12.612127     22.30075    14.235163 
  426200    234.74469     59211553            0     59212467    12.683324    22.410374    13.178841    19.734846    33.267748   -91.441471    12.612127     22.30075    14.235163 
  426400    144.83246     59212271            0     59212835    12.683278    22.410333    13.179175     19.73026    33.263657   -91.408021    12.612127     22.30075    14.235163 
  426600    267.27314     59212368            0     59213408    12.683323    22.410339    13.179054    19.734735    33.264218   -91.420201    12.612127     22.30075    14.235163 
  426800    184.52922     59210573            0     59211292     12.68334    22.410336    13.179083    19.736404    33.263916   -91.417254    12.612127     22.30075    14.235163 
  427000    67.135529     59211714            0     59211976    12.683315    22.410353    13.179231     19.73397    33.265686   -91.402478    12.612127     22.30075    14.235163 
  427200    280.90667     59212559            0     59213653    12.683314    22.410363    13.179007    19.733877    33.266673   -91.424819    12.612127     22.30075    14.235163 
  427400     239.7267     59212152            0     59213085    12.683309    22.410359    13.178965    19.733317    33.266234   -91.429074    12.612127     22.30075    14.235163 
  427600    422.41896     59212131            0     59213775    12.683314     22.41035     13.17932    19.733828    33.265404    -91.39356    12.612127     22.30075    14.235163 
  427800    274.29316     59212936            0     59214003    12.683321    22.410343    13.179071    19.734536     33.26469   -91.418506    12.612127     22.30075    14.235163 
  428000    294.28642     59210783            0     59211929    12.683341    22.410382    13.179126     19.73659    33.268608   -91.412997    12.612127     22.30075    14.235163 
  428200    299.64282     59211873            0     59213039    12.683332    22.410345     13.17929    19.735682    33.264836   -91.396566    12.612127     22.30075    14.235163 
  428400    155.81952     59212133            0     59212740    12.683316    22.410353    13.178747    19.734006    33.265679   -91.450834    12.612127     22.30075    14.235163 
  428600    277.83523     59210190            0     59211271    12.683315    22.410353    13.179134    19.733979    33.265697   -91.412124    12.612127     22.30075    14.235163 
  428800     250.7819     59211836            0     59212812    12.683311    22.410361     13.17945     19.73354    33.266479   -91.380584    12.612127     22.30075    14.235163 
  429000    198.27077     59212095            0     59212867    12.683315    22.410358     13.17922    19.733949    33.266114   -91.403554    12.612127     22.30075    14.235163 
  429200    204.65731     59210850            0     59211646    12.683323    22.410341    13.179061    19.734699    33.264452    -91.41944    12.612127     22.30075    14.235163 
  429400    389.83108     59211934            0     59213451    12.683322    22.410375    13.178985    19.734634     33.26785   -91.427061    12.612127     22.30075    14.235163 
  429600    166.82894     59211083            0     59211732    12.683333    22.410345    13.178955    19.735698    33.264862   -91.430083    12.612127     22.30075    14.235163 
  429800    437.59294     59212650            0     59214354    12.683302    22.410379     13.17905    19.732694    33.268218   -91.420597    12.612127     22.30075    14.235163 
  430000     226.6514     59212104            0     59212987    12.683314    22.410356    13.179266    19.733847     33.26599   -91.398918    12.612127     22.30075    14.235163 
  430200     302.2153     59211533            0     59212709    12.683294     22.41039       13.179    19.731813    33.269368   -91.425523    12.612127     22.30075    14.235163 
  430400     111.8245     59212023            0     59212459    12.683316    22.410353    13.179006       19.734    33.265678   -91.425001    12.612127     22.30075    14.235163 
  430600    183.58415     59211521            0     59212236    12.683337     22.41035    13.179054    19.736115    33.265334   -91.420201    12.612127     22.30075    14.235163 
  430800    158.67269     59212765            0     59213382    12.683316    22.410349    13.179003     19.73408    33.265221   -91.425275    12.612127     22.30075    14.235163 
  431000    292.72431     59212359            0     59213498    12.683318    22.410352    13.178841    19.734259    33.265547    -91.44145    12.612127     22.30075    14.235163 
  431200    239.11347     59212155            0     59213086    12.683315    22.410353    13.178726     19.73397    33.265654   -91.452965    12.612127     22.30075    14.235163 
  431400    346.61357     59211864            0     59213213    12.683297    22.410369    13.179219    19.732102     33.26727   -91.403646    12.612127     22.30075    14.235163 
  431600    187.41016     59211088            0     59211818    12.683316    22.410353    13.179195       19.734    33.265679   -91.406089    12.612127     22.30075    14.235163 
  431800    358.41312     59211180            0     59212575    12.683309     22.41034    13.179131    19.733348    33.264399   -91.412475    12.612127     22.30075    14.235163 
  432000    265.32473     59211874            0     59212907      12.6833     22.41034    13.179001    19.732418    33.264356    -91.42544    12.612127     22.30075    14.235163 
  432200    155.30192     59210883            0     59211488    12.683315    22.410341    13.179202    19.733978     33.26443   -91.405311    12.612127     22.30075    14.235163 
  432400    148.88413     59211821            0     59212400    12.683301    22.410352    13.179201     19.73252    33.265545   -91.405441    12.612127     22.30075    14.235163 
  432600     238.4945     59213178            0     59214106    12.683312    22.410349    13.178542    19.733694    33.265285   -91.471356    12.612127     22.30075    14.235163 
  432800    164.68844     59212312            0     59212953    12.683289    22.410399    13.178734    19.731348    33.270218   -91.452129    12.612127     22.30075    14.235163 
  433000    192.88147     59213130            0     59213881    12.683339    22.410365    13.178516     19.73632    33.266879   -91.474009    12.612127     22.30075    14.235163 
  433200    137.88845     59213464            0     59214001    12.683291     22.41035    13.178589    19.731545    33.265355   -91.466713    12.612127     22.30075    14.235163 
  433400    407.84899     59212245            0     59213833    12.683298    22.410361    13.178305    19.732197    33.266442   -91.495125    12.612127     22.30075    14.235163 
  433600     236.5193     59212287            0     59213208    12.683287    22.410352    13.178835    19.731194    33.265605   -91.442103    12.612127     22.30075    14.235163 
  433800    222.73668     59212455            0     59213322    12.683334    22.410359    13.178782     19.73589     33.26629   -91.447336    12.612127     22.30075    14.235163 
  434000    305.84757     59211763            0     59212954    12.683311    22.410391    13.178834    19.733575    33.269415   -91.442175    12.612127     22.30075    14.235163 
  434200    232.08161     59212632            0     59213535    12.683331    22.410398    13.178697    19.735506     33.27015    -91.45589    12.612127     22.30075    14.235163 
  434400    397.80408     59212411            0     59213960    12.683327    22.410335    13.178655    19.735104     33.26386   -91.460045    12.612127     22.30075    14.235163 
  434600    386.46148     59213320            0     59214825    12.683333     22.41036    13.178741    19.735762    33.266363   -91.451462    12.612127     22.30075    14.235163 
  434800    119.78405     59212586            0     59213052    12.683294     22.41033     13.17877    19.731858    33.263314   -91.448571    12.612127     22.30075    14.235163 
  435000    284.59725     59211896            0     59213004     12.68334    22.410347    13.178713    19.736428    33.265058   -91.454306    12.612127     22.30075    14.235163 
  435200    236.73103     59212896            0     59213818    12.683307    22.410365     13.17937    19.733168    33.266834   -91.388545    12.612127     22.30075    14.235163 
  435400    360.42181     59211133            0     59212536    12.683317    22.410353     13.17906    19.734145    33.265678   -91.419606    12.612127     22.30075    14.235163 
  435600    222.75833     59210722            0     59211589    12.683317    22.410355     13.17908    19.734125    33.265853   -91.417514    12.612127     22.30075    14.235163 
  435800    277.87854     59212738            0     59213820    12.683326    22.410332    13.178989    19.735044    33.263508   -91.426676    12.612127     22.30075    14.235163 
  436000    200.73435     59212042            0     59212824    12.683327    22.410359    13.178989    19.735114    33.266243   -91.426651    12.612127     22.30075    14.235163 
  436200    247.28138     59211668            0     59212631    12.683304    22.410338     13.17888    19.732803     33.26411   -91.437531    12.612127     22.30075    14.235163 
  436400    279.35839     59211994            0     59213082    12.683316    22.410352    13.178994    19.734081    33.265547   -91.426192    12.612127     22.30075    14.235163 
  436600    189.76018     59210576            0     59211315    12.683305    22.410351    13.178985    19.732986    33.265422   -91.427071    12.612127     22.30075    14.235163 
  436800    311.46665     59210975            0     59212188    12.683296    22.410325    13.179072    19.732016    33.262902   -91.418367    12.612127     22.30075    14.235163 
  437000    267.61951     59211385            0     59212426    12.683315    22.410354    13.179126    19.733978    33.265726   -91.412957    12.612127     22.30075    14.235163 
  437200    241.58356     59211809            0     59212750     12.68332     22.41036    13.179093    19.734478    33.266365   -91.416309    12.612127     22.30075    14.235163 
  437400    236.55421     59210828            0     59211749    12.683264    22.410379    13.179063    19.728859    33.268309   -91.419241    12.612127     22.30075    14.235163 
  437600    172.81668     59212892            0     59213565    12.683288    22.410355    13.178669    19.731248    33.265837   -91.458637    12.612127     22.30075    14.235163 
  437800    159.15475     59211780            0     59212399    12.683372    22.410334    13.178994    19.739666    33.263723    -91.42616    12.612127     22.30075    14.235163 
  438000    236.63878     59211435            0     59212357    12.683314    22.410375    13.178937    19.733885    33.267887   -91.431834    12.612127     22.30075    14.235163 
  438200    476.12006     59212052            0     59213906    12.683324    22.410371    13.178996    19.734875    33.267496   -91.425986    12.612127     22.30075    14.235163 
  438400    172.09423     59212649            0     59213319    12.683324    22.410363    13.179144    19.734877    33.266634    -91.41116    12.612127     22.30075    14.235163 
  438600    207.85555     59210926            0     59211735    12.683317    22.410351    13.179077    19.734111    33.265452   -91.417864    12.612127     22.30075    14.235163 
  438800    142.28255     59211297            0     59211851    12.683311     22.41036    13.179093    19.733513    33.266315   -91.416283    12.612127     22.30075    14.235163 
  439000    179.09514     59210670            0     59211367    12.683346    22.410353    13.178936     19.73701    33.265647   -91.431996    12.612127     22.30075    14.235163 
  439200    128.67314     59211393            0     59211893    12.683298    22.410335    13.178945    19.732232    33.263842   -91.431102    12.612127     22.30075    14.235163 
  439400     271.8443     59212480            0     59213539    12.683338    22.410366    13.179061     19.73623    33.266952   -91.419428    12.612127     22.30075    14.235163 
  439600    113.97898     59212675            0     59213119    12.683303     22.41037    13.179096    19.732727    33.267361   -91.415928    12.612127     22.30075    14.235163 
  439800    220.87543     59211116            0     59211976     12.68333    22.410334    13.179088    19.735405     33.26379   -91.416741    12.612127     22.30075    14.235163 
  440000    113.40607     59212166            0     59212607    12.683316    22.410353    13.178775       19.734    33.265679   -91.448066    12.612127     22.30075    14.235163 
  440200    227.29014     59212733            0     59213618    12.683321    22.410367    13.178491    19.734594     33.26705   -91.476483    12.612127     22.30075    14.235163 
  440400    171.34352     59213727            0     59214395    12.683308    22.410361    13.178945    19.733283    33.266481   -91.431034    12.612127     22.30075    14.235163 
  440600    194.83641     59213331            0     59214090    12.683307    22.410359     13.17874    19.733139    33.266245   -91.451576    12.612127     22.30075    14.235163 
  440800    181.17756     59212235            0     59212940    12.683316    22.410353     13.17877    19.733998    33.265637   -91.448613    12.612127     22.30075    14.235163 
  441000     273.7654     59212497            0     59213563     12.68332    22.410367    13.178721    19.734406    33.267059   -91.453442    12.612127     22.30075    14.235163 
  441200    148.04552     59213076            0     59213652    12.683307    22.410326    13.178586    19.733168    33.262946   -91.466965    12.612127     22.30075    14.235163 
  441400    240.63454     59212478            0     59213415    12.683331    22.410365    13.178747    19.735551    33.266867   -91.450905    12.612127     22.30075    14.235163 
  441600     298.4758     59212213            0     59213375    12.683327    22.410322     13.17856    19.735137     33.26257   -91.469542    12.612127     22.30075    14.235163 
  441800    227.32044     59212581            0     59213465    12.683305    22.410369    13.178872    19.732991    33.267246   -91.438399    12.612127     22.30075    14.235163 
  442000    252.39307     59212015            0     59212998     12.68335    22.410328    13.178724    19.737464     33.26313   -91.453197    12.612127     22.30075    14.235163 
  442200    143.10055     59211884            0     59212441    12.683311    22.410326    13.179144    19.733529    33.262964   -91.411208    12.612127     22.30075    14.235163 
  442400    291.78906     59212456            0     59213591    12.683319     22.41035    13.178934    19.734378    33.265406   -91.432198    12.612127     22.30075    14.235163 
  442600    235.68479     59211875            0     59212793    12.683341    22.410347     13.17899    19.736595    33.265048   -91.426531    12.612127     22.30075    14.235163 
  442800    192.85718     59211927            0     59212678    12.683315    22.410354     13.17894    19.733949    33.265798   -91.431555    12.612127     22.30075    14.235163 
  443000    263.79027     59211224            0     59212250    12.683368    22.410386    13.179078    19.739289     33.26893   -91.417781    12.612127     22.30075    14.235163 
  443200    200.54508     59211477            0     59212258     12.68331    22.410354    13.178908    19.733478    33.265725   -91.434752    12.612127     22.30075    14.235163 
  443400      302.752     59211363            0     59212542     12.68331    22.410358    13.179304    19.733408    33.266158   -91.395193    12.612127     22.30075    14.235163 
  443600    333.78311     59212440            0     59213740    12.683316    22.410353    13.179007    19.733999    33.265679   -91.424899    12.612127     22.30075    14.235163 
  443800     270.6696     59211401            0     59212455    12.683276    22.410347    13.179125    19.730075    33.265096    -91.41304    12.612127     22.30075    14.235163 
  444000    328.09121     59212399            0     59213676    12.683266    22.410368    13.178999    19.729085    33.267137    -91.42565    12.612127     22.30075    14.235163 
  444200    465.12615     59211410            0     59213220     12.68328    22.410318    13.179047    19.730408    33.262175   -91.420904    12.612127     22.30075    14.235163 
  444400    199.77522     59211046            0     59211824     12.68332     22.41036     13.17901    19.734421     33.26633   -91.424572    12.612127     22.30075    14.235163 
  444600    203.15154     59212019            0     59212810    12.683324    22.410365    13.178858    19.734879    33.266846   -91.439737    12.612127     22.30075    14.235163 
  444800    292.35929     59211908            0     59213046    12.683323     22.41031    13.178863    19.734767    33.261352   -91.439246    12.612127     22.30075    14.235163 
  445000    322.59576     59212308            0     59213564    12.683317    22.410344    13.179015    19.734176    33.264721   -91.424089    12.612127     22.30075    14.235163 
  445200    207.12234     59212454            0     59213260    12.683324    22.410351    13.179004    19.734893    33.265424   -91.425148    12.612127     22.30075    14.235163 
  445400    235.59416     59211501            0     59212418    12.683332    22.410321    13.178577    19.735644    33.262443   -91.467889    12.612127     22.30075    14.235163 
  445600    170.82248     59211858            0     59212523    12.683321    22.410363     13.17898     19.73455    33.266662   -91.427538    12.612127     22.30075    14.235163 
  445800    217.12469     59212341            0     59213186    12.683324    22.410343    13.178631    19.734838    33.264624   -91.462437    12.612127     22.30075    14.235163 
  446000    274.48671     59212190            0     59213259    12.683322    22.410351    13.178742    19.734638    33.265506   -91.451329    12.612127     22.30075    14.235163 
  446200    191.07058     59211350            0     59212094    12.683315    22.410355    13.179066    19.733908    33.265839    -91.41894    12.612127     22.30075    14.235163 
  446400    167.53573     59211295            0     59211948    12.683369    22.410348    13.178832    19.739337    33.265134   -91.442344    12.612127     22.30075    14.235163 
  446600     91.89184     59212054            0     59212411    12.683314    22.410337    13.178917    19.733829    33.264078   -91.433835    12.612127     22.30075    14.235163 
  446800     78.22404     59212225            0     59212529    12.683293    22.410323    13.179086    19.731753    33.262649   -91.416915    12.612127     22.30075    14.235163 
  447000     162.9944     59211853            0     59212488    12.683305    22.410375    13.179104    19.732955    33.267904   -91.415116    12.612127     22.30075    14.235163 
  447200    313.98918     59210859            0     59212081    12.683316    22.410351    13.179008    19.734086    33.265496   -91.424741    12.612127     22.30075    14.235163 
  447400    255.86219     59212176            0     59213172    12.683353    22.410336    13.179172    19.737741     33.26394   -91.408341    12.612127     22.30075    14.235163 
  447600    160.98626     59212019            0     59212645    12.683308     22.41038    13.178894    19.733212    33.268369    -91.43619    12.612127     22.30075    14.235163 
  447800     253.8369     59212280            0     59213268    12.683315    22.410316     13.17929    19.733935    33.262001   -91.396555    12.612127     22.30075    14.235163 
  448000    286.84287     59211654            0     59212771     12.68329    22.410361     13.17914    19.731491    33.266429   -91.411537    12.612127     22.30075    14.235163 
  448200    186.68407     59213000            0     59213727    12.683297    22.410387    13.178742    19.732187    33.269067   -91.451337    12.612127     22.30075    14.235163 
  448400    231.59204     59212386            0     59213287    12.683312    22.410361    13.179041    19.733605    33.266462   -91.421463    12.612127     22.30075    14.235163 
  448600    219.70853     59212224            0     59213080    12.683329     22.41033    13.179338    19.735344    33.263341   -91.391714    12.612127     22.30075    14.235163 
  448800    97.374212     59210549            0     59210928    12.683327    22.410357    13.179113    19.735098    33.266064   -91.414237    12.612127     22.30075    14.235163 
  449000    348.45038     59211534            0     59212891    12.683295    22.410338    13.178991    19.731899    33.264144   -91.426483    12.612127     22.30075    14.235163 
  449200    171.20481     59211380            0     59212046    12.683307    22.410354    13.179021    19.733181    33.265725    -91.42346    12.612127     22.30075    14.235163 
  449400    159.95683     59211636            0     59212258    12.683321    22.410361     13.17902    19.734546    33.266457   -91.423581    12.612127     22.30075    14.235163 
  449600     180.2556     59211464            0     59212166    12.683327    22.410371     13.17904    19.735137     33.26747   -91.421595    12.612127     22.30075    14.235163 
  449800    203.78236     59212286            0     59213080    12.683322    22.410349    13.179224    19.734611     33.26524   -91.403123    12.612127     22.30075    14.235163 
  450000    118.22389     59212486            0     59212947    12.683348    22.410286    13.179185    19.737273    33.258968   -91.407106    12.612127     22.30075    14.235163 
  450200      205.595     59212910            0     59213711    12.683316    22.410353     13.17914    19.734003    33.265676    -91.41156    12.612127     22.30075    14.235163 
  450400    72.425013     59213261            0     59213543    12.683315    22.410353     13.17901    19.733991    33.265697   -91.424603    12.612127     22.30075    14.235163 
  450600    64.652027     59212376            0     59212628    12.683335    22.410318    13.178778    19.735904    33.262135   -91.447812    12.612127     22.30075    14.235163 
  450800    382.34804     59210747            0     59212235    12.683323    22.410363    13.179205    19.734784    33.266644   -91.405055    12.612127     22.30075    14.235163 
  451000    185.17004     59211493            0     59212213     12.68329    22.410313    13.179312    19.731459    33.261646   -91.394352    12.612127     22.30075    14.235163 
  451200    303.85486     59211190            0     59212372    12.683331    22.410372    13.178991    19.735547    33.267572   -91.426471    12.612127     22.30075    14.235163 
  451400    361.48794     59211232            0     59212640     12.68332    22.410356       13.179    19.734403    33.266001   -91.425578    12.612127     22.30075    14.235163 
  451600    187.27863     59210943            0     59211672    12.683304    22.410358    13.179109    19.732861    33.266202   -91.414684    12.612127     22.30075    14.235163 
  451800    166.04612     59211890            0     59212536    12.683305    22.410368    13.178989    19.732969    33.267125   -91.426678    12.612127     22.30075    14.235163 
  452000    295.55988     59210207            0     59211358    12.683317    22.410362    13.179167    19.734158    33.266562   -91.408874    12.612127     22.30075    14.235163 
  452200    334.97489     59210824            0     59212128    12.683312    22.410352    13.179069    19.733625    33.265549   -91.418694    12.612127     22.30075    14.235163 
  452400    155.38477     59212109            0     59212714    12.683266    22.410353    13.178893    19.729012    33.265642   -91.436245    12.612127     22.30075    14.235163 
  452600    386.12576     59211879            0     59213382    12.683317    22.410318    13.178966    19.734132    33.262202   -91.428973    12.612127     22.30075    14.235163 
  452800    97.099893     59211712            0     59212090    12.683298    22.410333    13.179149    19.732236    33.263609   -91.410707    12.612127     22.30075    14.235163 
  453000    309.48638     59211625            0     59212830    12.683294    22.410292    13.178887    19.731832    33.259589   -91.436831    12.612127     22.30075    14.235163 
  453200    342.29514     59211046            0     59212379    12.683315    22.410354    13.178892    19.733975    33.265727   -91.436401    12.612127     22.30075    14.235163 
  453400    337.59932     59211418            0     59212732     12.68332    22.410348    13.178996      19.7344    33.265125    -91.42595    12.612127     22.30075    14.235163 
  453600    276.49837     59211893            0     59212970    12.683287    22.410355    13.178915    19.731103    33.265822   -91.434091    12.612127     22.30075    14.235163 
  453800    323.61221     59212805            0     59214064      12.6833    22.410328    13.178926    19.732481    33.263207   -91.432961    12.612127     22.30075    14.235163 
  454000    317.29654     59212090            0     59213325    12.683315    22.410338    13.178765     19.73395    33.264167   -91.449085    12.612127     22.30075    14.235163 
  454200    231.59823     59211770            0     59212672     12.68327    22.410355    13.179015    19.729459    33.265868   -91.424048    12.612127     22.30075    14.235163 
  454400    504.66782     59211254            0     59213219     12.68328    22.410354    13.179036    19.730458    33.265788   -91.421935    12.612127     22.30075    14.235163 
  454600    96.204579     59211782            0     59212156    12.683331    22.410364    13.178894    19.735594    33.266717   -91.436186    12.612127     22.30075    14.235163 
  454800    298.21359     59211706            0     59212867    12.683325    22.410357    13.178952    19.734958    33.266076   -91.430378    12.612127     22.30075    14.235163 
  455000    178.03918     59211626            0     59212319    12.683315    22.410353    13.179045    19.733913    33.265684    -91.42105    12.612127     22.30075    14.235163 
  455200    251.90174     59212570            0     59213551    12.683316    22.410353    13.179233    19.734008    33.265684   -91.402247    12.612127     22.30075    14.235163 
  455400    36.656051     59212075            0     59212217    12.683314    22.410345    13.179344    19.733881    33.264842   -91.391192    12.612127     22.30075    14.235163 
  455600    209.84304     59211917            0     59212734    12.683326    22.410369    13.179062    19.735066    33.267285    -91.41933    12.612127     22.30075    14.235163 
  455800    335.55255     59211877            0     59213183    12.683316    22.410352    13.179058    19.734082     33.26555   -91.419717    12.612127     22.30075    14.235163 
  456000    212.83333     59210946            0     59211774    12.683324    22.410327    13.178866    19.734896    33.263061    -91.43902    12.612127     22.30075    14.235163 
  456200    321.89865     59211935            0     59213189    12.683238    22.410367     13.17911    19.726239    33.267106   -91.414575    12.612127     22.30075    14.235163 
  456400    175.12509     59212562            0     59213244    12.683306    22.410367    13.178864    19.733066    33.267028   -91.439134    12.612127     22.30075    14.235163 
  456600     216.0169     59211195            0     59212036    12.683316    22.410353    13.179208    19.734042    33.265695   -91.404783    12.612127     22.30075    14.235163 
  456800    176.16677     59211614            0     59212300    12.683283    22.410321    13.179198    19.730742    33.262443   -91.405788    12.612127     22.30075    14.235163 
  457000    123.66281     59212226            0     59212708    12.683307    22.410351    13.179046    19.733183    33.265451   -91.420951    12.612127     22.30075    14.235163 
  457200    177.15606     59213600            0     59214290     12.68329    22.410373    13.179159    19.731487    33.267691   -91.409673    12.612127     22.30075    14.235163 
  457400     304.4424     59211971            0     59213156    12.683322    22.410342    13.178795    19.734685    33.264573   -91.446095    12.612127     22.30075    14.235163 
  457600    555.28055     59211491            0     59213653    12.683349    22.410328       13.179     19.73732    33.263116   -91.425565    12.612127     22.30075    14.235163 
  457800    226.37027     59211521            0     59212402    12.683308    22.410377    13.178952    19.733255    33.268014   -91.430413    12.612127     22.30075    14.235163 
  458000    361.36177     59211359            0     59212766    12.683304    22.410371    13.179111    19.732864    33.267508   -91.414412    12.612127     22.30075    14.235163 
  458200    400.23279     59212170            0     59213728    12.683315    22.410337    13.179074    19.733956    33.264093   -91.418155    12.612127     22.30075    14.235163 
  458400    204.14616     59211178            0     59211973    12.683276    22.410329    13.178999    19.730079    33.263292   -91.425696    12.612127     22.30075    14.235163 
  458600    298.83795     59211458            0     59212622    12.683328    22.410372    13.179037    19.735284    33.267587   -91.421831    12.612127     22.30075    14.235163 
  458800    270.01795     59212149            0     59213200    12.683293    22.410362     13.17906    19.731742    33.266604   -91.419581    12.612127     22.30075    14.235163 
  459000    214.50139     59211844            0     59212679    12.683287    22.410317    13.178817    19.731167    33.262098   -91.443823    12.612127     22.30075    14.235163 
  459200     305.1831     59212520            0     59213708    12.683293     22.41035    13.178639    19.731761    33.265391   -91.461638    12.612127     22.30075    14.235163 
  459400    189.04152     59212164            0     59212900    12.683322    22.410361    13.178993    19.734681    33.266439   -91.426275    12.612127     22.30075    14.235163 
  459600    230.51565     59212165            0     59213062     12.68329    22.410359    13.179185    19.731409    33.266223   -91.407064    12.612127     22.30075    14.235163 
  459800     225.7683     59212000            0     59212879    12.683289    22.410355    13.179254    19.731362     33.26582   -91.400172    12.612127     22.30075    14.235163 
  460000    168.25788     59212211            0     59212866    12.683343    22.410329    13.178884    19.736749    33.263259   -91.437128    12.612127     22.30075    14.235163 
  460200    219.09387     59211571            0     59212424     12.68331    22.410364     13.17907    19.733451    33.266764   -91.418574    12.612127     22.30075    14.235163 
  460400    331.49367     59210618            0     59211909    12.683339    22.410349    13.178878    19.736306    33.265293   -91.437752    12.612127     22.30075    14.235163 
  460600    334.69522     59211677            0     59212980    12.683305    22.410357    13.179143      19.7329    33.266085   -91.411252    12.612127     22.30075    14.235163 
  460800    96.455029     59212036            0     59212411    12.683312    22.410364    13.178955    19.733696    33.266793   -91.430076    12.612127     22.30075    14.235163 
  461000    245.86441     59211963            0     59212921    12.683331    22.410355    13.178875    19.735564    33.265899   -91.438109    12.612127     22.30075    14.235163 
  461200    167.59453     59212135            0     59212787    12.683317    22.410373    13.178912    19.734155     33.26768     -91.4344    12.612127     22.30075    14.235163 
  461400    165.74259     59212689            0     59213334     12.68333    22.410332    13.178787    19.735477    33.263519   -91.446843    12.612127     22.30075    14.235163 
  461600    154.83454     59212211            0     59212814    12.683324     22.41035     13.17931    19.734872    33.265392   -91.394509    12.612127     22.30075    14.235163 
  461800    139.47249     59212093            0     59212636    12.683315    22.410354    13.179167    19.733909    33.265726   -91.408856    12.612127     22.30075    14.235163 
  462000      313.317     59210729            0     59211949    12.683315    22.410353    13.179081    19.733927    33.265682   -91.417471    12.612127     22.30075    14.235163 
  462200     160.6392     59211609            0     59212235     12.68331    22.410354    13.179146     19.73341    33.265711   -91.410985    12.612127     22.30075    14.235163 
  462400    108.22156     59212434            0     59212855    12.683321     22.41036    13.178803    19.734548    33.266408    -91.44532    12.612127     22.30075    14.235163 
  462600    114.40801     59212705            0     59213151    12.683304    22.410354     13.17926    19.732881    33.265747   -91.399536    12.612127     22.30075    14.235163 
  462800    238.83021     59211388            0     59212318    12.683285    22.410355    13.179225    19.730966    33.265869   -91.403072    12.612127     22.30075    14.235163 
  463000    255.30598     59212275            0     59213269    12.683341    22.410328    13.179118    19.736536    33.263122   -91.413717    12.612127     22.30075    14.235163 
  463200    185.46908     59211954            0     59212676    12.683317    22.410351    13.179068    19.734127    33.265453   -91.418766    12.612127     22.30075    14.235163 
  463400    202.22424     59211305            0     59212092    12.683287    22.410364    13.179093    19.731121    33.266731   -91.416282    12.612127     22.30075    14.235163 
  463600    276.08382     59211073            0     59212147     12.68333    22.410293    13.178992    19.735463    33.259653   -91.426375    12.612127     22.30075    14.235163 
  463800    385.84566     59212517            0     59214019    12.683318    22.410387    13.179108    19.734296     33.26904   -91.414785    12.612127     22.30075    14.235163 
  464000    424.84911     59211167            0     59212821    12.683293    22.410386    13.179128    19.731786    33.268992   -91.412766    12.612127     22.30075    14.235163 
  464200    283.93521     59212218            0     59213323    12.683315    22.410353    13.178974    19.733994     33.26567   -91.428121    12.612127     22.30075    14.235163 
  464400     194.5451     59211771            0     59212528    12.683375    22.410367    13.178885    19.739923    33.267091   -91.437103    12.612127     22.30075    14.235163 
  464600    145.89348     59211097            0     59211665     12.68333    22.410352    13.178909    19.735465    33.265601   -91.434688    12.612127     22.30075    14.235163 
  464800    273.63492     59211934            0     59212999    12.683317    22.410364    13.179368    19.734182    33.266798   -91.388781    12.612127     22.30075    14.235163 
  465000    306.85543     59212015            0     59213209    12.683323    22.410382    13.179323    19.734765    33.268556   -91.393233    12.612127     22.30075    14.235163 
  465200    136.42004     59213116            0     59213647    12.683306    22.410309    13.178987    19.733085    33.261218    -91.42688    12.612127     22.30075    14.235163 
  465400    280.78924     59211631            0     59212725    12.683322     22.41035    13.178867    19.734638    33.265378   -91.438847    12.612127     22.30075    14.235163 
  465600    312.20236     59211903            0     59213118     12.68331    22.410346    13.179113    19.733455    33.264956   -91.414264    12.612127     22.30075    14.235163 
  465800    103.18505     59210897            0     59211299    12.683315    22.410369    13.179025    19.733915    33.267303    -91.42309    12.612127     22.30075    14.235163 
  466000    326.02922     59211079            0     59212349    12.683291    22.410328    13.179067    19.731592    33.263122   -91.418813    12.612127     22.30075    14.235163 
  466200    134.42814     59211982            0     59212505    12.683315    22.410366     13.17891    19.733977    33.266985    -91.43459    12.612127     22.30075    14.235163 
  466400     189.8799     59211493            0     59212232    12.683269    22.410341     13.17889    19.729363    33.264463   -91.436523    12.612127     22.30075    14.235163 
  466600    457.61967     59210525            0     59212306    12.683295    22.410351    13.178935    19.731982    33.265458    -91.43211    12.612127     22.30075    14.235163 
  466800    98.549147     59210927            0     59211311     12.68329    22.410341    13.179049    19.731433    33.264499   -91.420623    12.612127     22.30075    14.235163 
  467000    238.77716     59211837            0     59212766    12.683323    22.410351    13.178976    19.734741    33.265499   -91.427923    12.612127     22.30075    14.235163 
  467200    216.05711     59212080            0     59212921    12.683327    22.410349    13.179015    19.735118    33.265227   -91.424027    12.612127     22.30075    14.235163 
  467400    265.07564     59210751            0     59211782    12.683343     22.41034    13.178894    19.736729    33.264374   -91.436218    12.612127     22.30075    14.235163 
  467600    186.78417     59212217            0     59212944     12.68328    22.410351    13.179159    19.730449    33.265453   -91.409634    12.612127     22.30075    14.235163 
  467800    193.44185     59211846            0     59212599    12.683283    22.410387    13.179072    19.730776    33.269065   -91.418373    12.612127     22.30075    14.235163 
  468000    230.42457     59211298            0     59212195    12.683315    22.410353    13.178935    19.733993    33.265679   -91.432095    12.612127     22.30075    14.235163 
  468200    228.78863     59212281            0     59213172    12.683304    22.410353    13.179007    19.732879    33.265687   -91.424858    12.612127     22.30075    14.235163 
  468400    260.58679     59212284            0     59213299    12.683341    22.410371    13.179099    19.736535     33.26742   -91.415655    12.612127     22.30075    14.235163 
  468600     245.0953     59213200            0     59214154    12.683315    22.410353    13.178937     19.73399    33.265662   -91.431873    12.612127     22.30075    14.235163 
  468800    186.11546     59211710            0     59212435    12.683301    22.410368    13.179179    19.732524    33.267183   -91.407682    12.612127     22.30075    14.235163 
  469000    385.20228     59211721            0     59213220    12.683342    22.410366    13.178807    19.736656    33.266938   -91.444858    12.612127     22.30075    14.235163 
  469200    324.50481     59211882            0     59213145    12.683315    22.410353       13.179    19.733995    33.265688   -91.425603    12.612127     22.30075    14.235163 
  469400    274.96612     59211822            0     59212892    12.683311    22.410346    13.178995    19.733533    33.264969   -91.426041    12.612127     22.30075    14.235163 
  469600    285.81689     59211384            0     59212497    12.683321    22.410364    13.178869    19.734575    33.266769   -91.438684    12.612127     22.30075    14.235163 
  469800    188.04653     59212309            0     59213041    12.683277    22.410355    13.179174    19.730188    33.265898   -91.408178    12.612127     22.30075    14.235163 
  470000    261.08776     59211430            0     59212446    12.683311    22.410355    13.178892     19.73351    33.265809   -91.436409    12.612127     22.30075    14.235163 
  470200     339.9094     59211949            0     59213272    12.683316    22.410353    13.178942    19.733999    33.265676   -91.431403    12.612127     22.30075    14.235163 
  470400    233.92025     59211270            0     59212181    12.683311    22.410343    13.178996    19.733531    33.264632   -91.425968    12.612127     22.30075    14.235163 
  470600    130.54687     59211501            0     59212009    12.683312    22.410347    13.179062    19.733607    33.265068   -91.419374    12.612127     22.30075    14.235163 
  470800    140.02755     59210400            0     59210945     12.68332    22.410342    13.179068    19.734411    33.264558    -91.41873    12.612127     22.30075    14.235163 
  471000    175.61224     59210676            0     59211360    12.683321     22.41036     13.17891    19.734535     33.26635   -91.434604    12.612127     22.30075    14.235163 
  471200    291.27488     59211562            0     59212696    12.683341    22.410377    13.178904    19.736585    33.268011   -91.435182    12.612127     22.30075    14.235163 
  471400    148.29499     59211959            0     59212536    12.683305    22.410351    13.178871    19.732951    33.265441   -91.438448    12.612127     22.30075    14.235163 
  471600    360.69561     59211960            0     59213364     12.68331    22.410328    13.179042    19.733466    33.263122    -91.42134    12.612127     22.30075    14.235163 
  471800    190.29829     59212399            0     59213140    12.683318    22.410347    13.179434    19.734258    33.265076   -91.382106    12.612127     22.30075    14.235163 
  472000    310.57766     59211849            0     59213058    12.683353    22.410308     13.17878    19.737784    33.261198   -91.447557    12.612127     22.30075    14.235163 
  472200    136.12176     59212612            0     59213142    12.683321    22.410374    13.178697    19.734566    33.267712   -91.455868    12.612127     22.30075    14.235163 
  472400    317.99354     59212872            0     59214110    12.683316    22.410335    13.178599    19.734002    33.263813   -91.465664    12.612127     22.30075    14.235163 
  472600     245.5092     59211002            0     59211958    12.683338    22.410353    13.179134    19.736207    33.265613   -91.412154    12.612127     22.30075    14.235163 
  472800    188.10403     59211446            0     59212179    12.683318    22.410355    13.179107    19.734226    33.265864   -91.414894    12.612127     22.30075    14.235163 
  473000    290.45532     59211955            0     59213085    12.683316    22.410353     13.17886       19.734    33.265678   -91.439526    12.612127     22.30075    14.235163 
  473200    294.87235     59210486            0     59211634    12.683316    22.410369    13.179055    19.734057    33.267301   -91.420055    12.612127     22.30075    14.235163 
  473400     233.5656     59211895            0     59212805    12.683314    22.410357    13.179154    19.733838     33.26602   -91.410143    12.612127     22.30075    14.235163 
  473600    223.38699     59213078            0     59213948    12.683328     22.41037    13.178756     19.73521    33.267401   -91.449984    12.612127     22.30075    14.235163 
  473800    205.55159     59212095            0     59212895    12.683324    22.410366    13.178887    19.734824    33.266966   -91.436882    12.612127     22.30075    14.235163 
  474000    247.16299     59211916            0     59212878     12.68336    22.410349    13.179094    19.738458    33.265264   -91.416122    12.612127     22.30075    14.235163 
  474200    148.92859     59211301            0     59211881    12.683298    22.410369    13.178881    19.732251    33.267305    -91.43749    12.612127     22.30075    14.235163 
  474400     195.2862     59212220            0     59212980    12.683312    22.410398    13.179183    19.733682    33.270163   -91.407261    12.612127     22.30075    14.235163 
  474600     229.7525     59211799            0     59212693    12.683306    22.410354     13.17922    19.733068    33.265763   -91.403592    12.612127     22.30075    14.235163 
  474800    364.08572     59212458            0     59213875    12.683315    22.410348    13.178803    19.733901     33.26517   -91.445249    12.612127     22.30075    14.235163 
  475000    192.21092     59212120            0     59212868    12.683345    22.410352    13.178925    19.736967    33.265538   -91.433031    12.612127     22.30075    14.235163 
  475200     349.5005     59211423            0     59212783    12.683317    22.410352    13.179021    19.734132    33.265567   -91.423502    12.612127     22.30075    14.235163 
  475400    188.52986     59210896            0     59211630    12.683303    22.410359    13.179052    19.732783    33.266257   -91.420329    12.612127     22.30075    14.235163 
  475600    176.37323     59211031            0     59211718    12.683324    22.410354    13.179113    19.734869    33.265757   -91.414296    12.612127     22.30075    14.235163 
  475800    164.20668     59211990            0     59212629    12.683313    22.410349    13.178933    19.733796    33.265211   -91.432265    12.612127     22.30075    14.235163 
  476000    199.35204     59212834            0     59213610    12.683348    22.410333    13.178719    19.737239    33.263672   -91.453673    12.612127     22.30075    14.235163 
  476200    225.36232     59211569            0     59212447    12.683317    22.410342    13.179156    19.734164    33.264567   -91.409912    12.612127     22.30075    14.235163 
  476400    385.23925     59211597            0     59213097    12.683323     22.41037    13.178922    19.734703     33.26733   -91.433373    12.612127     22.30075    14.235163 
  476600    228.17395     59211514            0     59212403    12.683307    22.410357    13.179069    19.733166    33.266035   -91.418637    12.612127     22.30075    14.235163 
  476800    312.88218     59212959            0     59214177    12.683317    22.410354    13.178977    19.734193     33.26577   -91.427839    12.612127     22.30075    14.235163 
  477000    198.71272     59211176            0     59211950     12.68331    22.410386    13.178908    19.733448    33.269001   -91.434809    12.612127     22.30075    14.235163 
  477200    378.74837     59211637            0     59213111    12.683326    22.410367    13.178905    19.735001    33.267094   -91.435077    12.612127     22.30075    14.235163 
  477400    325.80119     59211500            0     59212768    12.683327    22.410332    13.179103    19.735185     33.26356   -91.415301    12.612127     22.30075    14.235163 
  477600     108.5917     59211882            0     59212305    12.683314    22.410353    13.179133    19.733886    33.265685   -91.412231    12.612127     22.30075    14.235163 
  477800    239.59563     59213332            0     59214265    12.683335     22.41036    13.179114    19.735975    33.266312   -91.414162    12.612127     22.30075    14.235163 
  478000    399.12118     59211334            0     59212888    12.683311    22.410379     13.17916    19.733498    33.268238   -91.409534    12.612127     22.30075    14.235163 
  478200    354.75064     59211074            0     59212455    12.683298    22.410348    13.179053    19.732248    33.265189   -91.420272    12.612127     22.30075    14.235163 
  478400    217.46025     59212672            0     59213518    12.683315    22.410353    13.179466    19.733994    33.265688   -91.378975    12.612127     22.30075    14.235163 
  478600    235.96143     59211414            0     59212333     12.68332     22.41035    13.179176    19.734398    33.265368   -91.407997    12.612127     22.30075    14.235163 
  478800    156.38676     59212650            0     59213259    12.683324    22.410362    13.179129    19.734808    33.266526   -91.412694    12.612127     22.30075    14.235163 
  479000    49.974225     59210580            0     59210774    12.683306    22.410343    13.179213    19.733051     33.26468    -91.40422    12.612127     22.30075    14.235163 
  479200    316.16541     59212063            0     59213294    12.683325     22.41036    13.178545    19.734961    33.266356   -91.471099    12.612127     22.30075    14.235163 
  479400    350.87067     59211291            0     59212657    12.683287    22.410381    13.179002    19.731156    33.268416   -91.425375    12.612127     22.30075    14.235163 
  479600    107.02111     59212860            0     59213276    12.683318    22.410342    13.178567    19.734271    33.264599   -91.468896    12.612127     22.30075    14.235163 
  479800    332.62382     59211182            0     59212477    12.683295    22.410311    13.178968    19.731919    33.261423   -91.428763    12.612127     22.30075    14.235163 
  480000    346.73649     59211526            0     59212875    12.683342    22.410334     13.17911    19.736685    33.263715   -91.414516    12.612127     22.30075    14.235163 
  480200    396.79202     59211534            0     59213079    12.683332    22.410347    13.179104    19.735687    33.265054   -91.415125    12.612127     22.30075    14.235163 
  480400    274.95682     59212200            0     59213271    12.683305    22.410347    13.179013    19.732956     33.26504   -91.424294    12.612127     22.30075    14.235163 
  480600    289.86727     59212504            0     59213633    12.683344    22.410327    13.178994    19.736841    33.263037   -91.426209    12.612127     22.30075    14.235163 
  480800    286.45802     59210819            0     59211934    12.683355    22.410294    13.179211    19.737936    33.259736   -91.404447    12.612127     22.30075    14.235163 
  481000    216.90432     59212634            0     59213478    12.683317    22.410386    13.179476    19.734197    33.268941   -91.377935    12.612127     22.30075    14.235163 
  481200    283.49161     59212074            0     59213178    12.683322    22.410346    13.178834    19.734694    33.264911   -91.442169    12.612127     22.30075    14.235163 
  481400    208.29174     59212554            0     59213365    12.683329    22.410358    13.178976    19.735384    33.266125    -91.42793    12.612127     22.30075    14.235163 
  481600    148.27884     59212500            0     59213077    12.683316    22.410353    13.179014    19.734005    33.265676   -91.424146    12.612127     22.30075    14.235163 
  481800    241.50343     59211415            0     59212355    12.683312    22.410401     13.17911     19.73365    33.270493   -91.414559    12.612127     22.30075    14.235163 
  482000    229.10745     59211311            0     59212203    12.683293    22.410346    13.179151    19.731713    33.264942   -91.410425    12.612127     22.30075    14.235163 
  482200    242.76365     59212278            0     59213223    12.683315    22.410353    13.179114    19.733948    33.265656   -91.414194    12.612127     22.30075    14.235163 
  482400    252.60344     59210781            0     59211765    12.683325     22.41033    13.178927    19.734992    33.263325   -91.432822    12.612127     22.30075    14.235163 
  482600    190.26031     59212001            0     59212742    12.683335    22.410367    13.178902    19.735947    33.267054   -91.435366    12.612127     22.30075    14.235163 
  482800     166.0828     59211625            0     59212271    12.683306    22.410341    13.178943    19.733096    33.264502   -91.431258    12.612127     22.30075    14.235163 
  483000    446.79905     59212973            0     59214712    12.683281    22.410365     13.17885    19.730594    33.266829   -91.440527    12.612127     22.30075    14.235163 
  483200    206.70217     59211862            0     59212667    12.683277    22.410349    13.178642    19.730176    33.265276   -91.461345    12.612127     22.30075    14.235163 
  483400     192.0615     59212989            0     59213737     12.68335    22.410333    13.178729    19.737403    33.263618    -91.45268    12.612127     22.30075    14.235163 
  483600    245.30013     59211463            0     59212418    12.683336     22.41035    13.178738    19.736039     33.26532   -91.451733    12.612127     22.30075    14.235163 
  483800    387.96412     59211321            0     59212832    12.683335    22.410323    13.178966    19.735945    33.262639   -91.428954    12.612127     22.30075    14.235163 
  484000    328.23227     59211015            0     59212293    12.683316    22.410353    13.179045    19.734001    33.265679   -91.421094    12.612127     22.30075    14.235163 
  484200    228.89278     59211009            0     59211900    12.683306    22.410327    13.179093    19.733035     33.26308   -91.416214    12.612127     22.30075    14.235163 
  484400    133.27437     59212099            0     59212618    12.683336     22.41038    13.178973     19.73601    33.268407   -91.428283    12.612127     22.30075    14.235163 
  484600    275.78456     59212734            0     59213808    12.683302    22.410342    13.179062    19.732616    33.264524   -91.419331    12.612127     22.30075    14.235163 
  484800    270.26451     59210782            0     59211834    12.683351    22.410349    13.178981    19.737548    33.265299   -91.427473    12.612127     22.30075    14.235163 
  485000    237.73977     59211790            0     59212715    12.683344    22.410348    13.179012    19.736887    33.265205    -91.42432    12.612127     22.30075    14.235163 
  485200    128.61911     59213004            0     59213505    12.683316    22.410353    13.178923    19.734036    33.265677   -91.433261    12.612127     22.30075    14.235163 
  485400     280.6443     59212684            0     59213776    12.683314    22.410349    13.179102    19.733837    33.265231   -91.415371    12.612127     22.30075    14.235163 
  485600    146.24067     59211861            0     59212430    12.683328    22.410361     13.17908    19.735233    33.266436   -91.417523    12.612127     22.30075    14.235163 
  485800    178.29235     59211613            0     59212307    12.683314    22.410368    13.179089    19.733889    33.267173   -91.416664    12.612127     22.30075    14.235163 
  486000    330.89612     59211294            0     59212583    12.683298    22.410363    13.178853    19.732288    33.266671   -91.440224    12.612127     22.30075    14.235163 
  486200     279.3518     59211015            0     59212102    12.683351    22.410359    13.179034    19.737548    33.266282   -91.422206    12.612127     22.30075    14.235163 
  486400    229.52305     59211908            0     59212802    12.683345    22.410351    13.179206     19.73695    33.265492   -91.404974    12.612127     22.30075    14.235163 
  486600    232.95334     59212929            0     59213835    12.683275    22.410359    13.178612    19.729902    33.266219   -91.464363    12.612127     22.30075    14.235163 
  486800    220.48928     59212914            0     59213772    12.683321    22.410354    13.178446    19.734516    33.265726   -91.481009    12.612127     22.30075    14.235163 
  487000    242.70175     59211098            0     59212043    12.683318    22.410331    13.179145      19.7342    33.263504   -91.411035    12.612127     22.30075    14.235163 
  487200    236.73703     59211991            0     59212913    12.683309     22.41036    13.179023    19.733304    33.266382    -91.42325    12.612127     22.30075    14.235163 
  487400    339.29942     59211690            0     59213011    12.683295    22.410396    13.179049    19.731905     33.26994   -91.420657    12.612127     22.30075    14.235163 
  487600    245.48405     59211508            0     59212463    12.683316    22.410353    13.179002       19.734    33.265679   -91.425322    12.612127     22.30075    14.235163 
  487800    274.92592     59212534            0     59213605    12.683316    22.410353    13.179213    19.734043    33.265642   -91.404284    12.612127     22.30075    14.235163 
  488000    250.20285     59211202            0     59212176    12.683327    22.410371    13.178982    19.735152    33.267437   -91.427399    12.612127     22.30075    14.235163 
  488200    272.95114     59212007            0     59213069    12.683302    22.410397    13.179012    19.732639    33.270012   -91.424332    12.612127     22.30075    14.235163 
  488400    113.80284     59211803            0     59212246    12.683303    22.410378    13.179093    19.732743    33.268179   -91.416303    12.612127     22.30075    14.235163 
  488600    108.91223     59211104            0     59211528    12.683307    22.410369    13.178821    19.733155    33.267287   -91.443505    12.612127     22.30075    14.235163 
  488800    142.66362     59212096            0     59212652    12.683321    22.410361    13.179281    19.734509    33.266458   -91.397486    12.612127     22.30075    14.235163 
  489000    323.19311     59211186            0     59212444    12.683302    22.410363    13.179183    19.732674    33.266679   -91.407254    12.612127     22.30075    14.235163 
  489200    230.82589     59213772            0     59214670     12.68337    22.410348    13.178653    19.739479    33.265193   -91.460241    12.612127     22.30075    14.235163 
  489400    143.27332     59212459            0     59213017    12.683307    22.410354    13.178744    19.733172    33.265714   -91.451183    12.612127     22.30075    14.235163 
  489600    372.73321     59211758            0     59213209    12.683329    22.410313    13.178823    19.735383    33.261668   -91.443301    12.612127     22.30075    14.235163 
  489800    209.11816     59212463            0     59213278    12.683303    22.410354    13.178817    19.732757    33.265806   -91.443892    12.612127     22.30075    14.235163 
  490000    186.30702     59212567            0     59213292    12.683327    22.410335    13.179208    19.735156    33.263836   -91.404756    12.612127     22.30075    14.235163 
  490200     261.0589     59211476            0     59212492     12.68333    22.410357    13.179045    19.735466    33.266079   -91.421101    12.612127     22.30075    14.235163 
  490400    368.70322     59210822            0     59212257     12.68332    22.410365    13.179012    19.734487    33.266888   -91.424357    12.612127     22.30075    14.235163 
  490600    210.17709     59211101            0     59211919    12.683333    22.410341    13.178961     19.73578    33.264435    -91.42946    12.612127     22.30075    14.235163 
  490800    150.13438     59211435            0     59212019    12.683314    22.410356     13.17904    19.733868       33.266   -91.421604    12.612127     22.30075    14.235163 
  491000    306.10388     59211809            0     59213000    12.683315    22.410353    13.178638    19.733989    33.265698   -91.461789    12.612127     22.30075    14.235163 
  491200    288.09554     59211069            0     59212191    12.683305    22.410339     13.17903    19.732967    33.264262    -91.42257    12.612127     22.30075    14.235163 
  491400    287.56377     59213186            0     59214305    12.683307    22.410339    13.178854    19.733189    33.264278   -91.440171    12.612127     22.30075    14.235163 
  491600    121.32012     59211532            0     59212004    12.683324    22.410354    13.178938    19.734815    33.265783   -91.431754    12.612127     22.30075    14.235163 
  491800    251.36153     59211760            0     59212739    12.683368    22.410377     13.17907    19.739275    33.268083   -91.418568    12.612127     22.30075    14.235163 
  492000    262.71098     59212064            0     59213087    12.683302    22.410354    13.179415    19.732657    33.265754   -91.384048    12.612127     22.30075    14.235163 
  492200    192.06345     59211773            0     59212521    12.683304    22.410371    13.178995     19.73288    33.267444   -91.426103    12.612127     22.30075    14.235163 
  492400    258.62696     59212723            0     59213730    12.683316    22.410353    13.179015       19.734    33.265679   -91.424099    12.612127     22.30075    14.235163 
  492600    179.88384     59211647            0     59212347    12.683326    22.410353    13.179179     19.73501    33.265624    -91.40766    12.612127     22.30075    14.235163 
  492800    177.49968     59211161            0     59211852     12.68331    22.410346    13.178958    19.733433     33.26491   -91.429755    12.612127     22.30075    14.235163 
  493000     163.5715     59210672            0     59211309    12.683288    22.410337     13.17903    19.731214    33.264026   -91.422543    12.612127     22.30075    14.235163 
  493200    181.47456     59212106            0     59212813    12.683322    22.410303    13.179131    19.734615    33.260652   -91.412488    12.612127     22.30075    14.235163 
  493400    198.60391     59211717            0     59212490      12.6833    22.410348    13.179043    19.732408    33.265196    -91.42123    12.612127     22.30075    14.235163 
  493600    220.02647     59211711            0     59212567    12.683301     22.41037    13.179203    19.732548    33.267396   -91.405216    12.612127     22.30075    14.235163 
  493800    227.68275     59211122            0     59212009     12.68332    22.410376    13.179046    19.734438    33.267939   -91.420923    12.612127     22.30075    14.235163 
  494000    189.99435     59211218            0     59211958    12.683322    22.410369    13.179031    19.734697    33.267292    -91.42244    12.612127     22.30075    14.235163 
  494200      299.695     59212020            0     59213187      12.6833    22.410323    13.179372    19.732455    33.262653   -91.388393    12.612127     22.30075    14.235163 
  494400    268.97944     59211398            0     59212445    12.683308    22.410349     13.17924    19.733231    33.265284   -91.401563    12.612127     22.30075    14.235163 
  494600    186.72401     59211373            0     59212100    12.683315    22.410355    13.178914    19.733902    33.265882    -91.43416    12.612127     22.30075    14.235163 
  494800    294.32557     59210770            0     59211916    12.683316    22.410353     13.17905    19.734001    33.265678   -91.420559    12.612127     22.30075    14.235163 
  495000    214.62492     59211873            0     59212708    12.683338    22.410356     13.17909    19.736273    33.265977   -91.416566    12.612127     22.30075    14.235163 
  495200    259.20964     59211946            0     59212955    12.683321    22.410336    13.179061    19.734556    33.263981   -91.419422    12.612127     22.30075    14.235163 
  495400    227.60082     59212026            0     59212912    12.683316    22.410337    13.179169    19.734089    33.264054   -91.408682    12.612127     22.30075    14.235163 
  495600    329.19882     59211056            0     59212338    12.683321    22.410327    13.178945    19.734499    33.263073   -91.431097    12.612127     22.30075    14.235163 
  495800    91.592054     59212749            0     59213105    12.683327    22.410353    13.178697     19.73517    33.265634   -91.455894    12.612127     22.30075    14.235163 
  496000    294.58286     59212126            0     59213273    12.683309    22.410331    13.178842    19.733393    33.263485   -91.441416    12.612127     22.30075    14.235163 
  496200    275.37331     59212038            0     59213110    12.683311    22.410353     13.17892    19.733552    33.265702   -91.433541    12.612127     22.30075    14.235163 
  496400    342.88395     59211491            0     59212825    12.683333    22.410374    13.178973    19.735712    33.267799   -91.428306    12.612127     22.30075    14.235163 
  496600    165.36367     59212438            0     59213082    12.683318    22.410354    13.178903    19.734264    33.265757   -91.435284    12.612127     22.30075    14.235163 
  496800    326.46453     59211122            0     59212392    12.683321    22.410344    13.178716    19.734578    33.264791   -91.454025    12.612127     22.30075    14.235163 
  497000    285.77538     59212948            0     59214061    12.683346    22.410349    13.179309    19.737095    33.265282   -91.394619    12.612127     22.30075    14.235163 
  497200    425.63689     59211953            0     59213610    12.683315    22.410313    13.179196    19.733922    33.261652   -91.405998    12.612127     22.30075    14.235163 
  497400    254.71288     59211602            0     59212593    12.683312     22.41036    13.178974    19.733661    33.266389   -91.428126    12.612127     22.30075    14.235163 
  497600    111.21344     59211443            0     59211876    12.683343    22.410366    13.179028    19.736721    33.266912   -91.422734    12.612127     22.30075    14.235163 
  497800    332.99712     59211694            0     59212990    12.683347    22.410353    13.178913    19.737182    33.265692   -91.434245    12.612127     22.30075    14.235163 
  498000    273.56448     59211340            0     59212405    12.683315    22.410349    13.179128    19.733968     33.26526    -91.41273    12.612127     22.30075    14.235163 
  498200     181.5857     59211908            0     59212615    12.683317    22.410353    13.179044     19.73419     33.26567   -91.421113    12.612127     22.30075    14.235163 
  498400    369.19647     59211539            0     59212977    12.683339     22.41034    13.179116    19.736313    33.264397   -91.413991    12.612127     22.30075    14.235163 
  498600    243.23889     59211817            0     59212764    12.683308    22.410341    13.179042    19.733229    33.264442   -91.421323    12.612127     22.30075    14.235163 
  498800    270.86066     59212388            0     59213442    12.683304    22.410336    13.178969    19.732851    33.263954   -91.428658    12.612127     22.30075    14.235163 
  499000    183.95871     59212086            0     59212802    12.683342    22.410364    13.179034    19.736698     33.26673   -91.422188    12.612127     22.30075    14.235163 
  499200    290.07591     59210970            0     59212099    12.683326    22.410381     13.17893    19.735009     33.26847   -91.432551    12.612127     22.30075    14.235163 
  499400    66.068284     59210876            0     59211134    12.683302    22.410342    13.179058    19.732631    33.264513   -91.419732    12.612127     22.30075    14.235163 
  499600    309.41822     59212510            0     59213714    12.683332    22.410343    13.179181    19.735634    33.264672   -91.407494    12.612127     22.30075    14.235163 
  499800    264.44184     59211529            0     59212558    12.683298    22.410375    13.178835    19.732218    33.267863   -91.442064    12.612127     22.30075    14.235163 
  500000    383.91235     59212293            0     59213788    12.683319    22.410353    13.178967      19.7343    33.265659   -91.428885    12.612127     22.30075    14.235163 
  500200    263.23159     59212028            0     59213053    12.683211    22.410335    13.178953    19.723589    33.263887   -91.430232    12.612127     22.30075    14.235163 
  500400    247.75622     59212296            0     59213261    12.683329    22.410352    13.179178    19.735365    33.265604   -91.407781    12.612127     22.30075    14.235163 
  500600    105.62346     59211704            0     59212115    12.683308    22.410335    13.179019    19.733254    33.263904   -91.423638    12.612127     22.30075    14.235163 
  500800    269.69659     59212053            0     59213103    12.683315    22.410352    13.179077    19.733992    33.265579   -91.417892    12.612127     22.30075    14.235163 
  501000     178.9582     59210375            0     59211072    12.683327    22.410349    13.179166    19.735098    33.265297   -91.408912    12.612127     22.30075    14.235163 
  501200    324.41402     59211966            0     59213229    12.683321    22.410363    13.178894    19.734566    33.266702   -91.436157    12.612127     22.30075    14.235163 
  501400    281.06884     59211924            0     59213018    12.683318    22.410353    13.178918    19.734287    33.265655   -91.433817    12.612127     22.30075    14.235163 
  501600    151.39818     59212338            0     59212928    12.683326    22.410352    13.179136    19.735003    33.265536   -91.411952    12.612127     22.30075    14.235163 
  501800     456.9689     59212387            0     59214166    12.683312    22.410353    13.179161    19.733682    33.265692    -91.40945    12.612127     22.30075    14.235163 
  502000      341.686     59211620            0     59212951    12.683298    22.410365    13.179247    19.732252    33.266835   -91.400872    12.612127     22.30075    14.235163 
  502200    246.78692     59211673            0     59212634    12.683337    22.410353    13.179023    19.736185    33.265673    -91.42322    12.612127     22.30075    14.235163 
  502400     390.8208     59212689            0     59214210     12.68332    22.410336    13.178912    19.734469    33.263969   -91.434335    12.612127     22.30075    14.235163 
  502600    229.38545     59211124            0     59212017    12.683309    22.410351    13.179097    19.733337    33.265426   -91.415882    12.612127     22.30075    14.235163 
  502800    282.04082     59212262            0     59213360    12.683314    22.410353    13.179202    19.733844    33.265657   -91.405339    12.612127     22.30075    14.235163 
  503000    301.44079     59212370            0     59213543    12.683312    22.410354    13.178974    19.733636    33.265715   -91.428211    12.612127     22.30075    14.235163 
  503200    89.879405     59211310            0     59211660    12.683308    22.410362    13.178945    19.733223     33.26659   -91.431056    12.612127     22.30075    14.235163 
  503400    349.00981     59210701            0     59212059     12.68331    22.410354     13.17898    19.733401    33.265712    -91.42759    12.612127     22.30075    14.235163 
  503600    298.54878     59212320            0     59213482    12.683303    22.410345    13.179032    19.732764    33.264827   -91.422385    12.612127     22.30075    14.235163 
  503800    317.91465     59212064            0     59213301    12.683295    22.410352    13.179143    19.731972    33.265565   -91.411245    12.612127     22.30075    14.235163 
  504000    155.87585     59212054            0     59212661    12.683341    22.410332     13.17876    19.736567    33.263606   -91.449566    12.612127     22.30075    14.235163 
  504200    412.98813     59210589            0     59212197    12.683304    22.410315       13.179     19.73281    33.261895   -91.425593    12.612127     22.30075    14.235163 
  504400    258.99735     59212787            0     59213795    12.683316    22.410353    13.178916    19.733998    33.265679   -91.433937    12.612127     22.30075    14.235163 
  504600    242.11642     59213865            0     59214807    12.683315    22.410354    13.178704    19.733967    33.265761    -91.45522    12.612127     22.30075    14.235163 
  504800    160.28777     59212459            0     59213083    12.683316    22.410353    13.178859    19.734021    33.265686   -91.439637    12.612127     22.30075    14.235163 
  505000    295.23142     59212181            0     59213330     12.68327    22.410377    13.179294    19.729462    33.268078   -91.396187    12.612127     22.30075    14.235163 
  505200    79.874299     59211301            0     59211612    12.683305    22.410321    13.179079    19.732934    33.262506   -91.417632    12.612127     22.30075    14.235163 
  505400    127.47044     59211856            0     59212353    12.683316    22.410389    13.178964     19.73403    33.269276   -91.429133    12.612127     22.30075    14.235163 
  505600    277.25853     59211854            0     59212934     12.68331    22.410378    13.178878    19.733433    33.268206   -91.437811    12.612127     22.30075    14.235163 
  505800     256.7564     59212979            0     59213979      12.6833    22.410346    13.178671    19.732455    33.264921   -91.458429    12.612127     22.30075    14.235163 
  506000    193.28818     59211814            0     59212566    12.683316    22.410353      13.1788    19.734041    33.265685   -91.445541    12.612127     22.30075    14.235163 
  506200    115.01743     59212443            0     59212891    12.683328    22.410375    13.178362    19.735221    33.267865   -91.489441    12.612127     22.30075    14.235163 
  506400    415.40069     59213673            0     59215290    12.683354     22.41035    13.178331     19.73788    33.265309   -91.492526    12.612127     22.30075    14.235163 
  506600    216.44324     59212842            0     59213684    12.683325    22.410379    13.178928    19.734993    33.268243   -91.432753    12.612127     22.30075    14.235163 
  506800    312.99672     59212868            0     59214087    12.683326    22.410344    13.178905    19.735064    33.264759   -91.435108    12.612127     22.30075    14.235163 
  507000    211.71257     59212164            0     59212988    12.683368    22.410321    13.178821    19.739242     33.26247   -91.443448    12.612127     22.30075    14.235163 
  507200    216.50958     59212016            0     59212859    12.683336    22.410357    13.179135    19.736073    33.266094    -91.41201    12.612127     22.30075    14.235163 
  507400    263.25364     59211628            0     59212653    12.683278    22.410346    13.179142    19.730279    33.264953   -91.411399    12.612127     22.30075    14.235163 
  507600    66.902738     59211619            0     59211880    12.683292    22.410354     13.17908     19.73163    33.265787   -91.417575    12.612127     22.30075    14.235163 
  507800    275.12326     59214033            0     59215104    12.683333    22.410321    13.178732    19.735751     33.26248   -91.452389    12.612127     22.30075    14.235163 
  508000    298.67732     59212018            0     59213180    12.683289    22.410353    13.179109    19.731347    33.265674   -91.414621    12.612127     22.30075    14.235163 
  508200    183.81746     59212749            0     59213464     12.68331    22.410377    13.178921    19.733433     33.26802   -91.433451    12.612127     22.30075    14.235163 
  508400    177.84659     59211504            0     59212196    12.683327     22.41033    13.179128    19.735185    33.263333   -91.412723    12.612127     22.30075    14.235163 
  508600    105.16309     59211370            0     59211779    12.683315    22.410342    13.178962    19.733918    33.264596   -91.429319    12.612127     22.30075    14.235163 
  508800     161.8554     59211422            0     59212052    12.683314    22.410353    13.178906    19.733863    33.265686   -91.435018    12.612127     22.30075    14.235163 
  509000    244.71576     59210310            0     59211263    12.683295    22.410358    13.178858    19.731901    33.266123   -91.439735    12.612127     22.30075    14.235163 
  509200    225.68421     59211361            0     59212239    12.683314    22.410354    13.178928    19.733818     33.26573   -91.432739    12.612127     22.30075    14.235163 
  509400    56.790657     59213126            0     59213347    12.683315    22.410353    13.179067     19.73399    33.265627   -91.418847    12.612127     22.30075    14.235163 
  509600     221.8131     59212147            0     59213010    12.683316    22.410354    13.179047    19.734045    33.265747   -91.420876    12.612127     22.30075    14.235163 
  509800    353.94395     59211404            0     59212782    12.683305    22.410353    13.179079    19.732913     33.26568   -91.417711    12.612127     22.30075    14.235163 
  510000    158.24608     59212368            0     59212985    12.683303    22.410354     13.17918    19.732713    33.265749   -91.407535    12.612127     22.30075    14.235163 
  510200    375.63225     59211285            0     59212747    12.683311    22.410362    13.179026    19.733554     33.26656   -91.422984    12.612127     22.30075    14.235163 
  510400    342.91029     59210701            0     59212036    12.683312    22.410341     13.17898    19.733631    33.264445   -91.427576    12.612127     22.30075    14.235163 
  510600    88.042059     59212229            0     59212571    12.683357    22.410362    13.179096    19.738198    33.266557   -91.415984    12.612127     22.30075    14.235163 
  510800    446.62351     59210931            0     59212669    12.683313    22.410353    13.179048    19.733782    33.265684   -91.420767    12.612127     22.30075    14.235163 
  511000    183.75407     59211367            0     59212082    12.683351     22.41038    13.179121    19.737581    33.268354   -91.413429    12.612127     22.30075    14.235163 
  511200    508.60127     59212702            0     59214682    12.683326    22.410348    13.179144    19.735084    33.265192   -91.411208    12.612127     22.30075    14.235163 
  511400    315.66804     59211618            0     59212847    12.683305    22.410344    13.179114    19.732938    33.264715   -91.414133    12.612127     22.30075    14.235163 
  511600    75.043716     59212876            0     59213168    12.683316    22.410353    13.179212    19.733999    33.265679   -91.404369    12.612127     22.30075    14.235163 
  511800    333.02949     59211105            0     59212401    12.683306    22.410348    13.179112    19.733017    33.265149   -91.414372    12.612127     22.30075    14.235163 
  512000    427.03503     59212592            0     59214255    12.683311    22.410346     13.17902    19.733547    33.264996    -91.42355    12.612127     22.30075    14.235163 
  512200    113.41115     59211946            0     59212388    12.683328    22.410317    13.179147    19.735252    33.262032   -91.410809    12.612127     22.30075    14.235163 
  512400    218.84862     59211467            0     59212319    12.683333    22.410336    13.179145    19.735749    33.263909   -91.411051    12.612127     22.30075    14.235163 
  512600    173.82022     59211634            0     59212311    12.683326    22.410363    13.179135    19.735038    33.266645    -91.41201    12.612127     22.30075    14.235163 
  512800    331.57639     59212322            0     59213613    12.683371    22.410352    13.178856      19.7395     33.26552   -91.439982    12.612127     22.30075    14.235163 
  513000    275.59947     59210527            0     59211599    12.683311    22.410349    13.179198    19.733505    33.265259    -91.40578    12.612127     22.30075    14.235163 
  513200    133.20581     59211782            0     59212300    12.683291    22.410314    13.179183    19.731592    33.261785   -91.407258    12.612127     22.30075    14.235163 
  513400    236.93307     59214115            0     59215038    12.683303     22.41037    13.179358     19.73271     33.26731   -91.389707    12.612127     22.30075    14.235163 
  513600    407.24011     59211276            0     59212861    12.683287    22.410355    13.178999    19.731124    33.265839     -91.4257    12.612127     22.30075    14.235163 
  513800    245.38181     59212343            0     59213298    12.683327    22.410351    13.179157    19.735152    33.265506   -91.409906    12.612127     22.30075    14.235163 
  514000    323.96666     59212060            0     59213321    12.683305    22.410324    13.178969    19.732902    33.262789    -91.42866    12.612127     22.30075    14.235163 
  514200    326.97634     59211811            0     59213083    12.683342     22.41037    13.178982    19.736605    33.267342   -91.427382    12.612127     22.30075    14.235163 
  514400    255.05812     59212100            0     59213093    12.683322    22.410371    13.178845     19.73464    33.267483   -91.441094    12.612127     22.30075    14.235163 
  514600    365.27167     59211350            0     59212772    12.683285    22.410363    13.179068    19.730977    33.266643    -91.41877    12.612127     22.30075    14.235163 
  514800    314.97318     59212847            0     59214073    12.683308    22.410366    13.179078    19.733246    33.266974     -91.4178    12.612127     22.30075    14.235163 
  515000    266.14741     59212724            0     59213761    12.683304    22.410373    13.178722    19.732813  