LAMMPS (30 Jul 2016)

# ----------------- Init Section -----------------

units real
processors 1 1 1
newton off
atom_style full
atom_modify sort 0 10.0

# ----------------- Atom Definition Section -----------------

read_data "MgMOF74-Pressure50000.data"
  orthogonal box = (0.4447 0.31425 -0.401771) to (26.5587 45.5442 27.2652)
  1 by 1 by 1 MPI processor grid
  reading atoms ...
  1307 atoms
  0 = max # of 1-2 neighbors
  0 = max # of 1-3 neighbors
  0 = max # of 1-4 neighbors
  1 = max # of special neighbors

# ----------------- Settings Section -----------------

#include "MgMOF74-Pressure50000.in.settings"

# ----------------- Run Section -----------------

# define groups
group GUEST type 1
11 atoms in group GUEST
group MOF type 2 3 4 5 6 7 8 9 10
1296 atoms in group MOF

# define computes
compute comT all com
compute comG GUEST com
compute comM MOF com

# settings
timestep           0.5
thermo             200
thermo_style       custom step temp epair emol etotal c_comT[1] c_comT[2] c_comT[3] c_comG[1] c_comG[2] c_comG[3] c_comM[1] c_comM[2] c_comM[3]
restart            2000000 sim.restart

# reset box to start at 0
change_box         all x delta $(-xlo) $(-xlo) y delta $(-ylo) $(-ylo) z delta $(-zlo) $(-zlo) remap units box
change_box         all x delta -0.44469999999999998419 $(-xlo) y delta $(-ylo) $(-ylo) z delta $(-zlo) $(-zlo) remap units box
change_box         all x delta -0.44469999999999998419 -0.44469999999999998419 y delta $(-ylo) $(-ylo) z delta $(-zlo) $(-zlo) remap units box
change_box         all x delta -0.44469999999999998419 -0.44469999999999998419 y delta -0.3142499999999999738 $(-ylo) z delta $(-zlo) $(-zlo) remap units box
change_box         all x delta -0.44469999999999998419 -0.44469999999999998419 y delta -0.3142499999999999738 -0.3142499999999999738 z delta $(-zlo) $(-zlo) remap units box
change_box         all x delta -0.44469999999999998419 -0.44469999999999998419 y delta -0.3142499999999999738 -0.3142499999999999738 z delta 0.40177099999999998925 $(-zlo) remap units box
change_box         all x delta -0.44469999999999998419 -0.44469999999999998419 y delta -0.3142499999999999738 -0.3142499999999999738 z delta 0.40177099999999998925 0.40177099999999998925 remap units box
  orthogonal box = (0 0.31425 -0.401771) to (26.114 45.5442 27.2652)
  orthogonal box = (0 0 -0.401771) to (26.114 45.23 27.2652)
  orthogonal box = (0 0 0) to (26.114 45.23 27.667)
write_data         data_changebox.data

# get rid of overlapping atoms
run                0
WARNING: No fixes defined, atoms won't move (../verlet.cpp:55)
Memory usage per processor = 0.478851 Mbytes
Step Temp E_pair E_mol TotEng comT[1] comT[2] comT[3] comG[1] comG[2] comG[3] comM[1] comM[2] comM[3] 
       0            0            0            0            0    12.683318    22.424053    14.189073    19.734246    34.636249    9.6241346    12.612127     22.30075    14.235163 
Loop time of 9.53674e-07 on 1 procs for 0 steps with 1307 atoms

0.0% CPU use with 1 MPI tasks x no OpenMP threads

MPI task timing breakdown:
Section |  min time  |  avg time  |  max time  |%varavg| %total
---------------------------------------------------------------
Pair    | 0          | 0          | 0          |   0.0 |  0.00
Bond    | 0          | 0          | 0          |   0.0 |  0.00
Neigh   | 0          | 0          | 0          |   0.0 |  0.00
Comm    | 0          | 0          | 0          |   0.0 |  0.00
Output  | 0          | 0          | 0          |   0.0 |  0.00
Modify  | 0          | 0          | 0          |   0.0 |  0.00
Other   |            | 9.537e-07  |            |       |100.00

Nlocal:    1307 ave 1307 max 1307 min
Histogram: 1 0 0 0 0 0 0 0 0 0
Nghost:    0 ave 0 max 0 min
Histogram: 1 0 0 0 0 0 0 0 0 0
Neighs:    0 ave 0 max 0 min
Histogram: 1 0 0 0 0 0 0 0 0 0

Total # of neighbors = 0
Ave neighs/atom = 0
Ave special neighs/atom = 0
Neighbor list builds = 0
Dangerous builds = 0
velocity           GUEST create 313 1738991
fix                1 GUEST nvt temp 313 313 50.0
pair_style         soft 5.0
pair_coeff         * * 0.0 5.0
kspace_style       none
variable           prefactor equal ramp(1.0,20.0)
fix                2 all adapt 1 pair soft a * * v_prefactor
run                200000
Neighbor list info ...
  1 neighbor list requests
  update every 1 steps, delay 10 steps, check yes
  max neighbors/atom: 2000, page size: 100000
  master list distance cutoff = 7
  ghost atom cutoff = 7
  binsize = 3.5 -> bins = 8 13 8
Memory usage per processor = 5.44173 Mbytes
Step Temp E_pair E_mol TotEng comT[1] comT[2] comT[3] comG[1] comG[2] comG[3] comM[1] comM[2] comM[3] 
       0    2.3966309    8995.3087            0    9004.6386    12.683318    22.424053    14.189073    19.734246    34.636249    9.6241346    12.612127     22.30075    14.235163 
     200    2.2907941    9161.5592            0    9170.4771    12.683325    22.424106    14.189047    19.734985     34.64157    9.6215711    12.612127     22.30075    14.235163 
     400    3.8749575    9316.4908            0    9331.5758    12.683326    22.424439    14.188995     19.73501     34.67484    9.6163489    12.612127     22.30075    14.235163 
     600    4.4302968    9455.0828            0    9472.3297    12.683272    22.425243    14.189038    19.729672    34.755333    9.6207072    12.612127     22.30075    14.235163 
     800    3.0605492    9601.5087            0    9613.4233    12.683198    22.426655    14.189175    19.722252    34.896554    9.6343428    12.612127     22.30075    14.235163 
    1000    2.3847487    9759.5593            0     9768.843    12.683137    22.428697    14.189368    19.716144    35.100786    9.6537117    12.612127     22.30075    14.235163 
    1200    2.4931385    9919.8074            0    9929.5131    12.683025    22.431171    14.189598    19.704976    35.348319    9.6767076    12.612127     22.30075    14.235163 
    1400    1.9327109    10085.994            0    10093.518    12.682862    22.433533    14.189848     19.68859    35.584601    9.7017292    12.612127     22.30075    14.235163 
    1600    3.6118977    10255.087            0    10269.148    12.682673    22.436081    14.190142     19.66974    35.839527     9.731123    12.612127     22.30075    14.235163 
    1800    1.5856414    10424.224            0    10430.397    12.682489    22.438575     14.19043    19.651288    36.089056    9.7599027    12.612127     22.30075    14.235163 
    2000    2.7509841    10593.757            0    10604.467    12.682316    22.440905    14.190701    19.633973    36.322177     9.787017    12.612127     22.30075    14.235163 
    2200    1.9572283    10769.265            0    10776.885    12.682094    22.443263    14.191121     19.61182    36.558027    9.8291154    12.612127     22.30075    14.235163 
    2400    2.6750705     10942.34            0    10952.754    12.681728    22.445225    14.192075    19.575178    36.754286    9.9245294    12.612127     22.30075    14.235163 
    2600    2.2730563    11105.679            0    11114.527    12.681376    22.445564    14.193181    19.539917     36.78825    10.035184    12.612127     22.30075    14.235163 
    2800    2.2902368    11272.079            0    11280.995    12.681166    22.444274    14.194137    19.518928    36.659192    10.130754    12.612127     22.30075    14.235163 
    3000    2.5728077    11440.272            0    11450.287    12.680957     22.44177    14.195246    19.497999    36.408662     10.24177    12.612127     22.30075    14.235163 
    3200    1.1605563    11608.654            0    11613.172    12.680784    22.439399    14.196187    19.480731    36.171497    10.335918    12.612127     22.30075    14.235163 
    3400     3.053143    11777.447            0    11789.333    12.680632    22.437087    14.197099    19.465525    35.940219    10.427102    12.612127     22.30075    14.235163 
    3600    1.4477808    11949.141            0    11954.777    12.680523    22.434839    14.198074    19.454665     35.71528    10.524668    12.612127     22.30075    14.235163 
    3800    2.8284785    12120.702            0    12131.713     12.68062    22.433184    14.199442    19.464336    35.549742    10.661538    12.612127     22.30075    14.235163 
    4000    2.1650285    12287.076            0    12295.504    12.680857    22.432412    14.201207    19.488036     35.47251    10.838128    12.612127     22.30075    14.235163 
    4200    2.2734871    12454.139            0    12462.989     12.68102    22.432419    14.202622    19.504384    35.473224     10.97963    12.612127     22.30075    14.235163 
    4400    2.8786121    12623.156            0    12634.362    12.681193    22.432371     14.20437    19.521621    35.468394    11.154477    12.612127     22.30075    14.235163 
    4600    1.9906746     12792.77            0     12800.52    12.681369    22.432402    14.205738    19.539276    35.471466     11.29134    12.612127     22.30075    14.235163 
    4800    2.7954428    12963.168            0    12974.051    12.681784    22.433075    14.207292    19.580761    35.538766    11.446899    12.612127     22.30075    14.235163 
    5000    1.2290369    13132.652            0    13137.437    12.682416    22.434571    14.208735    19.644046    35.688458    11.591242    12.612127     22.30075    14.235163 
    5200    1.6240196    13302.179            0    13308.502    12.682993    22.436121    14.209868    19.701749    35.843523    11.704551    12.612127     22.30075    14.235163 
    5400    3.1038174    13470.413            0    13482.496    12.683775    22.438106    14.211849    19.779953    36.042165    11.902721    12.612127     22.30075    14.235163 
    5600    1.6883845    13639.032            0    13645.604    12.684274    22.439292     14.21376    19.829909    36.160816    12.093906    12.612127     22.30075    14.235163 
    5800     3.549194     13808.42            0    13822.237    12.684571    22.440243    14.215886    19.859552    36.255935    12.306583    12.612127     22.30075    14.235163 
    6000    2.2542367    13977.296            0    13986.072     12.68479    22.441087    14.218154    19.881499     36.34038    12.533512    12.612127     22.30075    14.235163 
    6200    2.5250874     14145.82            0     14155.65    12.684964    22.441698    14.220093     19.89895     36.40143    12.727522    12.612127     22.30075    14.235163 
    6400    2.3049027    14315.424            0    14324.397    12.685134    22.442262    14.222381    19.915878    36.457909    12.956383    12.612127     22.30075    14.235163 
    6600    2.1152685    14484.926            0     14493.16    12.685125    22.442224    14.224293    19.915042    36.454078    13.147655    12.612127     22.30075    14.235163 
    6800    2.6346395    14652.818            0    14663.074    12.684861     22.44148     14.22678    19.888604    36.379672    13.396443    12.612127     22.30075    14.235163 
    7000    2.1302837    14822.029            0    14830.322    12.684523    22.440666    14.229015    19.854763    36.298273    13.620104    12.612127     22.30075    14.235163 
    7200    3.6184599     14993.12            0    15007.207    12.684057    22.439835    14.231755    19.808209    36.215052    13.894133    12.612127     22.30075    14.235163 
    7400    2.0912223    15162.846            0    15170.987    12.683712    22.439147    14.234174    19.773623    36.146222    14.136176    12.612127     22.30075    14.235163 
    7600    2.8362119    15330.371            0    15341.413    12.683512    22.437983    14.236639    19.753656    36.029822    14.382758    12.612127     22.30075    14.235163 
    7800    1.7187405    15498.794            0    15505.485    12.683321    22.436773    14.238454     19.73452    35.908733    14.564385    12.612127     22.30075    14.235163 
    8000    2.8405162    15667.651            0    15678.709    12.682996     22.43526      14.2405    19.702054    35.757409    14.769021    12.612127     22.30075    14.235163 
    8200    2.1937186    15836.687            0    15845.227    12.682685    22.433835    14.242447    19.670905    35.614796    14.963824    12.612127     22.30075    14.235163 
    8400    2.3877885    16006.115            0    16015.411    12.682397    22.432493    14.244378    19.642148    35.480602    15.156992    12.612127     22.30075    14.235163 
    8600    2.3478824    16176.347            0    16185.487    12.682239    22.431347    14.246489    19.626319    35.365982    15.368176    12.612127     22.30075    14.235163 
    8800    3.9242338    16344.824            0    16360.101    12.682588    22.430655     14.24922    19.661183    35.296683    15.641421    12.612127     22.30075    14.235163 
    9000    1.8100371    16513.764            0    16520.811    12.683165    22.430523    14.251556    19.718965    35.283523    15.875071    12.612127     22.30075    14.235163 
    9200    2.9963698    16684.585            0    16696.249    12.683679     22.43089     14.25402    19.770387    35.320261    16.121577    12.612127     22.30075    14.235163 
    9400    1.3811734    16853.681            0    16859.058    12.683784    22.431736    14.256533    19.780856    35.404808    16.373003    12.612127     22.30075    14.235163 
    9600    1.8919897    17021.444            0    17028.809     12.68348    22.432579     14.25812    19.750469    35.489201     16.53177    12.612127     22.30075    14.235163 
    9800    2.7073889    17190.424            0    17200.964    12.682993    22.433683    14.260023    19.701733     35.59967    16.722141    12.612127     22.30075    14.235163 
   10000    1.4339084    17359.234            0    17364.816    12.682764    22.434532    14.261671    19.678781    35.684541    16.887054    12.612127     22.30075    14.235163 
   10200    3.3543277    17528.017            0    17541.075    12.682669    22.435263     14.26323    19.669273    35.757686    17.043009    12.612127     22.30075    14.235163 
   10400    1.9506359    17697.176            0    17704.769    12.682566    22.436106    14.265029    19.659063    35.842024    17.223014    12.612127     22.30075    14.235163 
   10600    3.4032528    17867.015            0    17880.263    12.682548    22.436918    14.266685     19.65725    35.923228    17.388637    12.612127     22.30075    14.235163 
   10800    1.5827502    18038.728            0    18044.889    12.683025    22.438009    14.268671    19.704891    36.032435    17.587285    12.612127     22.30075    14.235163 
   11000    3.2570066    18205.949            0    18218.628    12.684717    22.438821    14.270211    19.874234    36.113664    17.741439    12.612127     22.30075    14.235163 
   11200    1.7348757    18374.171            0    18380.925    12.687029    22.439465    14.271763    20.105538    36.178101    17.896682    12.612127     22.30075    14.235163 
   11400    2.4688895    18544.401            0    18554.012    12.688746    22.439893    14.273206     20.27726    36.220893    18.041002    12.612127     22.30075    14.235163 
   11600    2.4886179    18713.082            0     18722.77    12.689821    22.440375     14.27497    20.384862    36.269093    18.217483    12.612127     22.30075    14.235163 
   11800    1.5096693    18881.412            0    18887.289    12.690088     22.44078    14.276589    20.411574    36.309651    18.379471    12.612127     22.30075    14.235163 
   12000    2.6161976    19050.458            0    19060.642    12.690096    22.441005    14.278033    20.412316    36.332167    18.523934    12.612127     22.30075    14.235163 
   12200    1.9953856    19221.596            0    19229.364    12.689858    22.441062    14.280057     20.38852    36.337826    18.726413    12.612127     22.30075    14.235163 
   12400     4.098735    19389.481            0    19405.437    12.688612    22.440446     14.28204    20.263856    36.276177    18.924804    12.612127     22.30075    14.235163 
   12600    2.0700031    19557.982            0    19566.041    12.686665    22.439442    14.284058    20.069117     36.17582    19.126672    12.612127     22.30075    14.235163 
   12800    2.8490294    19727.783            0    19738.874    12.684916    22.438542    14.285824    19.894161    36.085713    19.303352    12.612127     22.30075    14.235163 
   13000    1.6658683    19897.159            0    19903.644    12.682944    22.437526    14.287815    19.696865    35.984052    19.502542    12.612127     22.30075    14.235163 
   13200    2.4851134    20065.887            0    20075.561    12.681367    22.436712    14.289391    19.539024    35.902647    19.660228    12.612127     22.30075    14.235163 
   13400    2.2925394    20235.623            0    20244.547    12.679145    22.435725    14.291427    19.316731     35.80389     19.86391    12.612127     22.30075    14.235163 
   13600    3.2514411    20405.327            0    20417.985    12.676696    22.434608    14.293408    19.071766    35.692132     20.06202    12.612127     22.30075    14.235163 
   13800    2.2194751    20574.565            0    20583.205    12.674256    22.432891    14.295762    18.827658    35.520444    20.297522    12.612127     22.30075    14.235163 
   14000    2.5650906     20744.99            0    20754.976     12.67378    22.432034    14.297842    18.780013    35.434631    20.505633    12.612127     22.30075    14.235163 
   14200    2.1025787    20912.334            0     20920.52    12.674849    22.432097     14.30043    18.886989     35.44096    20.764559    12.612127     22.30075    14.235163 
   14400    2.2699814    21080.597            0    21089.434    12.676225    22.432633    14.302288    19.024686      35.4946    20.950454    12.612127     22.30075    14.235163 
   14600    2.6356503    21250.022            0    21260.282    12.678011    22.433378    14.304454    19.203314    35.569123    21.167108    12.612127     22.30075    14.235163 
   14800    1.5125092    21418.595            0    21424.483    12.679431    22.433977    14.306149    19.345386    35.629007    21.336664    12.612127     22.30075    14.235163 
   15000     2.638991    21588.565            0    21598.838    12.680993    22.434825     14.30812    19.501653    35.713901    21.533929    12.612127     22.30075    14.235163 
   15200    2.3143486    21757.764            0    21766.773     12.68208    22.436274    14.310172     19.61044    35.858856    21.739211    12.612127     22.30075    14.235163 
   15400     2.581839    21925.931            0    21935.982    12.682578    22.438206    14.312049    19.660209    36.052117    21.926964    12.612127     22.30075    14.235163 
   15600    1.8390707      22095.3            0    22102.459    12.682922    22.439909    14.313673    19.694588    36.222458     22.08946    12.612127     22.30075    14.235163 
   15800    3.3869081    22264.211            0    22277.396     12.68342    22.441401      14.3157    19.744472    36.371796    22.292254    12.612127     22.30075    14.235163 
   16000    1.9210817    22433.716            0    22441.194     12.68379     22.44239     14.31756     19.78149     36.47068    22.478323    12.612127     22.30075    14.235163 
   16200    2.9587243     22602.82            0    22614.338    12.683653     22.44295    14.319512     19.76781    36.526693    22.673599    12.612127     22.30075    14.235163 
   16400    1.2710105     22771.65            0    22776.598     12.68309    22.443153    14.321255    19.711469    36.547023    22.847904    12.612127     22.30075    14.235163 
   16600    2.2907404    22941.327            0    22950.245    12.682267    22.443024    14.322731    19.629105    36.534166    22.995609    12.612127     22.30075    14.235163 
   16800    2.7106104    23112.293            0    23122.845    12.681449    22.442155    14.324616    19.547269    36.447159    23.184227    12.612127     22.30075    14.235163 
   17000     1.764105    23279.206            0    23286.074    12.681132    22.440462    14.326466    19.515506    36.277803    23.369278    12.612127     22.30075    14.235163 
   17200    2.6133607    23448.009            0    23458.183    12.680806    22.439092    14.327908    19.482985    36.140796    23.513482    12.612127     22.30075    14.235163 
   17400    2.4523287    23617.182            0    23626.728    12.680496    22.437519    14.329782     19.45189    35.983367    23.700957    12.612127     22.30075    14.235163 
   17600    2.3396087    23786.316            0    23795.424    12.680435    22.436205    14.331561    19.445828    35.851963    23.878963    12.612127     22.30075    14.235163 
   17800    3.1219525    23956.176            0    23968.329    12.680461    22.434849    14.333494    19.448422     35.71624    24.072306    12.612127     22.30075    14.235163 
   18000     1.731149    24126.007            0    24132.746    12.680531    22.433407     14.33559    19.455406    35.572051    24.282019    12.612127     22.30075    14.235163 
   18200    1.9364476    24298.404            0    24305.942    12.680753    22.432695    14.337288    19.477659     35.50081    24.451863    12.612127     22.30075    14.235163 
   18400    3.1852355    24466.842            0    24479.242    12.681272    22.433466    14.339405    19.529592    35.577947    24.663674    12.612127     22.30075    14.235163 
   18600    1.9461247    24632.522            0    24640.098    12.681936    22.435274    14.341161    19.596035    35.758825    24.839388    12.612127     22.30075    14.235163 
   18800    2.6075593    24802.017            0    24812.168    12.682607    22.436942    14.342635    19.663125    35.925706    24.986852    12.612127     22.30075    14.235163 
   19000    2.3033342     24972.11            0    24981.077    12.683368    22.438408     14.34424    19.739207    36.072327    25.147429    12.612127     22.30075    14.235163 
   19200    2.1010748    25141.254            0    25149.433    12.683929    22.439098      14.3455    19.795391    36.141379    25.273496    12.612127     22.30075    14.235163 
   19400    2.7450618    25310.884            0    25321.571    12.684237    22.439594    14.346997    19.826198    36.191015    25.423217    12.612127     22.30075    14.235163 
   19600    1.8175781     25479.38            0    25486.456     12.68431    22.440021    14.348072    19.833506     36.23372    25.530806    12.612127     22.30075    14.235163 
   19800    2.4505593    25648.146            0    25657.686    12.684571    22.440688     14.34902     19.85959    36.300477    25.625579    12.612127     22.30075    14.235163 
   20000    2.3819169    25817.265            0    25826.537    12.684922    22.441447    14.349953    19.894693    36.376366    25.718935    12.612127     22.30075    14.235163 
   20200    2.1722019    25986.394            0    25994.851    12.685155    22.442114    14.350827    19.918043    36.443142    25.806351    12.612127     22.30075    14.235163 
   20400    3.0620143    26157.143            0    26169.063    12.685172    22.442456    14.351706    19.919677     36.47726    25.894345    12.612127     22.30075    14.235163 
   20600    1.5672517    26326.684            0    26332.785    12.685681    22.442554    14.352591    19.970605    36.487132    25.982894    12.612127     22.30075    14.235163 
   20800    3.4070227    26493.346            0    26506.609    12.686595    22.441904    14.353529    20.062104    36.422121    26.076727    12.612127     22.30075    14.235163 
   21000    1.3994271     26661.72            0    26667.168    12.687351    22.440615     14.35457    20.137741    36.293137    26.180888    12.612127     22.30075    14.235163 
   21200    3.1602435    26830.787            0     26843.09    12.687952    22.439262    14.355521    20.197868    36.157754    26.276014    12.612127     22.30075    14.235163 
   21400    1.7347533    26999.748            0    27006.501    12.688587    22.437809    14.356538     20.26137    36.012379    26.377757    12.612127     22.30075    14.235163 
   21600    4.0372175    27168.919            0    27184.635    12.689189    22.436416    14.357505    20.321602     35.87305    26.474422    12.612127     22.30075    14.235163 
   21800    2.1165178    27339.266            0    27347.505    12.689916    22.434964     14.35858    20.394276    35.727777    26.582019    12.612127     22.30075    14.235163 
   22000    2.4807024    27510.956            0    27520.614     12.69011     22.43452    14.359328     20.41377    35.683338    26.656879    12.612127     22.30075    14.235163 
   22200    2.7265277    27679.928            0    27690.542    12.688526    22.434758    14.360182    20.255265    35.707144    26.742274    12.612127     22.30075    14.235163 
   22400    2.2188724    27848.752            0     27857.39    12.686404    22.435754    14.361076    20.042974    35.806867    26.831708    12.612127     22.30075    14.235163 
   22600    2.5242175    28017.989            0    28027.816    12.684754    22.437163    14.362284    19.877871    35.947744    26.952559    12.612127     22.30075    14.235163 
   22800    2.3665182    28186.864            0    28196.077    12.683139    22.437835    14.363718    19.716304    36.015062    27.096059    12.612127     22.30075    14.235163 
   23000    2.2611385    28353.723            0    28362.525    12.681568    22.437537    14.365288    19.559178    35.985236    27.253133    12.612127     22.30075    14.235163 
   23200    2.0057667     28521.97            0    28529.778    12.680283    22.437064    14.366624    19.430599    35.937925    27.386702    12.612127     22.30075    14.235163 
   23400    2.8132041    28692.556            0    28703.508    12.678816     22.43653    14.368292    19.283887    35.884472    27.553622    12.612127     22.30075    14.235163 
   23600    1.9480462    28862.943            0    28870.526      12.6786    22.436332    14.369718    19.262297    35.864617    27.696265    12.612127     22.30075    14.235163 
   23800    2.6510009    29029.915            0    29040.235    12.680213    22.436096     14.37109    19.423609     35.84106     27.83352    12.612127     22.30075    14.235163 
   24000    1.4246333    29199.191            0    29204.737    12.682133    22.435747    14.372212    19.615694    35.806143    27.945748    12.612127     22.30075    14.235163 
   24200    2.9720755    29370.157            0    29381.727    12.684084    22.435548    14.373308    19.810893    35.786255    28.055394    12.612127     22.30075    14.235163 
   24400    1.8740231    29539.108            0    29546.403    12.685971    22.435849    14.374274    19.999665    35.816376    28.152052    12.612127     22.30075    14.235163 
   24600    3.6678482    29707.703            0    29721.982    12.687354    22.436586    14.375012    20.137988    35.890019    28.225888    12.612127     22.30075    14.235163 
   24800    2.1311538     29876.73            0    29885.026    12.688797    22.437583    14.375884    20.282362    35.989843    28.313161    12.612127     22.30075    14.235163 
   25000     2.583422    30048.717            0    30058.774    12.688916    22.437708    14.376431    20.294317    36.002275    28.367848    12.612127     22.30075    14.235163 
   25200     2.375626    30214.696            0    30223.944    12.687398    22.436591    14.376699    20.142378    35.890548    28.394708    12.612127     22.30075    14.235163 
   25400    2.4554702    30382.931            0     30392.49    12.686016    22.435733    14.376883    20.004174    35.804763    28.413064    12.612127     22.30075    14.235163 
   25600    2.0789535     30551.64            0    30559.733    12.684757    22.435302    14.377166    19.878199    35.761605     28.44139    12.612127     22.30075    14.235163 
   25800    2.2764464     30720.75            0    30729.612     12.68378    22.435004    14.377429     19.78042    35.731827    28.467682    12.612127     22.30075    14.235163 
   26000    2.4731127    30889.889            0    30899.517    12.682538    22.434628    14.377767    19.656263    35.694182    28.501464    12.612127     22.30075    14.235163 
   26200    2.0000247    31059.302            0    31067.088    12.681535    22.434305    14.378045    19.555844    35.661838    28.529276    12.612127     22.30075    14.235163 
   26400    2.3811581    31230.192            0    31239.462    12.680622    22.433994    14.378313    19.464566     35.63077    28.556101    12.612127     22.30075    14.235163 
   26600    3.3204566    31401.284            0    31414.211    12.680068    22.434108    14.378367    19.409141     35.64211    28.561585    12.612127     22.30075    14.235163 
   26800    1.8625527    31567.765            0    31575.016    12.680248    22.434848    14.378006    19.427121    35.716161    28.525407    12.612127     22.30075    14.235163 
   27000    3.0328008    31735.655            0    31747.461    12.681187    22.436004    14.377494    19.521042    35.831816    28.474184    12.612127     22.30075    14.235163 
   27200    1.5238013    31905.837            0    31911.769    12.682403    22.437288    14.376986    19.642711    35.960322    28.423383    12.612127     22.30075    14.235163 
   27400    2.6933393    32075.552            0    32086.037    12.683563    22.438255    14.376604    19.758798    36.057006    28.385129    12.612127     22.30075    14.235163 
   27600    2.1981322    32245.389            0    32253.946    12.685122    22.439121    14.376257    19.914761    36.143645    28.350491    12.612127     22.30075    14.235163 
   27800    2.9915798    32413.201            0    32424.847    12.686949    22.439523    14.375951    20.097488    36.183881    28.319878    12.612127     22.30075    14.235163 
   28000    1.8769734    32581.284            0    32588.591    12.689247    22.439766    14.375577    20.327436    36.208207    28.282409    12.612127     22.30075    14.235163 
   28200    2.5010065    32751.444            0    32761.181    12.691033    22.439858    14.375247    20.506036    36.217426    28.249358    12.612127     22.30075    14.235163 
   28400    2.4943022    32921.236            0    32930.946    12.692453      22.4396    14.374791    20.648124    36.191636    28.203757    12.612127     22.30075    14.235163 
   28600     2.362377    33089.159            0    33098.356    12.692656    22.439459    14.374624    20.668469    36.177487     28.18709    12.612127     22.30075    14.235163 
   28800    1.5160428    33258.168            0     33264.07    12.692192    22.439539    14.374575    20.622062    36.185478     28.18217    12.612127     22.30075    14.235163 
   29000    3.2410253    33427.191            0    33439.808    12.691057    22.439514    14.374365    20.508486    36.182981    28.161126    12.612127     22.30075    14.235163 
   29200    1.8660171    33596.252            0    33603.517     12.68961    22.439342    14.374093    20.363687    36.165756    28.133911    12.612127     22.30075    14.235163 
   29400    2.2820803    33766.201            0    33775.085    12.688136    22.438942    14.373797     20.21621    36.125797    28.104381    12.612127     22.30075    14.235163 
   29600    2.6099676    33935.585            0    33945.745    12.686546    22.437938    14.373334    20.057205     36.02534    28.058033    12.612127     22.30075    14.235163 
   29800    1.7564697    34104.964            0    34111.802    12.685076    22.436673    14.372684    19.910117    35.898749    27.993028    12.612127     22.30075    14.235163 
   30000    3.0684009    34274.539            0    34286.484    12.684001    22.436269    14.371862    19.802608    35.858379    27.910808    12.612127     22.30075    14.235163 
   30200      2.17095    34443.625            0    34452.076    12.683655    22.436769    14.370701    19.767912    35.908359    27.794585    12.612127     22.30075    14.235163 
   30400    2.3075165    34611.656            0    34620.639    12.684306    22.437836    14.369773    19.833059    36.015087    27.701811    12.612127     22.30075    14.235163 
   30600    2.5662013    34780.492            0    34790.482    12.685464    22.439001    14.368931    19.948981    36.131702     27.61751    12.612127     22.30075    14.235163 
   30800    1.5490823    34949.194            0    34955.224    12.686778    22.439916      14.3682    20.080351    36.223185    27.544449    12.612127     22.30075    14.235163 
   31000    3.3219797    35118.331            0    35131.263    12.688158    22.440804    14.367456    20.218494     36.31203    27.470013    12.612127     22.30075    14.235163 
   31200    1.9509536    35288.292            0    35295.887    12.689654    22.441808    14.366617    20.368158    36.412465    27.386055    12.612127     22.30075    14.235163 
   31400    2.4062158    35458.527            0    35467.895    12.690653    22.442968     14.36572    20.468085    36.528518    27.296302    12.612127     22.30075    14.235163 
   31600    2.4010501    35626.693            0     35636.04    12.691025    22.444594    14.364675    20.505235    36.691219    27.191809    12.612127     22.30075    14.235163 
   31800    2.3620933    35797.067            0    35806.262    12.690981    22.445635    14.363927    20.500868    36.795373    27.116957    12.612127     22.30075    14.235163 
   32000    2.1278036    35967.241            0    35975.525    12.690517    22.445454     14.36338    20.454459    36.777244    27.062193    12.612127     22.30075    14.235163 
   32200    2.8776886    36134.912            0    36146.114    12.689284    22.444918    14.362988    20.331105    36.723615    27.022983    12.612127     22.30075    14.235163 
   32400    1.3002027    36302.784            0    36307.845    12.687399    22.444386    14.362509    20.142567    36.670434    26.975103    12.612127     22.30075    14.235163 
   32600    2.7300865    36472.244            0    36482.872    12.685694    22.443937    14.362072    19.971926    36.625464    26.931339    12.612127     22.30075    14.235163 
   32800    2.0612492    36641.083            0    36649.107    12.683614    22.443355    14.361554    19.763849    36.567292    26.879512    12.612127     22.30075    14.235163 
   33000    2.6327647    36809.966            0    36820.215    12.682162    22.442809    14.361239     19.61856    36.512635    26.847993    12.612127     22.30075    14.235163 
   33200    1.9679182    36980.965            0    36988.626    12.680505     22.44191    14.360964    19.452821     36.42265    26.820531    12.612127     22.30075    14.235163 
   33400    2.9205575    37149.949            0    37161.319    12.679247    22.440507    14.361043    19.326976     36.28233    26.828417    12.612127     22.30075    14.235163 
   33600    2.2625293    37319.773            0    37328.581    12.678488    22.438607    14.361351    19.251033    36.092252    26.859205    12.612127     22.30075    14.235163 
   33800    2.7315377    37488.697            0    37499.331    12.679474    22.437348    14.361763     19.34973    35.966312    26.900437    12.612127     22.30075    14.235163 
   34000    1.7300801    37657.408            0    37664.143    12.681143    22.436362    14.362293    19.516692    35.867644    26.953435    12.612127     22.30075    14.235163 
   34200    3.1790182    37824.744            0     37837.12    12.682528    22.435558    14.362733    19.655185    35.787203    26.997485    12.612127     22.30075    14.235163 
   34400    1.6577157    37994.652            0    38001.105    12.683962    22.434733    14.363292    19.798653    35.704658    27.053385    12.612127     22.30075    14.235163 
   34600    2.6324753    38163.246            0    38173.494    12.684616    22.434474    14.363922    19.864127    35.678725    27.116457    12.612127     22.30075    14.235163 
   34800    1.9425702    38333.579            0    38341.141    12.685478     22.43442    14.364743    19.950309     35.67332    27.198547    12.612127     22.30075    14.235163 
   35000    2.2368318    38501.396            0    38510.104    12.687051    22.434735    14.365611    20.107717    35.704843    27.285395    12.612127     22.30075    14.235163 
   35200    2.4259237    38670.822            0    38680.266    12.689729    22.435386    14.366947    20.375657     35.76999    27.419107    12.612127     22.30075    14.235163 
   35400    1.9251624    38843.027            0    38850.521    12.691537     22.43627    14.368079    20.556518    35.858434    27.532295    12.612127     22.30075    14.235163 
   35600    2.8891304    39010.046            0    39021.293    12.691942    22.438252    14.369558    20.596981    36.056718    27.680278    12.612127     22.30075    14.235163 
   35800    1.9612195    39177.859            0    39185.494    12.691362     22.44013    14.371004    20.538936     36.24463    27.824897    12.612127     22.30075    14.235163 
   36000    4.3577361    39348.755            0     39365.72    12.690462    22.441907    14.372752    20.448915    36.422338    27.999775    12.612127     22.30075    14.235163 
   36200    2.3159152     39517.79            0    39526.805    12.689125    22.442893    14.374892    20.315168    36.521027    28.213864    12.612127     22.30075    14.235163 
   36400    2.0779993    39685.134            0    39693.224    12.687443     22.44293      14.3769    20.146905     36.52469    28.414798    12.612127     22.30075    14.235163 
   36600    1.7918345    39855.004            0     39861.98    12.686036    22.442684    14.378649    20.006187    36.500087    28.589735    12.612127     22.30075    14.235163 
   36800    2.7242074    40025.346            0    40035.951    12.684888    22.441352    14.381003    19.891357    36.366892    28.825235    12.612127     22.30075    14.235163 
   37000    1.7082408    40192.607            0    40199.257    12.684892    22.439356    14.382762    19.891745    36.167164    29.001191    12.612127     22.30075    14.235163 
   37200    2.7862321    40362.828            0    40373.675    12.685179     22.43751    14.384238    19.920388    35.982491    29.148839    12.612127     22.30075    14.235163 
   37400    2.9041726    40535.069            0    40546.374    12.685879    22.436086    14.385989    19.990471    35.840018    29.324076    12.612127     22.30075    14.235163 
   37600    1.7810898    40700.138            0    40707.072    12.687278    22.435726    14.386948    20.130366    35.803988    29.420011    12.612127     22.30075    14.235163 
   37800     2.840654    40869.105            0    40880.163    12.688912    22.435404    14.387565     20.29384    35.771852    29.481765    12.612127     22.30075    14.235163 
   38000    1.1554027    41040.396            0    41044.894    12.690748    22.435387    14.388133    20.477544    35.770092    29.538581    12.612127     22.30075    14.235163 
   38200     2.885592    41207.522            0    41218.755    12.692246    22.436589    14.388404    20.627406     35.89037    29.565656    12.612127     22.30075    14.235163 
   38400    2.0526415     41377.02            0    41385.011    12.693826    22.438498    14.388635    20.785453    36.081326    29.588796    12.612127     22.30075    14.235163 
   38600    3.4542508    41547.887            0    41561.335    12.694768    22.440783    14.388839    20.879723    36.309978    29.609208    12.612127     22.30075    14.235163 
   38800    2.2864945    41719.727            0    41728.628    12.695259    22.443068    14.389253     20.92887    36.538574     29.65061    12.612127     22.30075    14.235163 
   39000    1.4404997    41884.614            0    41890.222    12.694545    22.443205    14.389712    20.857435    36.552205    29.696556    12.612127     22.30075    14.235163 
   39200    2.2858437    42053.296            0    42062.195    12.693362    22.443018     14.39007    20.739079     36.53354    29.732313    12.612127     22.30075    14.235163 
   39400    2.4490807    42222.167            0    42231.702    12.691852    22.442604    14.390461    20.588053    36.492137    29.771443    12.612127     22.30075    14.235163 
   39600    1.7383608    42392.039            0    42398.807    12.690575    22.442073    14.390765    20.460295    36.439019    29.801847    12.612127     22.30075    14.235163 
   39800    3.3737856    42560.546            0     42573.68    12.689727    22.440987    14.390902    20.375399    36.330303    29.815597    12.612127     22.30075    14.235163 
   40000    1.4598104    42731.894            0    42737.577    12.689227    22.439886    14.390989     20.32539    36.220232    29.824226    12.612127     22.30075    14.235163 
   40200    2.7300336    42901.644            0    42912.272    12.689143    22.439648    14.391373    20.316989     36.19638    29.862648    12.612127     22.30075    14.235163 
   40400    1.9488947    43068.648            0    43076.235    12.689207    22.440089    14.392069    20.323426    36.240494    29.932358    12.612127     22.30075    14.235163 
   40600    2.4766995    43237.459            0    43247.101    12.688998    22.440129     14.39282    20.302515    36.244493    30.007478    12.612127     22.30075    14.235163 
   40800    2.1065247    43408.156            0    43416.357    12.688634    22.440508    14.393901    20.266108    36.282442    30.115563    12.612127     22.30075    14.235163 
   41000    2.2830305    43577.017            0    43585.905    12.688036    22.441594      14.3951    20.206219    36.391091    30.235496    12.612127     22.30075    14.235163 
   41200    2.4278874    43745.969            0     43755.42    12.687185    22.443334    14.396839    20.121122    36.565108    30.409544    12.612127     22.30075    14.235163 
   41400    2.2038748    43914.729            0    43923.308    12.687129    22.444387    14.398165    20.115533    36.670504    30.542159    12.612127     22.30075    14.235163 
   41600    1.9512835    44084.618            0    44092.215    12.688026    22.445034    14.399648    20.205245    36.735252    30.690525    12.612127     22.30075    14.235163 
   41800    2.8575529    44252.921            0    44264.045    12.687772    22.444234    14.400806    20.179854    36.655136    30.806421    12.612127     22.30075    14.235163 
   42000    1.8261625    44422.536            0    44429.645    12.686415     22.44217    14.402029     20.04412    36.448708    30.928695    12.612127     22.30075    14.235163 
   42200    3.4723356    44590.742            0     44604.26    12.685415    22.439596    14.402911    19.944012    36.191232    31.017008    12.612127     22.30075    14.235163 
   42400    1.7172759    44759.898            0    44766.583    12.684594    22.436337     14.40383    19.861889     35.86519    31.108956    12.612127     22.30075    14.235163 
   42600    3.1103588    44929.052            0     44941.16    12.684374    22.433842    14.404578    19.839846    35.615499    31.183735    12.612127     22.30075    14.235163 
   42800    1.5572795    45099.449            0    45105.512    12.684533     22.43156    14.405271    19.855819     35.38722     31.25305    12.612127     22.30075    14.235163 
   43000    3.2314692    45268.796            0    45281.376    12.685522    22.430134    14.405624    19.954732    35.244636     31.28837    12.612127     22.30075    14.235163 
   43200    1.6329663    45439.863            0     45446.22    12.687121    22.429425    14.405922    20.114681    35.173656    31.318227    12.612127     22.30075    14.235163 
   43400    3.2353786    45609.451            0    45622.046    12.688653    22.430211     14.40672    20.267963     35.25229    31.397999    12.612127     22.30075    14.235163 
   43600    2.0272174    45776.351            0    45784.243    12.690167    22.432198    14.407879    20.419411    35.451123    31.513963    12.612127     22.30075    14.235163 
   43800    2.9035113    45945.142            0    45956.445    12.690973    22.434263     14.40895    20.500072    35.657672    31.621104    12.612127     22.30075    14.235163 
   44000    3.2432989    46120.938            0    46133.564    12.690255    22.437152    14.410273    20.428262    35.946697    31.753499    12.612127     22.30075    14.235163 
   44200    2.5458833    46281.792            0    46291.703    12.687779    22.439068    14.411291    20.180544    36.138397    31.855348    12.612127     22.30075    14.235163 
   44400    1.9894546      46451.8            0    46459.545    12.685361    22.440217    14.412037    19.938613    36.253273    31.929919    12.612127     22.30075    14.235163 
   44600    3.2197944    46620.296            0     46632.83    12.682247     22.44169    14.412991    19.627152    36.400697    32.025407    12.612127     22.30075    14.235163 
   44800    2.1365443    46789.338            0    46797.655    12.679668    22.442975    14.413758    19.369088    36.529194    32.102157    12.612127     22.30075    14.235163 
   45000    3.0223255    46961.488            0    46973.254    12.677717    22.444152    14.414539    19.173899     36.64698    32.180214    12.612127     22.30075    14.235163 
   45200    1.7057225     47131.52            0     47138.16     12.67782    22.444785     14.41573    19.184208    36.710282    32.299372    12.612127     22.30075    14.235163 
   45400    2.6382508    47297.804            0    47308.074    12.679965    22.444083    14.416674    19.398839    36.640113    32.393799    12.612127     22.30075    14.235163 
   45600    1.6657095     47465.74            0    47472.224    12.683023     22.44302    14.417765    19.704764     36.53375    32.503026    12.612127     22.30075    14.235163 
   45800    1.7790211    47635.427            0    47642.353    12.685415    22.442379     14.41854    19.943998    36.469634    32.580554    12.612127     22.30075    14.235163 
   46000    2.8871414    47805.577            0    47816.816    12.688626     22.44229    14.419607     20.26524    36.460737    32.687249    12.612127     22.30075    14.235163 
   46200    1.4459183    47974.006            0    47979.635    12.691624    22.442895     14.42072    20.565168     36.52119    32.798662    12.612127     22.30075    14.235163 
   46400    2.1988551    48143.476            0    48152.036    12.693303    22.443358    14.421803    20.733169    36.567554    32.906992    12.612127     22.30075    14.235163 
   46600    2.3711535    48312.563            0    48321.794    12.694332    22.443861    14.423325    20.836145    36.617839    33.059259    12.612127     22.30075    14.235163 
   46800    2.7810062    48482.748            0    48493.574    12.694176     22.44408    14.424827    20.820542    36.639781    33.209507    12.612127     22.30075    14.235163 
   47000    1.8971251    48651.651            0    48659.037    12.692526    22.443793    14.426379    20.655438    36.611064    33.364769    12.612127     22.30075    14.235163 
   47200    2.7082852    48819.268            0    48829.811    12.690942    22.442585    14.427397    20.496976    36.490211    33.466581    12.612127     22.30075    14.235163 
   47400    1.5639166    48988.426            0    48994.514    12.689255      22.4411    14.428242    20.328198    36.341639    33.551093    12.612127     22.30075    14.235163 
   47600    2.4308472    49157.456            0    49166.919    12.687948    22.439929    14.428742    20.197444    36.224471    33.601133    12.612127     22.30075    14.235163 
   47800    2.1708587    49328.582            0    49337.033    12.686699    22.438334    14.429392    20.072525    36.064947    33.666157    12.612127     22.30075    14.235163 
   48000    2.8069431    49495.418            0    49506.346    12.686668     22.43747    14.430102    20.069361     35.97847    33.737185    12.612127     22.30075    14.235163 
   48200    1.6342385    49664.319            0    49670.681    12.686949    22.437308    14.430628    20.097487    35.962333    33.789792    12.612127     22.30075    14.235163 
   48400    3.1346652     49833.94            0    49846.143     12.68729    22.437636    14.431235    20.131645    35.995059    33.850527    12.612127     22.30075    14.235163 
   48600    2.1522582    50005.135            0    50013.514     12.68719    22.438655    14.431979    20.121594    36.097086    33.924989    12.612127     22.30075    14.235163 
   48800     2.192317    50172.217            0    50180.751    12.685929    22.440884    14.432986    19.995411    36.320048    34.025772    12.612127     22.30075    14.235163 
   49000     2.104989    50341.255            0    50349.449    12.685324    22.442735    14.433825    19.934894     36.50517    34.109626    12.612127     22.30075    14.235163 
   49200    2.5635703    50510.288            0    50520.268    12.685361    22.444855    14.434963    19.938647    36.717323    34.223565    12.612127     22.30075    14.235163 
   49400    2.2241427    50679.627            0    50688.286    12.685441    22.446373    14.435871    19.946666    36.869213    34.314338    12.612127     22.30075    14.235163 
   49600    2.4288655    50849.359            0    50858.814    12.685057    22.447856    14.436975    19.908239    37.017546    34.424852    12.612127     22.30075    14.235163 
   49800    2.6245301    51018.156            0    51028.373     12.68466    22.447793    14.438028    19.868466    37.011223    34.530148    12.612127     22.30075    14.235163 
   50000    1.5776012    51186.959            0      51193.1    12.684155    22.446521    14.439452     19.81797       36.884    34.672621    12.612127     22.30075    14.235163 
   50200     2.141023    51356.321            0    51364.656    12.683763    22.445506     14.44056    19.778796    36.782471    34.783486    12.612127     22.30075    14.235163 
   50400    2.4610904    51527.236            0    51536.817    12.683719    22.444059    14.441962    19.774404    36.637655    34.923665    12.612127     22.30075    14.235163 
   50600     1.749495    51693.898            0    51700.709    12.685186    22.442346    14.443236    19.921092    36.466304    35.051157    12.612127     22.30075    14.235163 
   50800    2.3968021    51863.696            0    51873.027    12.686402    22.440914    14.444184    20.042741    36.322996    35.145983    12.612127     22.30075    14.235163 
   51000    2.4390452    52032.713            0    52042.208    12.687294    22.439089    14.445222    20.131976     36.14048    35.249834    12.612127     22.30075    14.235163 
   51200     1.915258    52201.416            0    52208.872    12.687654    22.437679    14.445931    20.168032    35.999406    35.320787    12.612127     22.30075    14.235163 
   51400    3.2095013    52370.967            0    52383.461    12.688061     22.43626    14.446675    20.208755      35.8574    35.395214    12.612127     22.30075    14.235163 
   51600    1.7915556     52540.06            0    52547.034     12.68863    22.435601    14.447247     20.26569    35.791472    35.452443    12.612127     22.30075    14.235163 
   51800    4.1591191     52709.13            0    52725.321    12.689307    22.435815    14.447796    20.333373    35.812973    35.507338    12.612127     22.30075    14.235163 
   52000    2.2959971    52877.984            0    52886.923    12.689946    22.436591    14.448202    20.397295    35.890597    35.547978    12.612127     22.30075    14.235163 
   52200     2.504918    53046.929            0    53056.681    12.690468    22.437689      14.4485     20.44956    36.000406    35.577737    12.612127     22.30075    14.235163 
   52400    2.2214245    53216.514            0    53225.161    12.691008    22.438897    14.448821    20.503539    36.121224    35.609857    12.612127     22.30075    14.235163 
   52600    2.4415774    53385.904            0    53395.409    12.691641    22.440319    14.449292    20.566854    36.263557    35.656978    12.612127     22.30075    14.235163 
   52800    2.1724969    53558.311            0    53566.769    12.692105     22.44215    14.450186    20.613306    36.446646    35.746417    12.612127     22.30075    14.235163 
   53000    1.8897397    53726.809            0    53734.166    12.691514    22.442841    14.451211    20.554212    36.515865    35.848975    12.612127     22.30075    14.235163 
   53200    2.7118357    53893.413            0     53903.97    12.689854    22.442986    14.452828     20.38816    36.530336    36.010736    12.612127     22.30075    14.235163 
   53400    2.0543963    54062.234            0    54070.231    12.688629    22.443007    14.454107    20.265591    36.532423    36.138716    12.612127     22.30075    14.235163 
   53600    3.6200364    54234.038            0     54248.13    12.687584     22.44232    14.455763    20.160992    36.463665     36.30444    12.612127     22.30075    14.235163 
   53800    1.8861989    54401.691            0    54409.034    12.687361    22.440951    14.457487    20.138682    36.326738    36.476904    12.612127     22.30075    14.235163 
   54000    2.7450918    54570.472            0    54581.159    12.687418    22.439738    14.459122    20.144393    36.205437    36.640444    12.612127     22.30075    14.235163 
   54200    1.8420733    54740.608            0    54747.779    12.687235    22.438897    14.460839    20.126146     36.12121    36.812205    12.612127     22.30075    14.235163 
   54400    3.2868642    54907.727            0    54920.523    12.687017    22.438524    14.462581    20.104324    36.083968    36.986453    12.612127     22.30075    14.235163 
   54600    1.4445145    55078.184            0    55083.808    12.686658    22.438073     14.46437    20.068378    36.038869    37.165405    12.612127     22.30075    14.235163 
   54800    2.4601433    55247.613            0    55257.191    12.685715    22.437399    14.465917    19.974076    35.971353    37.320251    12.612127     22.30075    14.235163 
   55000    2.6718477    55415.616            0    55426.018    12.684825    22.437627    14.467395    19.885056    35.994173    37.468113    12.612127     22.30075    14.235163 
   55200    1.3345644    55584.089            0    55589.285    12.684609    22.438302    14.468362    19.863358    36.061686    37.564843    12.612127     22.30075    14.235163 
   55400     3.291716    55753.148            0    55765.962    12.684654    22.438914    14.469343    19.867855    36.122963    37.662991    12.612127     22.30075    14.235163 
   55600    1.8204099    55922.386            0    55929.473    12.684739    22.439586    14.470297    19.876365    36.190227     37.75838    12.612127     22.30075    14.235163 
   55800    3.6605029    56092.662            0    56106.912    12.684912    22.440539     14.47122    19.893695    36.285554    37.850712    12.612127     22.30075    14.235163 
   56000    1.4363831     56263.05            0    56268.642    12.685543    22.440838    14.471875    19.956883    36.315393     37.91629    12.612127     22.30075    14.235163 
   56200    2.5758961    56432.557            0    56442.585    12.686428    22.439775    14.472149    20.045349    36.209137    37.943717    12.612127     22.30075    14.235163 
   56400    2.1253478    56599.598            0    56607.872     12.68755    22.438538    14.472307     20.15763    36.085318    37.959475    12.612127     22.30075    14.235163 
   56600    2.0173006    56768.206            0    56776.059    12.688446    22.437804    14.472373    20.247239    36.011918    37.966064    12.612127     22.30075    14.235163 
   56800    2.0706073    56942.298            0    56950.358    12.689001    22.437162    14.472384    20.302798    35.947648    37.967219    12.612127     22.30075    14.235163 
   57000    2.8196835    57106.557            0    57117.534      12.6879    22.437177    14.472068    20.192682    35.949228    37.935571    12.612127     22.30075    14.235163 
   57200    2.2015163    57275.449            0    57284.019    12.686598    22.437465    14.471731    20.062347    35.978036    37.901855    12.612127     22.30075    14.235163 
   57400     3.174709    57444.842            0    57457.201    12.685213     22.43792    14.471356    19.923849     36.02349    37.864317    12.612127     22.30075    14.235163 
   57600    1.6773062    57617.323            0    57623.853    12.684146    22.438739     14.47088    19.817075     36.10542    37.816757    12.612127     22.30075    14.235163 
   57800    3.7045522    57784.365            0    57798.787    12.683438    22.440043    14.469926    19.746231    36.235887    37.721257    12.612127     22.30075    14.235163 
   58000    2.0473361    57953.041            0    57961.011    12.683223    22.441316    14.469007    19.724732    36.363298    37.629306    12.612127     22.30075    14.235163 
   58200    2.4998169    58121.185            0    58130.916    12.684233    22.442479    14.468237    19.825802     36.47959    37.552348    12.612127     22.30075    14.235163 
   58400      1.69602    58290.972            0    58297.575    12.685189    22.443683    14.467523    19.921386    36.600095    37.480877    12.612127     22.30075    14.235163 
   58600    3.0738044    58461.717            0    58473.684     12.68593    22.444449    14.467046     19.99556    36.676649    37.433125    12.612127     22.30075    14.235163 
   58800    2.0829844    58629.381            0     58637.49    12.686686    22.444596    14.466744    20.071162    36.691374    37.402926    12.612127     22.30075    14.235163 
   59000    2.4956824    58797.915            0     58807.63    12.687149    22.444567    14.466597    20.117475    36.688504    37.388211    12.612127     22.30075    14.235163 
   59200    2.0781692    58973.992            0    58982.082     12.68758    22.444484    14.466507    20.160587    36.680234    37.379238    12.612127     22.30075    14.235163 
   59400    3.0227101    59136.351            0    59148.119    12.687585    22.444845    14.466513    20.161121    36.716296     37.37984    12.612127     22.30075    14.235163 
   59600    2.1214091     59305.45            0    59313.709    12.687188     22.44494     14.46637    20.121441    36.725766    37.365498    12.612127     22.30075    14.235163 
   59800    2.5965301    59474.169            0    59484.277    12.686143    22.444683     14.46621    20.016852    36.700064    37.349555    12.612127     22.30075    14.235163 
   60000    1.0790925    59643.299            0      59647.5    12.685278    22.444453    14.466111    19.930288    36.677053    37.339601    12.612127     22.30075    14.235163 
   60200    2.5843077    59812.503            0    59822.564     12.68435    22.444201    14.466003     19.83753    36.651886     37.32881    12.612127     22.30075    14.235163 
   60400    1.6187279    59986.742            0    59993.043    12.683536     22.44376    14.465711    19.756067    36.607772    37.299576    12.612127     22.30075    14.235163 
   60600    3.0886369    60153.488            0    60165.512    12.684877    22.442951    14.464329    19.890167    36.526846    37.161324    12.612127     22.30075    14.235163 
   60800    2.1409928    60320.751            0    60329.086    12.686173    22.443188    14.462615    20.019906    36.550588    36.989873    12.612127     22.30075    14.235163 
   61000    3.2488141    60489.631            0    60502.279    12.686908     22.44373    14.460689    20.093438    36.604742    36.797176    12.612127     22.30075    14.235163 
   61200    1.8629933    60658.644            0    60665.896    12.687817    22.444806    14.458452    20.184302    36.712373    36.573424    12.612127     22.30075    14.235163 
   61400    2.7675827    60827.367            0    60838.141    12.688922    22.446065    14.456544    20.294846    36.838356    36.382542    12.612127     22.30075    14.235163 
   61600    1.2056367    60998.144            0    61002.837    12.690322    22.447464    14.454368    20.434943    36.978269    36.164787    12.612127     22.30075    14.235163 
   61800    2.3864904    61166.898            0    61176.188    12.690013    22.448235    14.452835    20.404075    37.055415    36.011501    12.612127     22.30075    14.235163 
   62000    2.2201581    61334.839            0    61343.482    12.688439    22.448489    14.451046    20.246585    37.080856    35.832474    12.612127     22.30075    14.235163 
   62200    2.4105554    61503.817            0    61513.201     12.68709    22.448566     14.44963    20.111586    37.088517    35.690802    12.612127     22.30075    14.235163 
   62400    2.5661624    61674.123            0    61684.113    12.685335    22.448628    14.447742    19.936073    37.094774    35.501935    12.612127     22.30075    14.235163 
   62600    2.1121319    61845.367            0     61853.59     12.68419    22.448467    14.446082    19.821524    37.078686    35.335859    12.612127     22.30075    14.235163 
   62800    3.4985822    62015.563            0    62029.183    12.684397     22.44687    14.444077    19.842206    36.918923    35.135344    12.612127     22.30075    14.235163 
   63000    2.2390123    62180.365            0    62189.081    12.685734    22.444459    14.442431    19.975904    36.677675    34.970603    12.612127     22.30075    14.235163 
   63200    2.1709489    62351.939            0    62360.391    12.686908    22.442423    14.441123     20.09341    36.473992    34.839765    12.612127     22.30075    14.235163 
   63400    2.7913166     62521.11            0    62531.976    12.688538    22.439598    14.439308      20.2565    36.191373    34.658211    12.612127     22.30075    14.235163 
   63600    1.0725754     62695.52            0    62699.696    12.689844    22.437725    14.437898    20.387168    36.004049    34.517129    12.612127     22.30075    14.235163 
   63800    2.8311359    62859.577            0    62870.599    12.690438     22.43843    14.436799    20.446536    36.074532    34.407228    12.612127     22.30075    14.235163 
   64000    2.0746707    63027.854            0    63035.931    12.690357     22.43973    14.436065    20.438438    36.204546    34.333772    12.612127     22.30075    14.235163 
   64200    2.4799803    63204.572            0    63214.226    12.690048    22.440626     14.43542    20.407547    36.294247    34.269221    12.612127     22.30075    14.235163 
   64400    2.4679968    63366.733            0    63376.341    12.689378    22.439325    14.435276    20.340531    36.164028    34.254868    12.612127     22.30075    14.235163 
   64600    2.1839877    63534.217            0     63542.72    12.689083    22.439333    14.434902    20.310982    36.164924    34.217431    12.612127     22.30075    14.235163 
   64800    3.5974526    63703.418            0    63717.422    12.688399    22.440133    14.434494    20.242592    36.244887    34.176605    12.612127     22.30075    14.235163 
   65000    1.5953704    63872.518            0    63878.729    12.687442    22.441107    14.434156    20.146775    36.342354    34.142755    12.612127     22.30075    14.235163 
   65200    2.7255669    64042.185            0    64052.796    12.685696    22.442212    14.433895    19.972117    36.452904    34.116625    12.612127     22.30075    14.235163 
   65400    2.0658438    64212.691            0    64220.733    12.684373    22.443249    14.433743    19.839784    36.556676    34.101435    12.612127     22.30075    14.235163 
   65600    1.9394779    64379.662            0    64387.212    12.684767    22.444475    14.434001    19.879189    36.679244    34.127307    12.612127     22.30075    14.235163 
   65800    3.0729973    64550.986            0    64562.949    12.685731    22.446057    14.434434    19.975627    36.837607    34.170623    12.612127     22.30075    14.235163 
   66000    1.7792236    64719.053            0    64725.979    12.686796    22.447732    14.434904    20.082211    37.005157    34.217646    12.612127     22.30075    14.235163 
   66200    2.2223063    64887.993            0    64896.645    12.687599    22.448051    14.435271    20.162478     37.03707    34.254283    12.612127     22.30075    14.235163 
   66400    2.9960576    65058.298            0    65069.962    12.687927    22.447404    14.435522    20.195316    36.972342    34.279403    12.612127     22.30075    14.235163 
   66600    1.4200406    65227.782            0     65233.31    12.687643     22.44647    14.435711     20.16694    36.878837    34.298386    12.612127     22.30075    14.235163 
   66800    3.3490526    65393.981            0    65407.019    12.686222    22.445599    14.436173    20.024735    36.791704     34.34456    12.612127     22.30075    14.235163 
   67000     1.402263    65563.127            0    65568.586     12.68481    22.444875    14.436619    19.883525    36.719324    34.389205    12.612127     22.30075    14.235163 
   67200    2.8775381    65732.267            0    65743.469    12.683436    22.444117    14.437059    19.746093    36.643518    34.433227    12.612127     22.30075    14.235163 
   67400    1.8018969    65902.031            0    65909.046    12.682003    22.443266    14.437509    19.602675    36.558353      34.4782    12.612127     22.30075    14.235163 
   67600    3.0930747    66072.347            0    66084.388      12.6808    22.442265    14.437699    19.482348    36.458171     34.49721    12.612127     22.30075    14.235163 
   67800    2.1188613    66243.775            0    66252.024    12.680052    22.440398    14.438049    19.407524    36.271375    34.532264    12.612127     22.30075    14.235163 
   68000    2.1840298    66411.107            0    66419.609    12.681008     22.43892    14.438635    19.503178     36.12356    34.590888    12.612127     22.30075    14.235163 
   68200    2.6272097    66578.485            0    66588.712    12.683018    22.438749    14.439199    19.704254    36.106443    34.647332    12.612127     22.30075    14.235163 
   68400    1.9806369    66747.759            0     66755.47    12.684555    22.438851    14.439368    19.857988    36.116632     34.66418    12.612127     22.30075    14.235163 
   68600    2.7939475    66916.511            0    66927.387    12.686121    22.438837    14.439197    20.014621    36.115213     34.64714    12.612127     22.30075    14.235163 
   68800    2.0692424    67087.366            0    67095.421    12.687255    22.439006    14.438905    20.128065    36.132144     34.61792    12.612127     22.30075    14.235163 
   69000     3.103701     67259.73            0    67271.813    12.687307    22.439793    14.438155    20.133311    36.210888    34.542892    12.612127     22.30075    14.235163 
   69200    2.0535598    67425.359            0    67433.354    12.686267    22.441293    14.437144    20.029258    36.360923    34.441671    12.612127     22.30075    14.235163 
   69400    2.3758741    67593.043            0    67602.292    12.684901    22.442966    14.436167    19.892581     36.52833    34.343928    12.612127     22.30075    14.235163 
   69600     2.249642    67762.289            0    67771.046    12.683541    22.444093    14.435326     19.75658    36.641067    34.259864    12.612127     22.30075    14.235163 
   69800    2.4276189    67932.242            0    67941.692     12.68194    22.444763    14.434481     19.59639    36.708144    34.175323    12.612127     22.30075    14.235163 
   70000     2.031436    68101.438            0    68109.346    12.681131    22.445738     14.43355    19.515406    36.805634     34.08212    12.612127     22.30075    14.235163 
   70200    2.3354982    68272.213            0    68281.305    12.681027    22.447374    14.432109    19.505074    36.969323    33.938001    12.612127     22.30075    14.235163 
   70400    2.2654322     68438.57            0    68447.389    12.681647    22.447255    14.431051    19.567076    36.957404    33.832202    12.612127     22.30075    14.235163 
   70600    1.2429681    68607.838            0    68612.677    12.682326    22.446491    14.430402    19.634994    36.881001    33.767268    12.612127     22.30075    14.235163 
   70800    2.7505204    68777.849            0    68788.557    12.683093    22.444829    14.429858    19.711737    36.714741    33.712829    12.612127     22.30075    14.235163 
   71000    2.1310096    68946.512            0    68954.808    12.683985    22.442222    14.429387    19.800964    36.453906    33.665637    12.612127     22.30075    14.235163 
   71200    1.7157654    69115.194            0    69121.873     12.68488    22.439729    14.429008    19.890475    36.204523    33.627737    12.612127     22.30075    14.235163 
   71400    2.8551395    69285.082            0    69296.197    12.685893    22.436528    14.428478    19.991902    35.884268    33.574712    12.612127     22.30075    14.235163 
   71600    2.0501744    69456.112            0    69464.093    12.686936    22.434061    14.428025     20.09622    35.637479    33.529382    12.612127     22.30075    14.235163 
   71800    3.1715682    69623.771            0    69636.117    12.687881    22.432392    14.427083    20.190775    35.470449    33.435163    12.612127     22.30075    14.235163 
   72000    1.9658186     69792.07            0    69799.723    12.688371    22.431518    14.426168    20.239758    35.383038    33.343654    12.612127     22.30075    14.235163 
   72200    3.3398937    69962.876            0    69975.878    12.688544    22.431597    14.425342     20.25706     35.39097    33.261052    12.612127     22.30075    14.235163 
   72400    1.7158415    70130.881            0    70137.561    12.688148    22.433103    14.424857    20.217405    35.541604    33.212522    12.612127     22.30075    14.235163 
   72600     2.644112    70299.151            0    70309.444    12.687547    22.435354    14.424748    20.157332    35.766815    33.201615    12.612127     22.30075    14.235163 
   72800    2.1886528    70469.052            0    70477.573    12.686959    22.438296    14.424789      20.0985    36.061106    33.205698    12.612127     22.30075    14.235163 
   73000    1.7623325    70637.973            0    70644.834     12.68683    22.441083    14.424963    20.085561    36.339944    33.223048    12.612127     22.30075    14.235163 
   73200    2.8221443    70808.779            0    70819.765    12.686733    22.444576    14.425118    20.075879    36.689405    33.238653    12.612127     22.30075    14.235163 
   73400    1.6905122     70978.72            0    70985.301    12.686142    22.447161     14.42524    20.016802    36.948018    33.250805    12.612127     22.30075    14.235163 
   73600    3.5024835     71145.64            0    71159.275    12.684833     22.44802    14.425706    19.885809    37.033896    33.297426    12.612127     22.30075    14.235163 
   73800    1.9265473    71314.925            0    71322.424    12.684287    22.447876    14.425963    19.831185    37.019567    33.323178    12.612127     22.30075    14.235163 
   74000    3.5857986    71483.376            0    71497.335    12.684785    22.446994    14.425884    19.881031    36.931305    33.315249    12.612127     22.30075    14.235163 
   74200    1.3273588    71654.175            0    71659.343    12.685076    22.446195    14.425879    19.910148    36.851405     33.31469    12.612127     22.30075    14.235163 
   74400     2.829458    71822.417            0    71833.432    12.684107    22.445931    14.426403    19.813142    36.824968      33.3672    12.612127     22.30075    14.235163 
   74600    1.6347448    71991.714            0    71998.078    12.683522    22.445304    14.427189    19.754687    36.762255     33.44582    12.612127     22.30075    14.235163 
   74800    2.3831395    72161.549            0    72170.826    12.683731    22.444317    14.428105    19.775608    36.663506    33.537444    12.612127     22.30075    14.235163 
   75000      2.48479    72329.214            0    72338.887     12.68418    22.442869    14.429452    19.820514    36.518672    33.672189    12.612127     22.30075    14.235163 
   75200    2.0283712    72498.161            0    72506.057    12.684467    22.441714    14.430483    19.849181     36.40304    33.775309    12.612127     22.30075    14.235163 
   75400    3.8558352    72670.282            0    72685.293    12.683847    22.440168    14.431609    19.787198    36.248391    33.887973    12.612127     22.30075    14.235163 
   75600    2.3109412    72837.458            0    72846.454    12.682942    22.439031    14.432625    19.696616    36.134679    33.989628    12.612127     22.30075    14.235163 
   75800    2.0523858    73005.186            0    73013.175    12.683268    22.438444    14.433346    19.729224    36.075925    34.061701    12.612127     22.30075    14.235163 
   76000    3.2517889    73174.456            0    73187.115    12.683642    22.437792    14.434224    19.766699    36.010727    34.149579    12.612127     22.30075    14.235163 
   76200    1.6449237    73343.648            0    73350.052    12.683769    22.437443    14.434996    19.779399    35.975752    34.226836    12.612127     22.30075    14.235163 
   76400    2.8083137    73512.627            0    73523.559    12.683832    22.437471    14.435801    19.785623    35.978647    34.307354    12.612127     22.30075    14.235163 
   76600    2.4536107    73685.399            0    73694.951    12.683287     22.43733    14.436448    19.731169    35.964454    34.372051    12.612127     22.30075    14.235163 
   76800     2.302859    73850.945            0     73859.91    12.680731     22.43619    14.436809    19.475428    35.850478    34.408158    12.612127     22.30075    14.235163 
   77000    2.3483129    74020.226            0    74029.367    12.678749    22.435436    14.437066    19.277148    35.775025    34.433868    12.612127     22.30075    14.235163 
   77200     2.533014    74190.479            0     74200.34    12.676066    22.435026    14.437525    19.008752    35.733984    34.479864    12.612127     22.30075    14.235163 
   77400     1.721915    74359.293            0    74365.997    12.674229    22.435208    14.437989     18.82499    35.752225     34.52628    12.612127     22.30075    14.235163 
   77600    1.8484881    74533.521            0    74540.717     12.67326    22.435823    14.438536     18.72799    35.813715    34.580988    12.612127     22.30075    14.235163 
   77800    2.8725468     74697.28            0    74708.463    12.675016    22.437801    14.439032    18.903725    36.011614    34.630557    12.612127     22.30075    14.235163 
   78000    2.1072594    74866.489            0    74874.692    12.677118    22.439894    14.439349    19.114024    36.221004    34.662313    12.612127     22.30075    14.235163 
   78200    3.4345021    75036.722            0    75050.093    12.678919    22.442092    14.439839    19.294176    36.440857    34.711281    12.612127     22.30075    14.235163 
   78400     1.397247    75206.102            0    75211.542    12.679894    22.443825    14.440469    19.391738     36.61427    34.774345    12.612127     22.30075    14.235163 
   78600    2.7899732    75375.971            0    75386.832    12.680434    22.444129    14.441344    19.445698    36.644696    34.861892    12.612127     22.30075    14.235163 
   78800    3.2065761    75546.295            0    75558.778    12.680627    22.443879    14.442573    19.465028    36.619622    34.984855    12.612127     22.30075    14.235163 
   79000    1.6705797    75713.211            0    75719.715    12.681065    22.443334    14.443697    19.508852    36.565186    35.097326    12.612127     22.30075    14.235163 
   79200    3.0744741    75881.834            0    75893.803    12.681996    22.442517    14.444619    19.602022    36.483406    35.189565    12.612127     22.30075    14.235163 
   79400    1.4218173    76051.562            0    76057.097    12.682587    22.441186    14.445753    19.661161    36.350291    35.302982    12.612127     22.30075    14.235163 
   79600    2.2636185    76220.316            0    76229.128    12.682042    22.439941    14.446826    19.606604    36.225697    35.410315    12.612127     22.30075    14.235163 
   79800    2.4608401    76388.631            0    76398.211    12.680826    22.439467    14.447977    19.484944    36.178291     35.52545    12.612127     22.30075    14.235163 
   80000    2.4440228     76558.25            0    76567.764    12.680268    22.439778    14.448993    19.429164    36.209411    35.627107    12.612127     22.30075    14.235163 
   80200    2.2053736    76726.208            0    76734.793    12.680578    22.440635    14.450258    19.460093    36.295088    35.753671    12.612127     22.30075    14.235163 
   80400    2.3862188     76895.37            0     76904.66    12.680856     22.44133    14.451261    19.487969    36.364702    35.854002    12.612127     22.30075    14.235163 
   80600    2.4371778    77064.983            0    77074.471    12.681187    22.442259    14.452459      19.5211    36.457556     35.97383    12.612127     22.30075    14.235163 
   80800    1.7222404    77233.721            0    77240.426    12.681411    22.443186    14.453478    19.543441    36.550358     36.07584    12.612127     22.30075    14.235163 
   81000    2.6056259    77403.461            0    77413.604    12.681581    22.444477    14.454815    19.560499    36.679488    36.209579    12.612127     22.30075    14.235163 
   81200     2.108658    77574.263            0    77582.472     12.68189     22.44601    14.456009    19.591423     36.83286    36.328987    12.612127     22.30075    14.235163 
   81400    3.0283003    77741.314            0    77753.103    12.681904    22.446766    14.457981    19.592817    36.908448    36.526267    12.612127     22.30075    14.235163 
   81600    2.1182015    77910.179            0    77918.425    12.681658    22.446908    14.459694    19.568213    36.922681     36.69762    12.612127     22.30075    14.235163 
   81800    3.3797816    78079.627            0    78092.784    12.681301    22.446978    14.461503    19.532486    36.929714     36.87868    12.612127     22.30075    14.235163 
   82000    1.1879991    78251.113            0    78255.738    12.680872    22.446493     14.46334    19.489505    36.881188    37.062425    12.612127     22.30075    14.235163 
   82200    2.9432825    78418.117            0    78429.575    12.680653    22.444254    14.465767    19.467592    36.657196    37.305248    12.612127     22.30075    14.235163 
   82400    1.9130605    78588.082            0    78595.529    12.680024    22.441608    14.468236    19.404719    36.392428    37.552192    12.612127     22.30075    14.235163 
   82600    3.9516483      78756.8            0    78772.184    12.678217    22.438521     14.47085     19.22394    36.083639    37.813732    12.612127     22.30075    14.235163 
   82800    2.0292516    78925.953            0    78933.853    12.676203    22.435859    14.473143    19.022482    35.817286    38.043169    12.612127     22.30075    14.235163 
   83000    3.2939183    79094.648            0    79107.471    12.674868    22.433631    14.475676    18.888842    35.594394    38.296543    12.612127     22.30075    14.235163 
   83200    1.3518603    79264.285            0    79269.548    12.674009    22.432199    14.478122    18.802949    35.451202    38.541258    12.612127     22.30075    14.235163 
   83400    2.8471372    79433.066            0     79444.15    12.673108     22.43154    14.480613    18.712772    35.385297    38.790477    12.612127     22.30075    14.235163 
   83600    1.9982274    79601.549            0    79609.328     12.67212    22.431153    14.483312    18.613965    35.346518    39.060421    12.612127     22.30075    14.235163 
   83800     2.760838    79771.896            0    79782.643    12.671348    22.430872      14.4857    18.536702    35.318437    39.299313    12.612127     22.30075    14.235163 
   84000    2.3571196    79940.867            0    79950.043    12.671373    22.431496    14.488325    18.539202    35.380874    39.561933    12.612127     22.30075    14.235163 
   84200    2.2134801    80109.034            0    80117.651    12.672202    22.432974    14.490002    18.622155    35.528735    39.729775    12.612127     22.30075    14.235163 
   84400    4.9582646    80279.086            0    80298.388    12.673865    22.434888    14.491987    18.788569    35.720209    39.928278    12.612127     22.30075    14.235163 
   84600     1.970787    80447.238            0     80454.91    12.676028    22.436277    14.493628    19.004972    35.859103    40.092504    12.612127     22.30075    14.235163 
   84800    3.0195562    80616.714            0    80628.469    12.678018    22.437478    14.495072     19.20403    35.979303    40.236927    12.612127     22.30075    14.235163 
   85000    1.3093062     80787.77            0    80792.867    12.679886     22.43886    14.496647    19.390952    36.117585     40.39453    12.612127     22.30075    14.235163 
   85200    3.1520022    80956.055            0    80968.325    12.681765    22.439948      14.4983     19.57892    36.226433    40.559855    12.612127     22.30075    14.235163 
   85400    1.8495141    81124.536            0    81131.736    12.684236    22.440889    14.500317    19.826068     36.32059     40.76171    12.612127     22.30075    14.235163 
   85600    2.9707274    81295.689            0    81307.254    12.686081    22.441466    14.502572    20.010708    36.378292    40.987282    12.612127     22.30075    14.235163 
   85800    2.5131967    81465.426            0     81475.21    12.686335    22.442458    14.505805    20.036045    36.477489    41.310706    12.612127     22.30075    14.235163 
   86000    2.0886109    81631.533            0    81639.664    12.684618    22.443357    14.508733    19.864351    36.567457     41.60362    12.612127     22.30075    14.235163 
   86200   0.98558334    81800.349            0    81804.186    12.683197    22.443724    14.510675    19.722171    36.604206    41.797904    12.612127     22.30075    14.235163 
   86400    2.5779163    81969.477            0    81979.513    12.681536    22.444047    14.512908    19.555995    36.636427    42.021247    12.612127     22.30075    14.235163 
   86600    2.1565195    82138.717            0    82147.112    12.679552    22.444424    14.515561    19.357524    36.674225    42.286658    12.612127     22.30075    14.235163 
   86800    2.2727906     82308.24            0    82317.088    12.677742    22.444589    14.517793    19.176394    36.690684    42.510026    12.612127     22.30075    14.235163 
   87000    2.3587337    82480.754            0    82489.937    12.675219    22.444402    14.520748    18.924003    36.672037    42.805661    12.612127     22.30075    14.235163 
   87200    1.7608539     82646.88            0    82653.735    12.673436    22.444063    14.523478    18.745583    36.638106    43.078733    12.612127     22.30075    14.235163 
   87400    2.1067114    82815.573            0    82823.775    12.672501    22.443534    14.525551    18.652079    36.585164     43.28617    12.612127     22.30075    14.235163 
   87600    2.5172856    82985.587            0    82995.386    12.671711    22.442107    14.528181    18.573023    36.442416    43.549281    12.612127     22.30075    14.235163 
   87800    1.6887581    83153.452            0    83160.027     12.67189     22.44013    14.530386    18.590925     36.24458    43.769843    12.612127     22.30075    14.235163 
   88000    2.3057072    83322.579            0    83331.555    12.672246     22.43837    14.532145    18.626595    36.068506    43.945837    12.612127     22.30075    14.235163 
   88200    2.0909925    83494.413            0    83502.553    12.673009    22.436133    14.534566    18.702903    35.844759    44.187966    12.612127     22.30075    14.235163 
   88400     3.974348    83661.256            0    83676.728    12.674099    22.434329    14.536526    18.811993     35.66431    44.384084    12.612127     22.30075    14.235163 
   88600    1.7937079    83830.106            0    83837.089    12.674677    22.432536    14.538081    18.869808    35.484883    44.539637    12.612127     22.30075    14.235163 
   88800    3.0669833    83999.448            0    84011.388     12.67523    22.431162    14.539567    18.925135    35.347477    44.688265    12.612127     22.30075    14.235163 
   89000    1.2329897    84168.889            0    84173.689    12.675762    22.430248     14.54117    18.978324       35.256    44.848671    12.612127     22.30075    14.235163 
   89200    1.9007839    84339.258            0    84346.658    12.676166    22.430479    14.542422    19.018772    35.279149    44.973962    12.612127     22.30075    14.235163 
   89400    2.8393712    84508.473            0    84519.526    12.676797    22.431829    14.543842    19.081865    35.414149    45.115982    12.612127     22.30075    14.235163 
   89600    1.4903658    84676.144            0    84681.946    12.677084     22.43228    14.544805    19.110546    35.459248    45.212315    12.612127     22.30075    14.235163 
   89800    3.7489362    84845.076            0     84859.67    12.677113    22.432484    14.545486    19.113486     35.47973    45.280459    12.612127     22.30075    14.235163 
   90000     1.839708    85014.091            0    85021.252    12.677355    22.432887    14.546056    19.137716    35.519994    45.337526    12.612127     22.30075    14.235163 
   90200    3.4449548    85183.464            0    85196.875    12.677983    22.433509    14.546659    19.200523    35.582234    45.397788    12.612127     22.30075    14.235163 
   90400   0.92965385    85356.186            0    85359.805    12.678997    22.434424    14.547353    19.302002     35.67374    45.467241    12.612127     22.30075    14.235163 
   90600     2.901663    85522.112            0    85533.408     12.67992    22.436596    14.547872    19.394264    35.891065    45.519173    12.612127     22.30075    14.235163 
   90800     1.639912    85691.732            0    85698.116    12.680246    22.438558    14.548233    19.426929    36.087338     45.55531    12.612127     22.30075    14.235163 
   91000    3.4861308    85859.674            0    85873.245    12.680282    22.440284    14.548482    19.430544    36.259972    45.580209    12.612127     22.30075    14.235163 
   91200    1.8072251    86028.987            0    86036.023    12.680253    22.442117    14.548737    19.427596    36.443346    45.605745    12.612127     22.30075    14.235163 
   91400    2.4798757    86199.078            0    86208.732    12.680069    22.443248    14.549122    19.409233    36.556549    45.644173    12.612127     22.30075    14.235163 
   91600    3.0530432    86367.794            0    86379.679    12.679476    22.442706    14.550169    19.349933    36.502351    45.748979    12.612127     22.30075    14.235163 
   91800     1.916584    86536.667            0    86544.128    12.678604    22.440791    14.551272    19.262656    36.310774    45.859305    12.612127     22.30075    14.235163 
   92000    4.3871772    86705.334            0    86722.413     12.67737    22.438164    14.552325    19.139217    36.047961    45.964614    12.612127     22.30075    14.235163 
   92200    1.9690344    86874.822            0    86882.487    12.676222    22.435555     14.55333    19.024366    35.786942    46.065162    12.612127     22.30075    14.235163 
   92400    3.3120914    87043.936            0    87056.829    12.675244    22.432932    14.554286    18.926488    35.524503    46.160868    12.612127     22.30075    14.235163 
   92600   0.98174285    87216.043            0    87219.865    12.674313    22.430759    14.555095    18.833388    35.307141    46.241746    12.612127     22.30075    14.235163 
   92800    2.8027892    87382.409            0     87393.32    12.673847    22.431449    14.555306    18.786782    35.376142    46.262835    12.612127     22.30075    14.235163 
   93000    1.9269233    87551.344            0    87558.846    12.673323    22.432592    14.555436    18.734298      35.4905     46.27588    12.612127     22.30075    14.235163 
   93200    2.3371472    87720.306            0    87729.404    12.672844    22.433597    14.555547    18.686427    35.590989    46.286962    12.612127     22.30075    14.235163 
   93400    2.3189079    87889.611            0    87898.638    12.672285    22.434891    14.555705    18.630492    35.720476    46.302757    12.612127     22.30075    14.235163 
   93600    2.1973183    88058.712            0    88067.266    12.672281    22.436205    14.555882    18.630124    35.851925    46.320547    12.612127     22.30075    14.235163 
   93800    2.3537296    88231.045            0    88240.208    12.672372    22.437463     14.55611    18.639224    35.977796    46.343308    12.612127     22.30075    14.235163 
   94000    1.9257297    88398.196            0    88405.693    12.672397    22.436917    14.556772    18.641657    35.923175    46.409534    12.612127     22.30075    14.235163 
   94200    3.3450159    88566.067            0    88579.089    12.673218    22.435838    14.557564    18.723803    35.815226    46.488793    12.612127     22.30075    14.235163 
   94400    1.8007807    88734.986            0    88741.996     12.67452    22.434444      14.5585    18.854116    35.675755    46.582448    12.612127     22.30075    14.235163 
   94600    2.7165105    88904.431            0    88915.006     12.67565    22.433302    14.559273    18.967126    35.561474    46.659696    12.612127     22.30075    14.235163 
   94800    1.7225203     89073.33            0    89080.035    12.677166    22.432151    14.560109     19.11879    35.446364    46.743385    12.612127     22.30075    14.235163 
   95000    1.2105793    89245.104            0    89249.817    12.678101    22.431655    14.560632    19.212315    35.396777     46.79572    12.612127     22.30075    14.235163 
   95200    3.0921569    89412.233            0    89424.271     12.67824     22.43234    14.560763    19.226283    35.465319    46.808796    12.612127     22.30075    14.235163 
   95400    1.7836754    89581.056            0        89588    12.678186    22.433155    14.560889    19.220874    35.546784     46.82142    12.612127     22.30075    14.235163 
   95600    4.0540742    89749.981            0    89765.763    12.678162    22.434052    14.561155    19.218446    35.636551    46.848043    12.612127     22.30075    14.235163 
   95800    2.1634716    89919.752            0    89928.174    12.677811    22.435201    14.561513    19.183362    35.751458    46.883792    12.612127     22.30075    14.235163 
   96000    2.3361659      90090.1            0    90099.195     12.67693    22.436431    14.561954     19.09515    35.874514     46.92792    12.612127     22.30075    14.235163 
   96200    3.2676116     90258.96            0     90271.68    12.675648    22.437084    14.562561    18.966921    35.939916    46.988714    12.612127     22.30075    14.235163 
   96400    1.8881374    90429.407            0    90436.757     12.67442    22.437067    14.563155    18.844045    35.938162    47.048083    12.612127     22.30075    14.235163 
   96600    3.2653655    90595.922            0    90608.634    12.674319    22.435045    14.564138    18.833929    35.735929    47.146436    12.612127     22.30075    14.235163 
   96800    2.0882145     90765.14            0    90773.269    12.674951    22.433144    14.565125    18.897219    35.545708    47.245225    12.612127     22.30075    14.235163 
   97000    3.0295151     90934.91            0    90946.703    12.675817     22.43182    14.566222    18.983859    35.413307    47.354907    12.612127     22.30075    14.235163 
   97200    1.5338638    91102.998            0    91108.969      12.6771    22.431171    14.567239    19.112186    35.348341    47.456671    12.612127     22.30075    14.235163 
   97400    2.9775631    91272.124            0    91283.715    12.678464    22.430827    14.568084    19.248655    35.313908    47.541199    12.612127     22.30075    14.235163 
   97600    2.2154533    91441.506            0     91450.13    12.679928    22.430506    14.568973    19.395112    35.281821    47.630143    12.612127     22.30075    14.235163 
   97800    2.2166435    91613.326            0    91621.955    12.680857    22.430826    14.569934    19.488015    35.313814    47.726301    12.612127     22.30075    14.235163 
   98000    2.1576483    91783.838            0    91792.238    12.680507    22.432649    14.571294    19.453009    35.496194    47.862333    12.612127     22.30075    14.235163 
   98200    4.0469547    91951.494            0    91967.248    12.678705    22.434921     14.57238    19.272712    35.723465     47.97104    12.612127     22.30075    14.235163 
   98400    1.9532374    92117.791            0    92125.395    12.676925    22.436209    14.572999    19.094648    35.852335    48.032893    12.612127     22.30075    14.235163 
   98600    3.0848202     92287.89            0    92299.899    12.675715    22.437303    14.573641    18.973593    35.961786    48.097184    12.612127     22.30075    14.235163 
   98800     1.501574    92456.788            0    92462.634    12.675421    22.438602    14.574539    18.944192    36.091704    48.187012    12.612127     22.30075    14.235163 
   99000    2.3578024    92625.973            0    92635.152    12.675526    22.438907      14.5753    18.954723    36.122299      48.2631    12.612127     22.30075    14.235163 
   99200    2.2157268    92794.552            0    92803.178    12.675711    22.438534     14.57623    18.973194     36.08493    48.356111    12.612127     22.30075    14.235163 
   99400    1.8053637    92964.747            0    92971.775    12.675839    22.438785    14.577044    18.986055    36.110013    48.437595    12.612127     22.30075    14.235163 
   99600    2.1746243    93135.132            0    93143.598    12.676106    22.440212    14.578071    19.012782    36.252786    48.540324    12.612127     22.30075    14.235163 
   99800    2.6215059     93302.18            0    93312.385    12.676886    22.440231    14.579449    19.090813    36.254683    48.678205    12.612127     22.30075    14.235163 
  100000    2.1209021    93470.842            0    93479.098    12.678098    22.439813    14.581151    19.212033    36.212927    48.848419    12.612127     22.30075    14.235163 
  100200    2.3470055     93639.98            0    93649.116    12.679072    22.439477    14.582505    19.309443    36.179317    48.983918    12.612127     22.30075    14.235163 
  100400    2.0051979    93812.801            0    93820.607    12.680311    22.438946    14.584323     19.43344     36.12617     49.16576    12.612127     22.30075    14.235163 
  100600    3.3750745    93978.859            0    93991.998    12.681196     22.43691    14.586774    19.521968    35.922438     49.41097    12.612127     22.30075    14.235163 
  100800    1.8057713     94147.78            0    94154.809     12.68162    22.434979    14.589108    19.564391    35.729314    49.644499    12.612127     22.30075    14.235163 
  101000    2.9432848    94317.908            0    94329.366    12.681372    22.433815    14.591727    19.539564    35.612879    49.906494    12.612127     22.30075    14.235163 
  101200    1.8144377    94485.668            0    94492.732    12.680893    22.433717    14.594616    19.491676    35.603055      50.1955    12.612127     22.30075    14.235163 
  101400    2.3236059     94654.95            0    94663.995    12.680491    22.433691    14.597027    19.451431    35.600469    50.436735    12.612127     22.30075    14.235163 
  101600    2.2861597    94827.752            0    94836.652    12.680213    22.434068    14.599925    19.423586    35.638164    50.726657    12.612127     22.30075    14.235163 
  101800    2.3406236    94994.528            0     95003.64    12.680254    22.436623     14.60335    19.427692    35.893758    51.069338    12.612127     22.30075    14.235163 
  102000     2.574749    95162.904            0    95172.927    12.679451    22.438313    14.605736    19.347403     36.06282    51.308036    12.612127     22.30075    14.235163 
  102200     2.204867    95331.687            0     95340.27    12.678731    22.439615    14.608138    19.275371     36.19305    51.548324    12.612127     22.30075    14.235163 
  102400    1.9915568    95500.499            0    95508.252    12.678504    22.440454        14.61    19.252611    36.276993    51.734533    12.612127     22.30075    14.235163 
  102600    2.5943209    95670.183            0    95680.283    12.678286    22.441532    14.612441    19.230802    36.384902    51.978743    12.612127     22.30075    14.235163 
  102800     2.679653    95840.865            0    95851.297    12.678611    22.441382    14.614718    19.263349     36.36984    52.206556    12.612127     22.30075    14.235163 
  103000    2.3466436    96008.325            0     96017.46    12.680014    22.439537    14.617244    19.403758    36.185274    52.459231    12.612127     22.30075    14.235163 
  103200    2.4562986    96178.029            0    96187.591    12.680871    22.437672    14.619466    19.489492    35.998657    52.681608    12.612127     22.30075    14.235163 
  103400    2.5576489     96346.25            0    96356.207    12.681805    22.435784    14.622105    19.582841    35.809812    52.945576    12.612127     22.30075    14.235163 
  103600    2.2850484    96515.321            0    96524.216    12.682619    22.434618    14.623971    19.664328    35.693196     53.13221    12.612127     22.30075    14.235163 
  103800    2.3385914    96685.278            0    96694.382    12.683614    22.433206    14.626203    19.763882    35.551897    53.355576    12.612127     22.30075    14.235163 
  104000     1.856124    96855.165            0    96862.391    12.684439    22.432256    14.627945    19.846348     35.45687    53.529865    12.612127     22.30075    14.235163 
  104200     2.336315    97023.259            0    97032.354    12.685497    22.431679    14.630343    19.952255     35.39915    53.769705    12.612127     22.30075    14.235163 
  104400    2.1637233    97192.548            0    97200.971    12.686218    22.431743    14.632486    20.024386    35.405603    53.984093    12.612127     22.30075    14.235163 
  104600    3.0068764     97361.24            0    97372.945    12.687125    22.433075    14.635082    20.115083    35.538849    54.243867    12.612127     22.30075    14.235163 
  104800    2.2475525    97530.259            0    97539.009    12.687905    22.434862    14.637082    20.193166    35.717569    54.443869    12.612127     22.30075    14.235163 
  105000    2.6872338    97700.958            0    97711.419    12.688648    22.436808    14.639206    20.267427    35.912235    54.656396    12.612127     22.30075    14.235163 
  105200    2.9828211    97870.584            0    97882.196    12.689097    22.437496     14.64151    20.312373     35.98105    54.886916    12.612127     22.30075    14.235163 
  105400    1.5734214     98039.81            0    98045.935    12.689079     22.43748    14.643334    20.310598    35.979545    55.069342    12.612127     22.30075    14.235163 
  105600    3.5321303    98207.045            0    98220.795    12.688677    22.438502    14.645268    20.270345    36.081716    55.262834    12.612127     22.30075    14.235163 
  105800    2.2016669    98375.835            0    98384.406    12.688159    22.439619    14.647034    20.218513    36.193442    55.439518    12.612127     22.30075    14.235163 
  106000     2.853361    98545.589            0    98556.697    12.687526    22.440548    14.648611    20.155211     36.28645    55.597314    12.612127     22.30075    14.235163 
  106200    1.7970643    98715.718            0    98722.714    12.686493    22.441099    14.650275    20.051877    36.341558    55.763786    12.612127     22.30075    14.235163 
  106400    2.6423393    98883.768            0    98894.054    12.685634     22.44142    14.651646    19.965962    36.373709    55.900902    12.612127     22.30075    14.235163 
  106600    2.0369186     99052.39            0    99060.319    12.684528    22.441972    14.653282    19.855265    36.428922    56.064581    12.612127     22.30075    14.235163 
  106800   0.61860382    99223.349            0    99225.757    12.683875     22.44195    14.654209    19.789975    36.426683    56.157374    12.612127     22.30075    14.235163 
  107000    2.9667844    99390.662            0    99402.211    12.683497    22.439893    14.654644    19.752156    36.220867    56.200842    12.612127     22.30075    14.235163 
  107200    1.7943061     99560.37            0    99567.355    12.683141    22.437326    14.655027     19.71649    35.964062    56.239194    12.612127     22.30075    14.235163 
  107400    3.4383012    99729.001            0    99742.386    12.683139    22.435204    14.655242    19.716376    35.751843     56.26064    12.612127     22.30075    14.235163 
  107600    2.0363496    99898.111            0    99906.038    12.683311    22.432989    14.655425     19.73353    35.530227    56.278958    12.612127     22.30075    14.235163 
  107800    2.3318839    100068.72            0     100077.8    12.683565    22.431217    14.655517    19.759005    35.352908    56.288202    12.612127     22.30075    14.235163 
  108000    3.7752594    100238.16            0    100252.86    12.684491    22.430629    14.655676    19.851606    35.294156    56.304142    12.612127     22.30075    14.235163 
  108200     1.446342    100408.36            0    100413.99    12.685819     22.43148    14.656246    19.984436    35.379233    56.361078    12.612127     22.30075    14.235163 
  108400    2.9087633    100574.67            0       100586    12.686969    22.433862    14.657781    20.099504    35.617511    56.514676    12.612127     22.30075    14.235163 
  108600    1.8921125    100744.94            0    100752.31    12.687894     22.43604     14.65917    20.191993    35.835487    56.653689    12.612127     22.30075    14.235163 
  108800    2.6564462    100912.91            0    100923.25    12.688945    22.438637    14.660707    20.297233    36.095278    56.807364    12.612127     22.30075    14.235163 
  109000    2.0869709    101082.05            0    101090.17    12.689914    22.441099    14.662096     20.39417    36.341583    56.946384    12.612127     22.30075    14.235163 
  109200    3.2463714    101253.65            0    101266.29    12.690975    22.443865    14.663667    20.500236    36.618266     57.10349    12.612127     22.30075    14.235163 
  109400    2.6741562    101422.53            0    101432.94    12.692025    22.444969    14.665387    20.605304    36.728744    57.275638    12.612127     22.30075    14.235163 
  109600    1.5021589    101590.28            0    101596.12    12.692663    22.444112    14.666686    20.669176    36.643008    57.405562    12.612127     22.30075    14.235163 
  109800    3.2853722     101758.8            0    101771.59    12.693458    22.442491    14.667985    20.748655    36.480763    57.535491    12.612127     22.30075    14.235163 
  110000    2.1205616    101927.83            0    101936.09    12.694547    22.440684    14.669395    20.857654     36.30004    57.676521    12.612127     22.30075    14.235163 
  110200    3.3195626    102098.02            0    102110.95    12.695313    22.438984    14.670703    20.934231    36.129943    57.807465    12.612127     22.30075    14.235163 
  110400    1.8632269    102270.29            0    102277.54    12.694891    22.436906    14.671963    20.891989     35.92212    57.933492    12.612127     22.30075    14.235163 
  110600    2.1486532    102437.46            0    102445.82    12.693963    22.437329    14.672172    20.799234    35.964434    57.954369    12.612127     22.30075    14.235163 
  110800    2.2234433    102604.39            0    102613.04    12.692847    22.439175      14.6719    20.687594    36.149086    57.927224    12.612127     22.30075    14.235163 
  111000     2.070261    102773.76            0    102781.82    12.692021    22.440654    14.671662    20.604939    36.297064    57.903385    12.612127     22.30075    14.235163 
  111200    2.6137848    102943.11            0    102953.28    12.690983     22.44202    14.671438     20.50102    36.433718    57.880961    12.612127     22.30075    14.235163 
  111400     1.805176    103114.99            0    103122.02     12.68999    22.443484    14.671153    20.401765    36.580158    57.852409    12.612127     22.30075    14.235163 
  111600     2.771838    103281.62            0    103292.41    12.688523    22.444155    14.670844    20.254927    36.647235    57.821552    12.612127     22.30075    14.235163 
  111800    2.0386635    103451.94            0    103459.88    12.687213    22.444019    14.670464    20.123961     36.63367    57.783495    12.612127     22.30075    14.235163 
  112000    3.2570525    103619.26            0    103631.94    12.685768     22.44254    14.669458    19.979369    36.485733    57.682913    12.612127     22.30075    14.235163 
  112200    2.2015024    103788.79            0    103797.36    12.684886     22.44108    14.668571    19.891157    36.339666    57.594184    12.612127     22.30075    14.235163 
  112400    2.3270567    103960.75            0    103969.81    12.684433    22.439439    14.667592    19.845819    36.175507    57.496148    12.612127     22.30075    14.235163 
  112600    2.8324096     104126.6            0    104137.62    12.683845    22.439365    14.666112    19.786984    36.168039    57.348158    12.612127     22.30075    14.235163 
  112800    1.9855993    104296.24            0    104303.97    12.683327    22.439691    14.664942    19.735099     36.20067    57.231082    12.612127     22.30075    14.235163 
  113000    2.9562407    104464.89            0     104476.4    12.682777    22.439176    14.663538    19.680167     36.14916    57.090664    12.612127     22.30075    14.235163 
  113200      1.97872    104633.99            0     104641.7    12.682322    22.438356    14.662384    19.634655    36.067163    56.975188    12.612127     22.30075    14.235163 
  113400    2.7129896    104803.52            0    104814.08    12.682036    22.437619    14.661135    19.605947    35.993392    56.850208    12.612127     22.30075    14.235163 
  113600    1.8844819    104972.76            0     104980.1    12.681919    22.437002    14.659741    19.594267    35.931722    56.710784    12.612127     22.30075    14.235163 
  113800    2.4141201    105142.09            0    105151.49    12.682073    22.436927    14.658411    19.609726    35.924197    56.577659    12.612127     22.30075    14.235163 
  114000    2.4160968    105311.54            0    105320.94     12.68262    22.437871     14.65617    19.664408    36.018633    56.353491    12.612127     22.30075    14.235163 
  114200    2.2005782    105482.11            0    105490.68    12.682996    22.438773    14.654147    19.702024    36.108808    56.151115    12.612127     22.30075    14.235163 
  114400    2.9490909    105649.42            0     105660.9    12.683926    22.438165    14.651586    19.795092    36.048059    55.894925    12.612127     22.30075    14.235163 
  114600    1.8819288    105818.85            0    105826.18    12.685094    22.437819    14.649762     19.91193    36.013401    55.712421    12.612127     22.30075    14.235163 
  114800    3.4824522    105988.43            0    106001.98    12.686454     22.43812    14.647759    20.047988    36.043536    55.512038    12.612127     22.30075    14.235163 
  115000    2.0822415    106157.36            0    106165.47    12.687401     22.43869    14.645866    20.142767    36.100575    55.322641    12.612127     22.30075    14.235163 
  115200    2.7711879    106325.46            0    106336.25     12.68765    22.439551    14.643984    20.167645    36.186718    55.134372    12.612127     22.30075    14.235163 
  115400     1.167535    106495.53            0    106500.07    12.687729     22.44027    14.642281    20.175526    36.258663    54.964075    12.612127     22.30075    14.235163 
  115600    2.7867146    106664.93            0    106675.77     12.68668    22.440544    14.640237    20.070587    36.286041    54.759511    12.612127     22.30075    14.235163 
  115800    1.9386587    106834.68            0    106842.23    12.684365    22.440308     14.63799    19.838942    36.262391     54.53472    12.612127     22.30075    14.235163 
  116000    3.4304036    107001.88            0    107015.23    12.681949    22.440077    14.636067    19.597269    36.239345    54.342384    12.612127     22.30075    14.235163 
  116200    1.6090962       107171            0    107177.26    12.679795    22.439926    14.634304    19.381843    36.224225    54.165979    12.612127     22.30075    14.235163 
  116400    2.7825125    107340.38            0    107351.21    12.677825    22.439798    14.632674     19.18473    36.211385    54.002889    12.612127     22.30075    14.235163 
  116600    2.1570763    107510.84            0    107519.24     12.67596    22.439863    14.630838    18.998155    36.217852    53.819285    12.612127     22.30075    14.235163 
  116800    3.1088068    107679.14            0    107691.24    12.675591    22.440662    14.629314    18.961257    36.297786    53.666789    12.612127     22.30075    14.235163 
  117000    1.9313206    107848.16            0    107855.68    12.676536    22.441232    14.627909    19.055715     36.35486    53.526243    12.612127     22.30075    14.235163 
  117200    2.9869951    108017.16            0    108028.79    12.678468    22.441622    14.626581    19.249023    36.393875    53.393358    12.612127     22.30075    14.235163 
  117400    1.5532671    108187.52            0    108193.57    12.681091    22.442355     14.62499    19.511408    36.467162    53.234164    12.612127     22.30075    14.235163 
  117600    2.5736686    108355.03            0    108365.05    12.682512    22.441763     14.62374    19.653639    36.407964    53.109195    12.612127     22.30075    14.235163 
  117800    2.0468571    108524.65            0    108532.62    12.683984    22.440619    14.622422    19.800885    36.293553    52.977278    12.612127     22.30075    14.235163 
  118000    1.7527526    108693.38            0     108700.2    12.685161    22.440272    14.621235    19.918642    36.258813    52.858566    12.612127     22.30075    14.235163 
  118200    2.6904907    108863.67            0    108874.14    12.686517    22.439946    14.619584    20.054252    36.226164    52.693386    12.612127     22.30075    14.235163 
  118400    2.1844493     109033.7            0    109042.21    12.687028    22.439475    14.617919     20.10545    36.179074    52.526829    12.612127     22.30075    14.235163 
  118600    3.0767077     109202.6            0    109214.58    12.686426    22.439114    14.615735    20.045149       36.143    52.308339    12.612127     22.30075    14.235163 
  118800    2.0706664    109370.09            0    109378.15     12.68485    22.439335    14.614481    19.887476    36.165034    52.182854    12.612127     22.30075    14.235163 
  119000    3.5189225    109539.07            0    109552.76    12.682941    22.439315    14.613409    19.696525    36.163103    52.075587    12.612127     22.30075    14.235163 
  119200    1.4772856    109710.81            0    109716.56    12.680951    22.439033    14.612404    19.497413    36.134835    51.975097    12.612127     22.30075    14.235163 
  119400    2.9008192    109878.33            0    109889.62    12.679849    22.438281     14.61181    19.387205    36.059599    51.915675    12.612127     22.30075    14.235163 
  119600    1.4815025     110046.9            0    110052.66    12.679535    22.437948    14.611132    19.355825    36.026274    51.847865    12.612127     22.30075    14.235163 
  119800    2.9878355    110215.91            0    110227.54    12.679712    22.437944    14.610493    19.373543    36.025897    51.783845    12.612127     22.30075    14.235163 
  120000     2.083475    110384.86            0    110392.97    12.679512    22.437752    14.609864    19.353514    36.006681    51.720976    12.612127     22.30075    14.235163 
  120200    2.2631631    110554.22            0    110563.03    12.678975    22.437832    14.609399    19.299732    36.014731    51.674455    12.612127     22.30075    14.235163 
  120400    2.4286082    110726.52            0    110735.98    12.678512     22.43766    14.608879    19.253495    35.997516      51.6224    12.612127     22.30075    14.235163 
  120600    2.6296359    110893.15            0    110903.39    12.678274    22.435674    14.607962    19.229591    35.798806     51.53064    12.612127     22.30075    14.235163 
  120800    2.1244021    111061.36            0    111069.63     12.67811    22.434318     14.60704    19.213185    35.663182    51.438419    12.612127     22.30075    14.235163 
  121000    2.8644424    111230.46            0    111241.61    12.677968    22.432775    14.605891    19.198985    35.508788    51.323506    12.612127     22.30075    14.235163 
  121200    1.3989868    111400.14            0    111405.59    12.677948    22.431632    14.604999    19.196973    35.394419    51.234232    12.612127     22.30075    14.235163 
  121400    2.2446738    111570.36            0     111579.1    12.678527    22.430888    14.604124    19.254898    35.320036    51.146707    12.612127     22.30075    14.235163 
  121600    2.9404056    111738.75            0     111750.2    12.678784     22.43058    14.602894    19.280703    35.289218    51.023718    12.612127     22.30075    14.235163 
  121800    2.0886012     111907.6            0    111915.73    12.677963    22.431017    14.602095    19.198528    35.332907    50.943727    12.612127     22.30075    14.235163 
  122000    2.9672065    112076.22            0    112087.77    12.676902    22.432113    14.601791     19.09239    35.442566    50.913278    12.612127     22.30075    14.235163 
  122200     2.343842     112245.5            0    112254.62    12.676051    22.433302    14.601712    19.007213     35.56152    50.905385    12.612127     22.30075    14.235163 
  122400    2.3355796     112415.8            0    112424.89    12.675225    22.435157    14.601797    18.924574    35.747096    50.913901    12.612127     22.30075    14.235163 
  122600    1.9942338    112587.34            0    112595.11    12.675275    22.437304    14.601627     18.92958    35.961917    50.896934    12.612127     22.30075    14.235163 
  122800    3.1185695    112753.13            0    112765.27    12.675744    22.437889    14.601046    18.976524    36.020464    50.838799    12.612127     22.30075    14.235163 
  123000    2.1394377    112921.68            0    112930.01    12.676469    22.437542    14.600453    19.049038    35.985687     50.77949    12.612127     22.30075    14.235163 
  123200    3.3167713     113091.1            0    113104.01    12.677256    22.437151    14.599812     19.12783    35.946631    50.715346    12.612127     22.30075    14.235163 
  123400    1.5147235    113261.77            0    113267.66     12.67808    22.436316    14.599004     19.21018    35.863036    50.634499    12.612127     22.30075    14.235163 
  123600    3.1292304    113430.84            0    113443.02     12.67847    22.434845    14.598042    19.249216    35.715911    50.538277    12.612127     22.30075    14.235163 
  123800    1.3630683    113598.79            0     113604.1    12.679054    22.434699    14.596878    19.307639    35.701314    50.421868    12.612127     22.30075    14.235163 
  124000    2.5410542    113767.94            0    113777.83    12.679372    22.435806    14.595953    19.339482     35.81205    50.329275    12.612127     22.30075    14.235163 
  124200    2.2289468    113936.66            0    113945.34    12.680169    22.437059    14.594708    19.419246    35.937386    50.204728    12.612127     22.30075    14.235163 
  124400    1.1836109    114106.01            0    114110.62    12.680692    22.437839    14.593738    19.471532    36.015452    50.107699    12.612127     22.30075    14.235163 
  124600    3.1188584    114274.99            0    114287.13    12.680625    22.438908    14.592674    19.464803    36.122398    50.001205    12.612127     22.30075    14.235163 
  124800    1.4575898    114445.82            0     114451.5     12.68011    22.440195    14.591503    19.413328    36.251145    49.884126    12.612127     22.30075    14.235163 
  125000    3.4912022    114613.39            0    114626.98    12.678475    22.440497    14.590304    19.249713     36.28128    49.764152    12.612127     22.30075    14.235163 
  125200    2.0316427    114782.51            0    114790.42    12.676953    22.440494    14.589211    19.097526     36.28103    49.654839    12.612127     22.30075    14.235163 
  125400    3.6784781    114951.34            0    114965.66    12.676033     22.44074    14.588332    19.005415     36.30562    49.566896    12.612127     22.30075    14.235163 
  125600    1.3196838    115124.06            0     115129.2    12.675548    22.441009    14.587404      18.9569    36.332529     49.47401    12.612127     22.30075    14.235163 
  125800     2.775611    115289.65            0    115300.45    12.677684    22.441232    14.586752    19.170659    36.354896    49.408838    12.612127     22.30075    14.235163 
  126000    1.0344901    115460.61            0    115464.64    12.680082    22.441432    14.586264    19.410506    36.374829    49.360015    12.612127     22.30075    14.235163 
  126200    3.2736982    115627.95            0     115640.7    12.683917    22.442068      14.5862     19.79422    36.438537    49.353546    12.612127     22.30075    14.235163 
  126400    1.7336816    115797.34            0    115804.09    12.688212    22.442802    14.586157    20.223829    36.511941    49.349264    12.612127     22.30075    14.235163 
  126600    3.4290083    115966.88            0    115980.23    12.691742    22.443766    14.586265     20.57698    36.608386    49.360066    12.612127     22.30075    14.235163 
  126800    2.6704139    116138.02            0    116148.42    12.694826    22.444415    14.586573    20.885488    36.673276    49.390914    12.612127     22.30075    14.235163 
  127000    1.4761948    116307.74            0    116313.49    12.695277    22.443749    14.586703    20.930607    36.606694    49.403923    12.612127     22.30075    14.235163 
  127200    3.1567048     116473.9            0    116486.19    12.693486    22.441906    14.586346    20.751519    36.422281    49.368166    12.612127     22.30075    14.235163 
  127400    1.8814509    116642.91            0    116650.24    12.691842    22.440391    14.586001    20.587044    36.270764     49.33363    12.612127     22.30075    14.235163 
  127600    2.8354427    116811.85            0    116822.88    12.689565    22.438735    14.585442     20.35923    36.105051    49.277713    12.612127     22.30075    14.235163 
  127800    1.0933821    116981.08            0    116985.34    12.687595    22.437368    14.584948    20.162151    35.968331    49.228344    12.612127     22.30075    14.235163 
  128000    2.4072754    117152.53            0    117161.91    12.685531     22.43634    14.584403     19.95566    35.865495    49.173815    12.612127     22.30075    14.235163 
  128200    3.0582308    117322.52            0    117334.43    12.683888    22.436295    14.583099    19.791302    35.860955    49.043339    12.612127     22.30075    14.235163 
  128400     1.789721    117488.88            0    117495.85    12.684029    22.437299    14.581672    19.805397     35.96136    48.900552    12.612127     22.30075    14.235163 
  128600     3.049157    117657.56            0    117669.43    12.684102    22.437725    14.580157    19.812712    36.004038    48.749046    12.612127     22.30075    14.235163 
  128800    1.3408936    117827.47            0    117832.69    12.684195    22.438256    14.578559    19.821948    36.057105     48.58917    12.612127     22.30075    14.235163 
  129000    3.0132076    117995.82            0    118007.55    12.684824    22.439233    14.577109     19.88491    36.154853    48.444125    12.612127     22.30075    14.235163 
  129200    1.7674457    118166.33            0    118173.21    12.685662    22.440353    14.575462    19.968703    36.266911     48.27933    12.612127     22.30075    14.235163 
  129400    4.0298884    118334.89            0    118350.58    12.685554     22.43977    14.573794    19.957905    36.208589     48.11248    12.612127     22.30075    14.235163 
  129600    1.7883742    118503.33            0     118510.3    12.684534    22.438393    14.572051    19.855903    36.070841    47.938087    12.612127     22.30075    14.235163 
  129800     3.116867    118673.39            0    118685.53     12.68378    22.437324      14.5703    19.780426    35.963872     47.76294    12.612127     22.30075    14.235163 
  130000    1.9549726    118842.35            0    118849.96    12.683944    22.436946    14.568278    19.796843    35.926082    47.560583    12.612127     22.30075    14.235163 
  130200   0.87759515    119010.91            0    119014.32     12.68476    22.436921    14.567264    19.878486    35.923535    47.459134    12.612127     22.30075    14.235163 
  130400    2.5608172    119181.98            0    119191.95    12.686248    22.436393     14.56612     20.02735    35.870725    47.344744    12.612127     22.30075    14.235163 
  130600    2.6963185    119349.54            0    119360.03    12.687568    22.435152    14.565363    20.159397    35.746647    47.268981    12.612127     22.30075    14.235163 
  130800    1.9461607    119518.17            0    119525.75    12.687796    22.434682      14.5651    20.182236    35.699612    47.242643    12.612127     22.30075    14.235163 
  131000     2.976429    119687.54            0    119699.13    12.688059      22.4346    14.564667    20.208547    35.691374    47.199391    12.612127     22.30075    14.235163 
  131200    1.7752032    119856.83            0    119863.74    12.687603    22.434173    14.564472    20.162967     35.64868    47.179869    12.612127     22.30075    14.235163 
  131400    2.8778806    120025.67            0    120036.87    12.685974    22.433093    14.564454    20.000008    35.540578    47.178051    12.612127     22.30075    14.235163 
  131600    1.4673586    120195.22            0    120200.93    12.684173    22.432272    14.564486    19.819751    35.458437    47.181233    12.612127     22.30075    14.235163 
  131800    3.2368108    120364.81            0    120377.42    12.682494     22.43203    14.564651    19.651815    35.434297    47.197764    12.612127     22.30075    14.235163 
  132000    1.7558781    120534.09            0    120540.93     12.68048    22.432388    14.565098    19.450372    35.470094    47.242467    12.612127     22.30075    14.235163 
  132200    3.4299279     120702.8            0    120716.16    12.678688    22.434349    14.565303    19.271065    35.666238    47.262969    12.612127     22.30075    14.235163 
  132400    2.4543326     120871.3            0    120880.85    12.677784    22.437655     14.56545    19.180592    35.997015    47.277688    12.612127     22.30075    14.235163 
  132600    2.1441995    121040.52            0    121048.87    12.677697    22.440762    14.565611    19.171924    36.307842    47.293772    12.612127     22.30075    14.235163 
  132800    2.4808938    121213.45            0    121223.11    12.677824    22.443925     14.56584    19.184625    36.624259    47.316713    12.612127     22.30075    14.235163 
  133000    2.1009598    121378.65            0    121386.83    12.679512    22.444982    14.565757    19.353517    36.730059    47.308438    12.612127     22.30075    14.235163 
  133200    2.4134598    121547.74            0    121557.14     12.68138    22.445494    14.565494    19.540343    36.781195    47.282114    12.612127     22.30075    14.235163 
  133400    2.4315135    121716.93            0     121726.4    12.683535    22.445925    14.565216    19.755917    36.824312    47.254263    12.612127     22.30075    14.235163 
  133600     1.764731    121886.29            0    121893.16    12.685673    22.446162    14.565008    19.969823    36.848113    47.233523    12.612127     22.30075    14.235163 
  133800    2.6943797    122058.32            0    122068.81    12.688647     22.44611    14.565046    20.267363    36.842819     47.23724    12.612127     22.30075    14.235163 
  134000     4.570132    122227.54            0    122245.33     12.69018    22.444399    14.565544    20.420702    36.671655    47.287074    12.612127     22.30075    14.235163 
  134200    2.5105035    122394.06            0    122403.83    12.688863     22.44222    14.566473    20.289005    36.453688    47.379996    12.612127     22.30075    14.235163 
  134400    2.0968675    122562.53            0     122570.7    12.687335    22.440514     14.56735    20.136152    36.283018    47.467741    12.612127     22.30075    14.235163 
  134600    3.3067668    122731.67            0    122744.54    12.685544    22.438306     14.56842    19.956977    36.062113    47.574818    12.612127     22.30075    14.235163 
  134800    1.7026575     122900.8            0    122907.43    12.684077    22.436497    14.569297    19.810225    35.881173     47.66252    12.612127     22.30075    14.235163 
  135000    2.2787681    123072.75            0    123081.62     12.68257    22.434644    14.570202    19.659404    35.695814    47.753064    12.612127     22.30075    14.235163 
  135200     2.776438    123240.07            0    123250.88    12.681755    22.433948    14.570803    19.577878    35.626151    47.813268    12.612127     22.30075    14.235163 
  135400   0.73562567    123410.11            0    123412.97    12.681669    22.434296    14.571205    19.569282    35.661005    47.853475    12.612127     22.30075    14.235163 
  135600    2.5044427    123577.35            0     123587.1    12.683361    22.434477    14.571513    19.738527    35.679035    47.884247    12.612127     22.30075    14.235163 
  135800    2.2670314    123746.49            0    123755.32    12.685955    22.434641    14.571931    19.998026    35.695476    47.926065    12.612127     22.30075    14.235163 
  136000    2.1851734    123916.09            0     123924.6    12.688051    22.434843    14.572244    20.207738    35.715657    47.957355    12.612127     22.30075    14.235163 
  136200    2.1262075    124087.86            0    124096.13    12.690861    22.435717    14.572461     20.48884    35.803145    47.979143    12.612127     22.30075    14.235163 
  136400    1.9951484     124256.8            0    124264.57    12.692801    22.435064    14.572953    20.682947    35.737809     48.02836    12.612127     22.30075    14.235163 
  136600    3.3322175    124424.74            0    124437.72    12.692822    22.433603    14.573928    20.685092    35.591646    48.125892    12.612127     22.30075    14.235163 
  136800    2.2622261    124592.47            0    124601.28    12.691993    22.432308    14.574901    20.602065    35.462069    48.223179    12.612127     22.30075    14.235163 
  137000    3.1200196    124761.64            0    124773.78    12.690939    22.431562    14.576021    20.496631      35.3874    48.335291    12.612127     22.30075    14.235163 
  137200    1.5748771    124931.29            0    124937.42    12.689739     22.43118    14.577356    20.376652    35.349283    48.468789    12.612127     22.30075    14.235163 
  137400    2.9877366    125099.68            0    125111.32    12.688515    22.432104    14.578091    20.254209    35.441625    48.542289    12.612127     22.30075    14.235163 
  137600    2.0008636    125269.02            0    125276.81    12.687007    22.433818    14.578652    20.103292    35.613187    48.598446    12.612127     22.30075    14.235163 
  137800    4.3243717    125437.87            0    125454.71    12.686254    22.435894    14.579465    20.027979    35.820851    48.679812    12.612127     22.30075    14.235163 
  138000    2.1646887    125607.02            0    125615.45    12.685897    22.438447    14.580525    19.992216    36.076288    48.785788    12.612127     22.30075    14.235163 
  138200    2.6559513    125776.83            0    125787.17    12.685574    22.440619      14.5814    19.959923    36.293489    48.873337    12.612127     22.30075    14.235163 
  138400    2.4525744    125948.77            0    125958.32    12.685076    22.442962    14.582618    19.910156    36.527901    48.995252    12.612127     22.30075    14.235163 
  138600    2.2425619    126114.78            0    126123.51    12.683925    22.443149    14.583926    19.794994    36.546637     49.12607    12.612127     22.30075    14.235163 
  138800    3.5899956    126283.83            0    126297.81    12.682386    22.442657    14.585411    19.641038    36.497394    49.274625    12.612127     22.30075    14.235163 
  139000    1.5312137    126453.35            0    126459.31    12.681157    22.442295    14.586658    19.518099    36.461229    49.399364    12.612127     22.30075    14.235163 
  139200    3.1772578    126621.84            0    126634.21     12.67983    22.441866    14.587999    19.385307    36.418299    49.533575    12.612127     22.30075    14.235163 
  139400    2.1332227       126791            0     126799.3     12.67846    22.441417    14.589378    19.248262    36.373355    49.671506    12.612127     22.30075    14.235163 
  139600    2.0653739       126962            0    126970.04    12.677301    22.440932    14.590683    19.132323    36.324822    49.802071    12.612127     22.30075    14.235163 
  139800    2.7060592     127129.5            0    127140.04    12.677998    22.440013    14.592172    19.202016    36.232875     49.95099    12.612127     22.30075    14.235163 
  140000     2.131257    127298.73            0    127307.02    12.679329    22.439495    14.593435    19.335214    36.181128    50.077408    12.612127     22.30075    14.235163 
  140200    4.0253176    127467.83            0     127483.5    12.680554    22.438842    14.594784    19.457702    36.115776      50.2123    12.612127     22.30075    14.235163 
  140400    1.9153956    127637.37            0    127644.83    12.681402    22.437955    14.595984     19.54255    36.027021    50.332404    12.612127     22.30075    14.235163 
  140600    3.2094275    127805.87            0    127818.36    12.682575    22.436916    14.596983    19.659931    35.923083    50.432356    12.612127     22.30075    14.235163 
  140800    1.4450326    127975.07            0    127980.69    12.683716    22.436094      14.5977    19.774024    35.840832    50.504087    12.612127     22.30075    14.235163 
  141000    2.3723578    128146.22            0    128155.45    12.685026    22.435294    14.598614    19.905147    35.760854    50.595463    12.612127     22.30075    14.235163 
  141200    2.5562801    128313.48            0    128323.43    12.685191    22.435438    14.600366    19.921626    35.775229    50.770734    12.612127     22.30075    14.235163 
  141400    1.4964672    128482.42            0    128488.24    12.684883    22.436019    14.601805    19.890821    35.833359    50.914685    12.612127     22.30075    14.235163 
  141600    2.6544156    128651.49            0    128661.82    12.684529    22.436833    14.603422    19.855393    35.914772    51.076525    12.612127     22.30075    14.235163 
  141800    1.8237562    128822.38            0    128829.48    12.684133    22.437783    14.605207    19.815794    36.009777    51.255035    12.612127     22.30075    14.235163 
  142000    3.2228443    128990.01            0    129002.56     12.68375    22.438693    14.606936    19.777468    36.100835    51.428091    12.612127     22.30075    14.235163 
  142200    1.4517478    129160.82            0    129166.47    12.683246    22.439028    14.608966    19.727058    36.134325    51.631161    12.612127     22.30075    14.235163 
  142400    3.6161375    129328.13            0    129342.21    12.682187    22.437373    14.611559    19.621062    35.968833    51.890536    12.612127     22.30075    14.235163 
  142600     2.213629       129498            0    129506.62    12.680843    22.435358      14.6146    19.486674    35.767225    52.194816    12.612127     22.30075    14.235163 
  142800    2.5620389    129667.75            0    129677.72    12.679253     22.43413    14.617362    19.327549     35.64439    52.471118    12.612127     22.30075    14.235163 
  143000    2.1876007    129835.74            0    129844.26    12.677431    22.433233    14.620596    19.145257    35.554627    52.794599    12.612127     22.30075    14.235163 
  143200     2.384403    130004.65            0    130013.93    12.676247    22.432971     14.62298    19.026802     35.52841    53.033152    12.612127     22.30075    14.235163 
  143400    2.3576017    130176.55            0    130185.73    12.675257    22.432575    14.625753    18.927778    35.488816      53.3105    12.612127     22.30075    14.235163 
  143600    2.9130589    130344.12            0    130355.46    12.675956    22.432232    14.627852    18.997689    35.454468    53.520492    12.612127     22.30075    14.235163 
  143800    1.7628612    130512.01            0    130518.88    12.677475    22.432259    14.629631    19.149671    35.457138    53.698531    12.612127     22.30075    14.235163 
  144000    2.7995234    130681.14            0    130692.04    12.678794    22.432204    14.631164    19.281672    35.451717    53.851825    12.612127     22.30075    14.235163 
  144200     2.481509    130850.47            0    130860.13    12.680286     22.43219    14.633042    19.430956    35.450326    54.039706    12.612127     22.30075    14.235163 
  144400    2.1188115    131020.31            0    131028.56    12.681424    22.432423    14.634847    19.544783    35.473545    54.220346    12.612127     22.30075    14.235163 
  144600     3.383536    131189.81            0    131202.98    12.682923    22.433237    14.636923    19.694726    35.555046    54.428039    12.612127     22.30075    14.235163 
  144800     1.756394    131359.56            0     131366.4    12.683653    22.433889    14.638317    19.767731    35.620218    54.567449    12.612127     22.30075    14.235163 
  145000    3.1532556    131527.22            0    131539.49    12.683338    22.433837    14.640263    19.736293    35.615021    54.762174    12.612127     22.30075    14.235163 
  145200    1.8795695    131695.96            0    131703.28    12.682715    22.433548    14.642175    19.673929    35.586176    54.953457    12.612127     22.30075    14.235163 
  145400    2.6603647     131865.1            0    131875.46    12.682088    22.433254    14.644075    19.611184    35.556767    55.143546    12.612127     22.30075    14.235163 
  145600    1.7394243    132034.65            0    132041.42    12.681416    22.432839    14.646108    19.543937    35.515223    55.346877    12.612127     22.30075    14.235163 
  145800    2.5890957     132203.4            0    132213.48    12.680872    22.432044    14.647848    19.489536    35.435689    55.521011    12.612127     22.30075    14.235163 
  146000    2.2065277     132374.4            0    132382.99    12.680297     22.43092    14.650201    19.432007    35.323187    55.756369    12.612127     22.30075    14.235163 
  146200     2.569052    132542.05            0    132552.05    12.680654    22.430355    14.652457     19.46769    35.266749     55.98205    12.612127     22.30075    14.235163 
  146400    2.1931335    132712.44            0    132720.98    12.680787    22.429684    14.654975    19.481064    35.199575    56.233964    12.612127     22.30075    14.235163 
  146600    3.1372458    132880.49            0    132892.71    12.680818    22.429837    14.656849    19.484149    35.214862    56.421419    12.612127     22.30075    14.235163 
  146800    1.6572738    133049.37            0    133055.82     12.68122    22.430545    14.658471    19.524359    35.285715     56.58376    12.612127     22.30075    14.235163 
  147000    2.3042367    133219.59            0    133228.56    12.681719    22.431217    14.659822    19.574262    35.352927    56.718837    12.612127     22.30075    14.235163 
  147200    2.4378715       133388            0    133397.49    12.682937     22.43251    14.661476    19.696158    35.482325    56.884333    12.612127     22.30075    14.235163 
  147400    1.4997487    133560.06            0     133565.9    12.683733    22.434113    14.662838    19.775732     35.64261    57.020632    12.612127     22.30075    14.235163 
  147600    2.3470756    133727.88            0    133737.02    12.683422    22.435954    14.664419    19.744658    35.826865    57.178792    12.612127     22.30075    14.235163 
  147800    2.4783033    133896.56            0    133906.21    12.682446    22.436552    14.665218    19.647013    35.886619    57.258677    12.612127     22.30075    14.235163 
  148000    1.7272951    134064.53            0    134071.25     12.68189    22.436435     14.66569    19.591385    35.875001    57.305885    12.612127     22.30075    14.235163 
  148200    2.6873252     134233.1            0    134243.56    12.681667    22.436256    14.666017    19.569093    35.857012    57.338659    12.612127     22.30075    14.235163 
  148400    1.9952501    134402.19            0    134409.95    12.681362    22.436013    14.666376    19.538588    35.832731    57.374518    12.612127     22.30075    14.235163 
  148600    2.6753976    134571.54            0    134581.95    12.681044    22.435995    14.666601    19.506718    35.830929    57.397093    12.612127     22.30075    14.235163 
  148800     2.005804    134741.61            0    134749.42    12.680756    22.436199    14.666726    19.477988    35.851314    57.409508    12.612127     22.30075    14.235163 
  149000    2.7178221    134911.08            0    134921.66    12.681339    22.436558    14.666812    19.536236     35.88726    57.418152    12.612127     22.30075    14.235163 
  149200    2.4832282    135078.72            0    135088.39    12.682001    22.437286    14.666714    19.602448    35.960078    57.408343    12.612127     22.30075    14.235163 
  149400    2.0856195    135249.11            0    135257.23     12.68246    22.437916    14.666579    19.648458    36.023086     57.39485    12.612127     22.30075    14.235163 
  149600    3.6419757    135417.69            0    135431.87    12.683038    22.438765    14.666376     19.70627    36.108042     57.37453    12.612127     22.30075    14.235163 
  149800    1.8430973    135586.93            0     135594.1    12.683846    22.439624    14.666063    19.787078    36.194003    57.343233    12.612127     22.30075    14.235163 
  150000    2.9679621    135755.79            0    135767.34    12.685496    22.440442     14.66547    19.952099    36.275816    57.283934    12.612127     22.30075    14.235163 
  150200    1.3509447    135924.59            0    135929.85    12.687034     22.44079    14.664798     20.10602    36.310596    57.216656    12.612127     22.30075    14.235163 
  150400    2.7863466    136093.64            0    136104.48    12.688511    22.440637    14.664122    20.253791    36.295287    57.149032    12.612127     22.30075    14.235163 
  150600    2.0096037    136262.72            0    136270.54    12.689966    22.440546    14.663439    20.399319    36.286262    57.080681    12.612127     22.30075    14.235163 
  150800    3.0978169    136433.77            0    136445.83    12.691275    22.440725    14.662528    20.530256    36.304171    56.989584    12.612127     22.30075    14.235163 
  151000    2.2166027    136601.44            0    136610.07    12.692259    22.441184    14.661037    20.628716    36.350054    56.840438    12.612127     22.30075    14.235163 
  151200    2.4696787     136771.8            0    136781.41    12.692226    22.441667     14.65948    20.625428    36.398361    56.684689    12.612127     22.30075    14.235163 
  151400     1.813154    136939.24            0    136946.29    12.690614    22.442646    14.657682      20.4642    36.496307    56.504728    12.612127     22.30075    14.235163 
  151600    2.2051579    137108.37            0    137116.96    12.689186    22.443475    14.656411    20.321246     36.57922    56.377633    12.612127     22.30075    14.235163 
  151800    2.4830409    137277.68            0    137287.35    12.687315    22.444507    14.654762     20.13412    36.682534    56.212687    12.612127     22.30075    14.235163 
  152000    1.2030961    137446.89            0    137451.57    12.685755    22.444975    14.653407    19.978038    36.729293    56.077073    12.612127     22.30075    14.235163 
  152200    2.7856622    137616.28            0    137627.12    12.684451    22.444747    14.652114    19.847553    36.706471    55.947721    12.612127     22.30075    14.235163 
  152400    1.8782222    137786.38            0    137793.69    12.683162    22.443368    14.650656    19.718603    36.568558    55.801913    12.612127     22.30075    14.235163 
  152600    3.6674103    137954.39            0    137968.67    12.682983    22.442722    14.649295     19.70075     36.50392    55.665728    12.612127     22.30075    14.235163 
  152800    2.0388791     138123.6            0    138131.53    12.682948    22.442098    14.647775    19.697213    36.441494      55.5137    12.612127     22.30075    14.235163 
  153000    2.5321247    138292.97            0    138302.83    12.683037     22.44104    14.646514    19.706136    36.335645    55.387537    12.612127     22.30075    14.235163 
  153200    2.8204189    138462.64            0    138473.62     12.68381    22.439819    14.645237    19.783428    36.213497    55.259714    12.612127     22.30075    14.235163 
  153400    1.7267039    138631.38            0     138638.1    12.685241    22.439247    14.644169    19.926657    36.156259    55.152941    12.612127     22.30075    14.235163 
  153600      3.22591    138799.93            0    138812.49    12.686847    22.439036    14.643017    20.087307    36.135193    55.037648    12.612127     22.30075    14.235163 
  153800    2.1487557    138971.33            0     138979.7     12.68807    22.438248    14.642237    20.209664    36.056324    54.959611    12.612127     22.30075    14.235163 
  154000    2.0259997     139138.7            0    139146.58    12.689384    22.435887    14.641992    20.341101    35.820106     54.93515    12.612127     22.30075    14.235163 
  154200    1.8375708    139308.15            0     139315.3    12.690106     22.43483    14.641575    20.413334    35.714357    54.893434    12.612127     22.30075    14.235163 
  154400    2.5300987    139476.39            0    139486.24    12.690385    22.434785    14.640626    20.441205    35.709929    54.798437    12.612127     22.30075    14.235163 
  154600    2.0876336     139645.8            0    139653.93    12.690818    22.435097    14.639725     20.48456    35.741148    54.708357    12.612127     22.30075    14.235163 
  154800    2.9148925    139815.79            0    139827.14     12.69147    22.435546    14.638726    20.549817    35.785977    54.608403    12.612127     22.30075    14.235163 
  155000    1.6754953    139986.23            0    139992.75    12.691512    22.436035    14.637637    20.553964    35.834914    54.499434    12.612127     22.30075    14.235163 
  155200    2.8479716     140153.1            0    140164.19    12.690932    22.436272    14.635899    20.496004    35.858632    54.325587    12.612127     22.30075    14.235163 
  155400    2.0029002    140322.31            0    140330.11    12.690136    22.436622    14.634562    20.416343    35.893679      54.1918    12.612127     22.30075    14.235163 
  155600    3.7178418    140491.15            0    140505.62    12.689034    22.436794    14.633177    20.306132    35.910887    54.053283    12.612127     22.30075    14.235163 
  155800    1.8463343     140660.8            0    140667.99    12.687859    22.436787     14.63198    20.188538    35.910195    53.933468    12.612127     22.30075    14.235163 
  156000    2.6023282    140831.04            0    140841.18    12.685778    22.436694    14.630411    19.980371    35.900831    53.776483    12.612127     22.30075    14.235163 
  156200    1.4322923    140998.66            0    141004.24    12.684859    22.436955     14.62928    19.888441    35.926942    53.663378    12.612127     22.30075    14.235163 
  156400    2.9810819    141167.74            0    141179.34    12.684389      22.4372    14.628467    19.841403    35.951473    53.582025    12.612127     22.30075    14.235163 
  156600    2.0239974    141338.45            0    141346.33    12.683713    22.437807    14.627547    19.773755    36.012201    53.490039    12.612127     22.30075    14.235163 
  156800    3.3120846    141506.11            0       141519    12.682932    22.438925    14.626982    19.695651     36.12404    53.433513    12.612127     22.30075    14.235163 
  157000    1.6292413    141675.88            0    141682.22    12.682284    22.439955    14.626512    19.630825    36.227121    53.386447    12.612127     22.30075    14.235163 
  157200    2.9921701    141845.21            0    141856.86      12.6822    22.440242    14.625846    19.622435    36.255774    53.319845    12.612127     22.30075    14.235163 
  157400    2.2228707    142014.11            0    142022.76    12.682688    22.439599    14.624701    19.671227     36.19149    53.205248    12.612127     22.30075    14.235163 
  157600    2.7375797    142182.52            0    142193.18     12.68284    22.438916    14.623308    19.686402    36.123116    53.065972    12.612127     22.30075    14.235163 
  157800    2.3230576    142353.33            0    142362.37    12.683157    22.437769    14.621464    19.718159    36.008382    52.881416    12.612127     22.30075    14.235163 
  158000    2.2369629    142521.15            0    142529.86    12.684163    22.436134    14.619766    19.818799    35.844878    52.711628    12.612127     22.30075    14.235163 
  158200    3.4274224    142691.31            0    142704.65    12.685351    22.433824    14.617595     19.93761    35.613719    52.494397    12.612127     22.30075    14.235163 
  158400    1.9677701     142859.5            0    142867.16    12.685315    22.432216    14.616229    19.933995    35.452853    52.357771    12.612127     22.30075    14.235163 
  158600    3.2167704    143028.71            0    143041.23    12.685112       22.431    14.614926    19.913729     35.33118     52.22734    12.612127     22.30075    14.235163 
  158800    1.4547912    143197.68            0    143203.34     12.68521    22.430622    14.613652    19.923563     35.29338    52.099889    12.612127     22.30075    14.235163 
  159000    2.5556225    143367.56            0    143377.51    12.684943    22.430703    14.612382    19.896861    35.301467      51.9729    12.612127     22.30075    14.235163 
  159200    3.8360276       143537            0    143551.93     12.68455    22.432114    14.611406     19.85751    35.442656    51.875202    12.612127     22.30075    14.235163 
  159400    1.9799767    143705.28            0    143712.99    12.684124    22.433887    14.611062    19.814866    35.620016    51.840786    12.612127     22.30075    14.235163 
  159600    2.8542217    143873.96            0    143885.07    12.683882    22.434749    14.610695    19.790714    35.706314    51.804069    12.612127     22.30075    14.235163 
  159800    1.6619704    144044.17            0    144050.64    12.683568    22.435901      14.6104    19.759274    35.821561    51.774542    12.612127     22.30075    14.235163 
  160000    3.4144561     144213.6            0    144226.89    12.682608    22.438027    14.610336    19.663213    36.034196    51.768208    12.612127     22.30075    14.235163 
  160200    1.9112307    144382.01            0    144389.45    12.681056    22.440632    14.610501    19.507912    36.294849    51.784703    12.612127     22.30075    14.235163 
  160400    2.2347229    144551.86            0    144560.56    12.679838    22.443184    14.610515    19.386054    36.550181    51.786136    12.612127     22.30075    14.235163 
  160600    3.5371606    144720.44            0    144734.21    12.678127     22.44518    14.609878    19.214948    36.749807    51.722406    12.612127     22.30075    14.235163 
  160800     1.636349    144889.16            0    144895.53    12.677129     22.44662    14.608996    19.115079    36.893839    51.634152    12.612127     22.30075    14.235163 
  161000    2.9937595    145058.32            0    145069.97    12.676814    22.447997    14.607957    19.083576    37.031657    51.530229    12.612127     22.30075    14.235163 
  161200    1.3912882    145229.24            0    145234.66    12.676828    22.448646    14.607156    19.084963    37.096593    51.450064    12.612127     22.30075    14.235163 
  161400    3.4443304    145397.53            0    145410.94    12.677076    22.446715    14.606841    19.109736    36.903406     51.41859    12.612127     22.30075    14.235163 
  161600    2.0132244    145566.24            0    145574.08    12.677572    22.443647    14.606831    19.159436    36.596413    51.417551    12.612127     22.30075    14.235163 
  161800    3.1323023    145735.12            0    145747.32    12.678241    22.439961    14.606902    19.226302    36.227727    51.424619    12.612127     22.30075    14.235163 
  162000    1.7242865    145904.45            0    145911.16      12.6792      22.4374    14.607106    19.322285    35.971449    51.445069    12.612127     22.30075    14.235163 
  162200    3.3340957    146074.01            0    146086.99    12.680565    22.435604    14.607637    19.458877    35.791843    51.498187    12.612127     22.30075    14.235163 
  162400    1.5925869    146242.44            0    146248.64    12.681323    22.434464    14.608117    19.534695    35.677736    51.546243    12.612127     22.30075    14.235163 
  162600    2.7847153    146411.22            0    146422.06    12.681743    22.434052    14.608275    19.576659    35.636506    51.562015    12.612127     22.30075    14.235163 
  162800    1.5092158    146580.15            0    146586.03    12.682278    22.433775    14.608286     19.63017    35.608794    51.563112    12.612127     22.30075    14.235163 
  163000     2.360945     146749.4            0    146758.59    12.682473     22.43364    14.608381    19.649756    35.595319    51.572643    12.612127     22.30075    14.235163 
  163200    2.3089581    146919.57            0    146928.56     12.68217    22.433829    14.608638    19.619411    35.614236    51.598285    12.612127     22.30075    14.235163 
  163400    3.5314403    147089.33            0    147103.07    12.681673     22.43414    14.608669     19.56969    35.645382    51.601432    12.612127     22.30075    14.235163 
  163600    1.9925981    147256.85            0     147264.6    12.682193    22.434427    14.608335    19.621665    35.674058    51.568004    12.612127     22.30075    14.235163 
  163800    2.6709916    147425.82            0    147436.22    12.683524    22.434552    14.608054    19.754881      35.6866    51.539932    12.612127     22.30075    14.235163 
  164000    1.9742072    147595.49            0    147603.17    12.685037    22.434749    14.607758    19.906237    35.706252    51.510272    12.612127     22.30075    14.235163 
  164200    2.4257392    147764.35            0    147773.79    12.685929    22.435239    14.607661    19.995471    35.755317    51.500582    12.612127     22.30075    14.235163 
  164400    2.4595019    147933.43            0    147943.01    12.686418    22.436013    14.607733    20.044332    35.832738    51.507776    12.612127     22.30075    14.235163 
  164600    2.2291601    148102.93            0    148111.61    12.686389    22.436486    14.607825    20.041428    35.880036    51.516944    12.612127     22.30075    14.235163 
  164800    4.6859361    148272.96            0     148291.2    12.685917    22.436354     14.60812     19.99429      35.8669    51.546448    12.612127     22.30075    14.235163 
  165000    2.2913735    148441.19            0    148450.11    12.684268    22.435683    14.608559     19.82931    35.799766    51.590406    12.612127     22.30075    14.235163 
  165200    2.2849109    148611.78            0    148620.67    12.682819    22.435749    14.609184    19.684328    35.806296    51.652901    12.612127     22.30075    14.235163 
  165400    2.2444194    148779.62            0    148788.36    12.681416    22.436022    14.610062    19.543948    35.833617    51.740748    12.612127     22.30075    14.235163 
  165600    2.0005274    148950.48            0    148958.27    12.680555    22.435777    14.610996    19.457841    35.809095    51.834209    12.612127     22.30075    14.235163 
  165800    2.7624753    149117.25            0       149128    12.680118    22.435754    14.612438    19.414153    35.806823    51.978428    12.612127     22.30075    14.235163 
  166000    2.0253514    149286.29            0    149294.17    12.679672    22.435979    14.613678     19.36951    35.829374    52.102509    12.612127     22.30075    14.235163 
  166200    2.6949217    149455.92            0    149466.41     12.67918    22.436284     14.61499    19.320323    35.859822    52.233753    12.612127     22.30075    14.235163 
  166400    1.5205072    149625.27            0    149631.19    12.678686    22.436896     14.61623     19.27084    35.921042    52.357839    12.612127     22.30075    14.235163 
  166600     2.919207    149793.89            0    149805.25    12.678614    22.437444    14.616899    19.263632    35.975901    52.424768    12.612127     22.30075    14.235163 
  166800       2.1819    149963.09            0    149971.58    12.678556    22.438356     14.61753    19.257839    36.067119    52.487875    12.612127     22.30075    14.235163 
  167000     3.050437    150132.52            0    150144.39     12.67875    22.439075    14.618139    19.277264    36.139049    52.548838    12.612127     22.30075    14.235163 
  167200    2.1740289    150302.39            0    150310.86     12.67959    22.439938    14.618853    19.361275    36.225358    52.620278    12.612127     22.30075    14.235163 
  167400    2.9392145    150470.96            0     150482.4    12.679675    22.439866    14.619426    19.369815     36.21823    52.677599    12.612127     22.30075    14.235163 
  167600     1.320536     150640.9            0    150646.04    12.679529    22.438649     14.62016    19.355166    36.096441    52.751003    12.612127     22.30075    14.235163 
  167800    2.5907295    150808.76            0    150818.84    12.680426    22.438034    14.621013    19.444953    36.034883    52.836325    12.612127     22.30075    14.235163 
  168000    2.1125943    150978.34            0    150986.57    12.681873    22.437586    14.622002    19.589718     35.99007    52.935281    12.612127     22.30075    14.235163 
  168200    3.6767174    151147.56            0    151161.87    12.683369    22.437892    14.623186     19.73934     36.02076    53.053759    12.612127     22.30075    14.235163 
  168400    1.8830841    151316.52            0    151323.85    12.684993    22.438656    14.624527    19.901772    36.097167    53.187923    12.612127     22.30075    14.235163 
  168600    2.5456855    151487.41            0    151497.32    12.686502    22.440154    14.625224    20.052765    36.247057    53.257619    12.612127     22.30075    14.235163 
  168800    1.8433674    151655.36            0    151662.54    12.687019    22.442065    14.625433    20.104476    36.438221    53.278492    12.612127     22.30075    14.235163 
  169000    2.1986807     151823.5            0    151832.06    12.685981    22.442534    14.625197    20.000627    36.485064    53.254921    12.612127     22.30075    14.235163 
  169200    2.5234114    151992.56            0    152002.38    12.683947     22.44249    14.624732    19.797179    36.480712    53.208419    12.612127     22.30075    14.235163 
  169400     1.115296    152161.84            0    152166.18    12.682307    22.442287    14.624404    19.633091    36.460396    53.175593    12.612127     22.30075    14.235163 
  169600    3.0083643    152331.14            0    152342.85    12.680431    22.441547    14.624202    19.445398    36.386331    53.155393    12.612127     22.30075    14.235163 
  169800     1.806537    152500.51            0    152507.54    12.678276    22.441093    14.624108    19.229792       36.341    53.145994    12.612127     22.30075    14.235163 
  170000    3.8057868    152669.48            0    152684.29    12.676391    22.440619    14.623985    19.041259    36.293535    53.133644    12.612127     22.30075    14.235163 
  170200    2.0647688    152838.77            0    152846.81    12.674522    22.439582    14.623695    18.854326    36.189824    53.104636    12.612127     22.30075    14.235163 
  170400     3.299875    153007.86            0     153020.7    12.674131    22.438571     14.62344    18.815151    36.088659    53.079154    12.612127     22.30075    14.235163 
  170600    2.2979497    153176.79            0    153185.74    12.674902    22.437599    14.623196    18.892344    35.991381    53.054744    12.612127     22.30075    14.235163 
  170800    2.8538946    153345.74            0    153356.85    12.676434    22.437139    14.623173    19.045558    35.945401    53.052387    12.612127     22.30075    14.235163 
  171000    1.5790993    153515.02            0    153521.17    12.678704    22.436876    14.623314    19.272645    35.919105    53.066577    12.612127     22.30075    14.235163 
  171200    3.0267016    153683.87            0    153695.65    12.681007    22.436404      14.6234    19.503064    35.871854    53.075132    12.612127     22.30075    14.235163 
  171400    2.2041829    153853.38            0    153861.96    12.683918    22.435824    14.623498    19.794309    35.813783    53.084942    12.612127     22.30075    14.235163 
  171600    3.0528484    154024.18            0    154036.06    12.686108    22.435675    14.623716    20.013406    35.798887     53.10674    12.612127     22.30075    14.235163 
  171800    2.1831986    154193.96            0    154202.46    12.687526      22.4355    14.624402    20.155193    35.781379     53.17535    12.612127     22.30075    14.235163 
  172000    2.7033315    154360.89            0    154371.41     12.68788    22.435515    14.624978    20.190596     35.78294    53.232992    12.612127     22.30075    14.235163 
  172200     1.511747    154529.91            0    154535.79    12.687585    22.435802    14.625545    20.161155    35.811667    53.289718    12.612127     22.30075    14.235163 
  172400    3.3490629    154698.73            0    154711.77    12.686543    22.436453    14.625934    20.056925    35.876751    53.328628    12.612127     22.30075    14.235163 
  172600    1.9334991    154868.59            0    154876.12    12.685151    22.437328    14.626259    19.917617     35.96426    53.361171    12.612127     22.30075    14.235163 
  172800    2.9050113    155038.21            0    155049.52    12.683778    22.438811    14.626707    19.780233    36.112637    53.405983    12.612127     22.30075    14.235163 
  173000    2.2256805    155206.11            0    155214.78    12.682408    22.440778    14.627337    19.643188    36.309447    53.468996    12.612127     22.30075    14.235163 
  173200    2.6864121    155375.24            0     155385.7    12.681206    22.442546    14.627894    19.523007    36.486265    53.524737    12.612127     22.30075    14.235163 
  173400    2.1363255    155544.59            0    155552.91    12.679709    22.444745     14.62859     19.37323     36.70631    53.594313    12.612127     22.30075    14.235163 
  173600    2.3983139    155714.64            0    155723.98     12.67855    22.445803    14.629306    19.257238    36.812173    53.665946    12.612127     22.30075    14.235163 
  173800    2.2501531    155883.41            0    155892.17    12.678094    22.445608    14.629961    19.211635    36.792676    53.731509    12.612127     22.30075    14.235163 
  174000     1.593733    156053.08            0    156059.28    12.678381    22.444377    14.630357    19.240305    36.669538    53.771129    12.612127     22.30075    14.235163 
  174200    2.8167343    156221.41            0    156232.38    12.678986    22.441777    14.631341    19.300848    36.409423    53.869564    12.612127     22.30075    14.235163 
  174400     1.731296    156390.81            0    156397.55    12.679609    22.439398    14.632511    19.363179    36.171391    53.986572    12.612127     22.30075    14.235163 
  174600    3.4330482     156560.4            0    156573.76    12.680767    22.437373    14.633831    19.479033    35.968801    54.118653    12.612127     22.30075    14.235163 
  174800    2.2484788    156729.11            0    156737.86     12.68224    22.435103    14.635454    19.626378    35.741667    54.281033    12.612127     22.30075    14.235163 
  175000    2.5476332    156898.86            0    156908.78    12.683453    22.434141    14.637194    19.747727    35.645424     54.45507    12.612127     22.30075    14.235163 
  175200    4.0836567    157071.08            0    157086.98    12.684814     22.43528    14.639807    19.883864    35.759362    54.716483    12.612127     22.30075    14.235163 
  175400    2.2833065    157236.82            0    157245.71    12.685621     22.43728    14.641985    19.964596    35.959455    54.934464    12.612127     22.30075    14.235163 
  175600    2.3171437    157405.76            0    157414.78    12.685446    22.438539    14.643203    19.947149    36.085457    55.056318    12.612127     22.30075    14.235163 
  175800    2.6689872    157574.04            0    157584.43    12.684161    22.439888    14.644182    19.818561    36.220373    55.154256    12.612127     22.30075    14.235163 
  176000    1.9052614    157743.18            0     157750.6    12.683084    22.440909    14.644915    19.710848     36.32259     55.22756    12.612127     22.30075    14.235163 
  176200    2.7555647    157912.45            0    157923.18    12.681947    22.442044    14.645727    19.597118    36.436093    55.308766    12.612127     22.30075    14.235163 
  176400    1.8741918    158083.19            0    158090.48    12.681238    22.442869    14.646424    19.526199    36.518663    55.378551    12.612127     22.30075    14.235163 
  176600    3.8231812    158252.59            0    158267.48    12.681515    22.443259     14.64748    19.553823    36.557657     55.48413    12.612127     22.30075    14.235163 
  176800    2.3805574    158420.09            0    158429.36    12.681585    22.442671    14.648396    19.560846    36.498865    55.575807    12.612127     22.30075    14.235163 
  177000    2.1534567    158588.95            0    158597.33    12.681633    22.441719    14.649137    19.565681    36.403592    55.649956    12.612127     22.30075    14.235163 
  177200    3.1808153    158759.79            0    158772.17    12.681954     22.44026    14.650274    19.597752      36.2576    55.763682    12.612127     22.30075    14.235163 
  177400     1.812164    158927.26            0    158934.31    12.682219    22.438414    14.651779    19.624306    36.072897    55.914184    12.612127     22.30075    14.235163 
  177600    2.7041431    159096.73            0    159107.26    12.682618     22.43684    14.653334     19.66422    35.915426    56.069756    12.612127     22.30075    14.235163 
  177800    2.0854656    159265.52            0    159273.64    12.683191    22.434993    14.655125    19.721582    35.730738     56.24896    12.612127     22.30075    14.235163 
  178000     1.609911    159434.76            0    159441.03    12.683591     22.43325    14.656548     19.76157    35.556274    56.391371    12.612127     22.30075    14.235163 
  178200    2.6874345    159605.22            0    159615.68    12.683934    22.431299    14.658674    19.795921    35.361178    56.604034    12.612127     22.30075    14.235163 
  178400       1.8455    159773.11            0    159780.29    12.684112    22.430711    14.660979    19.813661    35.302321    56.834566    12.612127     22.30075    14.235163 
  178600    2.3872989    159942.19            0    159951.49    12.684365    22.430796     14.66272    19.838984     35.31085    57.008828    12.612127     22.30075    14.235163 
  178800    2.4347799    160111.73            0     160121.2    12.684574    22.431054    14.665257    19.859936    35.336658    57.262621    12.612127     22.30075    14.235163 
  179000    2.2341451    160280.36            0    160289.05    12.684669    22.431229    14.667319    19.869414    35.354103    57.468906    12.612127     22.30075    14.235163 
  179200    2.7415065    160450.14            0    160460.81    12.684454    22.431513    14.669731    19.847882    35.382513    57.710224    12.612127     22.30075    14.235163 
  179400    2.3437978    160619.07            0    160628.19    12.684274    22.431719    14.671563    19.829883    35.403128    57.893428    12.612127     22.30075    14.235163 
  179600    2.4400907    160788.34            0    160797.84    12.684287    22.431673    14.673379    19.831202    35.398598    58.075175    12.612127     22.30075    14.235163 
  179800    1.7970719     160957.1            0     160964.1    12.683974    22.431657    14.674855    19.799836     35.39698    58.222845    12.612127     22.30075    14.235163 
  180000    3.0180104    161126.18            0    161137.93     12.68319    22.431432    14.676954    19.721466     35.37447    58.432748    12.612127     22.30075    14.235163 
  180200    2.1922897    161295.37            0    161303.91    12.682182    22.431322    14.679091    19.620606    35.363445    58.646604    12.612127     22.30075    14.235163 
  180400    3.1524245    161465.21            0    161477.48     12.68112     22.43135    14.681572    19.514311    35.366222    58.894776    12.612127     22.30075    14.235163 
  180600    1.9359985    161635.35            0    161642.89    12.679996    22.430843    14.684914    19.401927    35.315529    59.229155    12.612127     22.30075    14.235163 
  180800    2.5823135    161802.89            0    161812.94    12.679544    22.430698    14.687625    19.356681     35.30103    59.500288    12.612127     22.30075    14.235163 
  181000    2.5675199    161972.24            0    161982.24    12.679375    22.431043    14.690591    19.339824    35.335512    59.797052    12.612127     22.30075    14.235163 
  181200    1.7609609    162140.76            0    162147.62    12.679215    22.431717    14.692906    19.323781    35.402939    60.028691    12.612127     22.30075    14.235163 
  181400    2.7854542    162312.47            0    162323.31     12.67914    22.432609    14.695598    19.316285     35.49223    60.297999    12.612127     22.30075    14.235163 
  181600    2.5387839    162479.33            0    162489.22    12.680715    22.433081    14.697991    19.473862     35.53943    60.537367    12.612127     22.30075    14.235163 
  181800    2.2093613    162648.42            0    162657.02    12.682569    22.433271    14.700008    19.659301    35.558384    60.739196    12.612127     22.30075    14.235163 
  182000    2.4592674     162817.5            0    162827.07    12.684255    22.433342    14.702072    19.828009    35.565569    60.945605    12.612127     22.30075    14.235163 
  182200    2.1597293    162986.55            0    162994.96    12.685828    22.433545    14.704035    19.985371     35.58588    61.141984    12.612127     22.30075    14.235163 
  182400    2.3608813    163155.63            0    163164.82    12.687268    22.433939    14.705718    20.129388      35.6252     61.31036    12.612127     22.30075    14.235163 
  182600    2.3297014    163325.05            0    163334.12    12.689106    22.434541    14.707724    20.313285    35.685476    61.511048    12.612127     22.30075    14.235163 
  182800    1.8642772    163494.82            0    163502.07    12.689978    22.434669    14.709113    20.400504    35.698272    61.650036    12.612127     22.30075    14.235163 
  183000    2.1479923    163666.03            0     163674.4    12.690304    22.433981    14.710561    20.433155    35.629425    61.794905    12.612127     22.30075    14.235163 
  183200     2.199147    163833.17            0    163841.73    12.689548    22.432059    14.711711    20.357471    35.437139    61.909918    12.612127     22.30075    14.235163 
  183400    2.1107968    164001.77            0    164009.99    12.688547    22.430785    14.712532    20.257383    35.309671    61.992097    12.612127     22.30075    14.235163 
  183600    2.6033994    164170.69            0    164180.82    12.686707    22.430113    14.713433    20.073266    35.242475    62.082181    12.612127     22.30075    14.235163 
  183800    1.6240818    164340.27            0    164346.59    12.684865    22.430047    14.714111    19.888978    35.235931    62.150073    12.612127     22.30075    14.235163 
  184000    2.9799742    164508.97            0    164520.57     12.68347    22.430266     14.71459    19.749436    35.257756    62.197971    12.612127     22.30075    14.235163 
  184200    1.9276332    164678.51            0    164686.01    12.682063    22.430896     14.71522    19.608681    35.320837    62.260966    12.612127     22.30075    14.235163 
  184400    3.2590537    164847.25            0    164859.94    12.680819    22.431665    14.716051    19.484258    35.397756     62.34416    12.612127     22.30075    14.235163 
  184600    2.5759958    165016.59            0    165026.62     12.67962    22.432804    14.717467    19.364268    35.511712     62.48574    12.612127     22.30075    14.235163 
  184800    2.6101743    165186.05            0    165196.21    12.679316    22.434063    14.718804    19.333851    35.637639    62.619553    12.612127     22.30075    14.235163 
  185000    1.6854402     165355.2            0    165361.76    12.679148    22.435579     14.72031    19.317095    35.789337    62.770239    12.612127     22.30075    14.235163 
  185200    2.4414801    165523.82            0    165533.32    12.679582    22.437609    14.721471    19.360524    35.992443    62.886381    12.612127     22.30075    14.235163 
  185400    2.3259794     165693.8            0    165702.85    12.680896    22.440323    14.722827    19.491901    36.263903     63.02201    12.612127     22.30075    14.235163 
  185600    1.8546652    165861.78            0       165869    12.682813    22.442514    14.724217    19.683721    36.483073    63.161092    12.612127     22.30075    14.235163 
  185800    2.7359982    166030.92            0    166041.57    12.684636    22.444433    14.725479    19.866137    36.675126    63.287316    12.612127     22.30075    14.235163 
  186000    1.9437613    166201.98            0    166209.55    12.686702    22.446874     14.72697    20.072759    36.919267    63.436477    12.612127     22.30075    14.235163 
  186200    1.8765887       166370            0     166377.3    12.687285    22.448631    14.727863    20.131072    37.095097    63.525876    12.612127     22.30075    14.235163 
  186400    3.3326029    166538.71            0    166551.68    12.687351    22.449426    14.728962    20.137714    37.174625    63.635811    12.612127     22.30075    14.235163 
  186600    1.7507168    166707.74            0    166714.56    12.687042    22.449677    14.729979    20.106833    37.199742    63.737488    12.612127     22.30075    14.235163 
  186800    2.5994014    166878.17            0    166888.29    12.686612     22.44973    14.731112    20.063763    37.204965    63.850856    12.612127     22.30075    14.235163 
  187000    2.9476121     167047.4            0    167058.87    12.685472    22.448554    14.731991    19.949777    37.087399    63.938775    12.612127     22.30075    14.235163 
  187200    1.4829776    167214.98            0    167220.76    12.684735    22.446336    14.732428    19.875984    36.865509    63.982525    12.612127     22.30075    14.235163 
  187400    2.3672864    167384.02            0    167393.24    12.683955    22.444342    14.732838    19.797983    36.665949      64.0235    12.612127     22.30075    14.235163 
  187600    2.1443132    167554.48            0    167562.83    12.682963    22.441891    14.733348    19.698731     36.42076    64.074601    12.612127     22.30075    14.235163 
  187800    2.4561036    167722.36            0    167731.93     12.68264    22.440301    14.733877    19.666426    36.261682    64.127506    12.612127     22.30075    14.235163 
  188000    1.7648069    167894.84            0    167901.71    12.682844    22.439063     14.73452    19.686845    36.137823    64.191757    12.612127     22.30075    14.235163 
  188200     2.687861    168060.64            0    168071.11    12.683474    22.440079    14.735108    19.749835    36.239474    64.250642    12.612127     22.30075    14.235163 
  188400    2.0475751    168230.23            0     168238.2    12.684155    22.441357    14.735624    19.817958    36.367314     64.30225    12.612127     22.30075    14.235163 
  188600    2.6045785    168398.85            0    168408.99    12.684195    22.442266    14.735922    19.821943    36.458257    64.332078    12.612127     22.30075    14.235163 
  188800    2.2524885    168569.44            0    168578.21    12.683732    22.443201    14.736187    19.775651     36.55188    64.358583    12.612127     22.30075    14.235163 
  189000    1.7518206    168737.61            0    168744.43    12.682527    22.443332    14.736147    19.655138     36.56499    64.354555    12.612127     22.30075    14.235163 
  189200    3.0954627    168906.55            0     168918.6      12.6812    22.442085    14.736563    19.522406    36.440212    64.396154    12.612127     22.30075    14.235163 
  189400    1.7314319    169075.43            0    169082.17     12.67999    22.439989      14.7373    19.401326    36.230463    64.469968    12.612127     22.30075    14.235163 
  189600    3.9847682     169245.1            0    169260.61    12.678779    22.437998    14.737981    19.280167     36.03134    64.538068    12.612127     22.30075    14.235163 
  189800    2.3837973    169414.87            0    169424.15    12.678267     22.43555    14.739083    19.228924    35.786447    64.648318    12.612127     22.30075    14.235163 
  190000    2.3375802    169584.17            0    169593.27    12.678818    22.433692    14.740637    19.284107    35.600555    64.803736    12.612127     22.30075    14.235163 
  190200    2.2874497    169751.99            0     169760.9    12.679999    22.431741    14.742633    19.402165    35.405347    65.003458    12.612127     22.30075    14.235163 
  190400    2.5651711    169921.55            0    169931.54    12.680729    22.430906    14.744028     19.47527    35.321814     65.14303    12.612127     22.30075    14.235163 
  190600    2.3201004    170090.35            0    170099.38     12.68123    22.431102    14.745294    19.525392    35.341474    65.269693    12.612127     22.30075    14.235163 
  190800    2.2215509    170259.75            0     170268.4    12.681669     22.43145    14.746348    19.569316    35.376285    65.375112    12.612127     22.30075    14.235163 
  191000    2.5579271    170429.27            0    170439.23    12.682235     22.43255    14.747453    19.625881    35.486308    65.485683    12.612127     22.30075    14.235163 
  191200    2.3884283    170598.66            0    170607.96    12.683243    22.434275    14.748539    19.726767    35.658856    65.594296    12.612127     22.30075    14.235163 
  191400    1.7617226    170767.15            0    170774.01    12.684282    22.435357    14.749227    19.830683    35.767136    65.663147    12.612127     22.30075    14.235163 
  191600    3.4276745    170936.92            0    170950.26     12.68495     22.43588    14.750023    19.897563    35.819427    65.742723    12.612127     22.30075    14.235163 
  191800    1.8927606    171105.41            0    171112.78     12.68495    22.435337    14.750889    19.897535    35.765104    65.829387    12.612127     22.30075    14.235163 
  192000     3.077811    171274.33            0    171286.31    12.684832    22.434779    14.751651    19.885757    35.709315    65.905635    12.612127     22.30075    14.235163 
  192200    1.6336227    171444.09            0    171450.45    12.684612    22.434115     14.75249    19.863661    35.642846      65.9896    12.612127     22.30075    14.235163 
  192400    1.0621645    171612.77            0     171616.9    12.683556    22.432963    14.752837    19.758055    35.527565    66.024235    12.612127     22.30075    14.235163 
  192600    3.0986538    171781.67            0    171793.73    12.681788    22.430817    14.752986    19.581232    35.312967     66.03918    12.612127     22.30075    14.235163 
  192800    1.6014116    171951.78            0    171958.02    12.680248    22.428663    14.753225    19.427104    35.097426    66.063046    12.612127     22.30075    14.235163 
  193000    3.5336482    172120.75            0     172134.5    12.679515    22.426828    14.753712    19.353809    34.913808     66.11183    12.612127     22.30075    14.235163 
  193200      1.93141    172290.06            0    172297.57     12.67889    22.425511     14.75439    19.291258    34.782099    66.179634    12.612127     22.30075    14.235163 
  193400    3.6276191    172459.08            0     172473.2    12.679171    22.425761     14.75455    19.319328     34.80706    66.195616    12.612127     22.30075    14.235163 
  193600    1.5784257    172627.52            0    172633.66    12.680578     22.42683    14.754489    19.460097    34.914035    66.189521    12.612127     22.30075    14.235163 
  193800    3.1733078    172796.71            0    172809.06    12.681873    22.428332     14.75463    19.589716    35.064322    66.203699    12.612127     22.30075    14.235163 
  194000    1.7181679    172965.59            0    172972.28    12.682757    22.430272    14.754817    19.678129    35.258359    66.222361    12.612127     22.30075    14.235163 
  194200    3.2396838     173134.7            0    173147.32    12.683443    22.432119     14.75496     19.74675    35.443156     66.23667    12.612127     22.30075    14.235163 
  194400    1.1129479    173304.44            0    173308.77    12.684178    22.434048    14.755119    19.820243    35.636118    66.252532    12.612127     22.30075    14.235163 
  194600    3.1352106    173473.25            0    173485.46    12.684857    22.435083    14.755273    19.888237    35.739729     66.26799    12.612127     22.30075    14.235163 
  194800      1.78532    173644.35            0     173651.3    12.685208    22.435822    14.755458    19.923322    35.813641    66.286441    12.612127     22.30075    14.235163 
  195000    3.5439382     173812.3            0     173826.1    12.684389    22.435422    14.755572     19.84135    35.773567    66.297897    12.612127     22.30075    14.235163 
  195200    1.7291811    173980.47            0     173987.2    12.684053    22.435218    14.755469    19.807763    35.753208    66.287628    12.612127     22.30075    14.235163 
  195400    2.6341661    174150.86            0    174161.11    12.684043    22.435088    14.755367    19.806816    35.740235    66.277338    12.612127     22.30075    14.235163 
  195600    2.3605637     174318.8            0    174327.99    12.682765     22.43492    14.755394    19.678941    35.723367    66.280073    12.612127     22.30075    14.235163 
  195800    1.8799762    174488.32            0    174495.64    12.681735    22.434645    14.755414    19.575844    35.695883    66.282043    12.612127     22.30075    14.235163 
  196000    2.6429416    174656.96            0    174667.25    12.681046    22.433748    14.755271    19.506911     35.60618    66.267775    12.612127     22.30075    14.235163 
  196200    1.5315081    174826.35            0    174832.31    12.680407    22.433046     14.75517    19.443009    35.535891    66.257684    12.612127     22.30075    14.235163 
  196400    2.9734155    174998.71            0    175010.29    12.680801    22.432441    14.755142    19.482416    35.475425    66.254873    12.612127     22.30075    14.235163 
  196600    2.1504133    175164.87            0    175173.24     12.68164    22.431959    14.754812    19.566418    35.427135    66.221905    12.612127     22.30075    14.235163 
  196800    2.3984364    175333.55            0    175342.89    12.682054     22.43195    14.754283    19.607793    35.426269    66.168888    12.612127     22.30075    14.235163 
  197000    2.4480936    175503.11            0    175512.64    12.682635    22.432236    14.753508    19.665876    35.454926    66.091413    12.612127     22.30075    14.235163 
  197200    2.5007035    175671.81            0    175681.54     12.68301    22.432972    14.753194    19.703453    35.528532    66.059949    12.612127     22.30075    14.235163 
  197400    2.1987204    175841.59            0    175850.15    12.683517    22.434194    14.753058    19.754121    35.650718    66.046381    12.612127     22.30075    14.235163 
  197600    2.2699245    176010.72            0    176019.55     12.68453    22.434941    14.753187    19.855547    35.725443    66.059255    12.612127     22.30075    14.235163 
  197800    2.3263497    176180.43            0    176189.48    12.687097    22.435889    14.753666    20.112344      35.8203    66.107164    12.612127     22.30075    14.235163 
  198000    2.2417207    176350.04            0    176358.76    12.688934    22.436287    14.754221    20.296074    35.860132    66.162736    12.612127     22.30075    14.235163 
  198200    3.0811871    176518.98            0    176530.97     12.68874    22.436669    14.755168     20.27665    35.898371    66.257438    12.612127     22.30075    14.235163 
  198400    2.2805118    176686.68            0    176695.55    12.687476    22.436442    14.756119    20.150219    35.875665    66.352626    12.612127     22.30075    14.235163 
  198600    2.6794092    176855.95            0    176866.38    12.686057     22.43609    14.757276    20.008267    35.840454    66.468378    12.612127     22.30075    14.235163 
  198800    1.4849479    177025.82            0     177031.6    12.684942    22.435983    14.758503    19.896747    35.829729    66.591143    12.612127     22.30075    14.235163 
  199000    3.3661525    177194.63            0    177207.73    12.682862    22.436426    14.760086    19.688631    35.874006    66.749487    12.612127     22.30075    14.235163 
  199200    2.0080039    177366.16            0    177373.98    12.681536    22.436901    14.761853    19.556007      35.9216    66.926257    12.612127     22.30075    14.235163 
  199400    2.6923334       177533            0    177543.49    12.681191    22.437682    14.763224    19.521491    35.999756    67.063429    12.612127     22.30075    14.235163 
  199600    2.0401606    177701.42            0    177709.37     12.68045    22.438383    14.764147    19.447373    36.069838    67.155744    12.612127     22.30075    14.235163 
  199800    3.6020149    177871.36            0    177885.38    12.679643    22.439113    14.765078    19.366605    36.142862    67.248911    12.612127     22.30075    14.235163 
  200000    1.8863588    178039.73            0    178047.07    12.678813    22.439909    14.766066    19.283603    36.222546    67.347738    12.612127     22.30075    14.235163 
Loop time of 274.579 on 1 procs for 200000 steps with 1307 atoms

Performance: 31.466 ns/day, 0.763 hours/ns, 728.387 timesteps/s
100.0% CPU use with 1 MPI tasks x no OpenMP threads

MPI task timing breakdown:
Section |  min time  |  avg time  |  max time  |%varavg| %total
---------------------------------------------------------------
Pair    | 267.53     | 267.53     | 267.53     |   0.0 | 97.43
Bond    | 0.013108   | 0.013108   | 0.013108   |   0.0 |  0.00
Neigh   | 3.6984     | 3.6984     | 3.6984     |   0.0 |  1.35
Comm    | 1.115      | 1.115      | 1.115      |   0.0 |  0.41
Output  | 0.047527   | 0.047527   | 0.047527   |   0.0 |  0.02
Modify  | 1.4219     | 1.4219     | 1.4219     |   0.0 |  0.52
Other   |            | 0.7555     |            |       |  0.28

Nlocal:    1307 ave 1307 max 1307 min
Histogram: 1 0 0 0 0 0 0 0 0 0
Nghost:    2731 ave 2731 max 2731 min
Histogram: 1 0 0 0 0 0 0 0 0 0
Neighs:    53049 ave 53049 max 53049 min
Histogram: 1 0 0 0 0 0 0 0 0 0

Total # of neighbors = 53049
Ave neighs/atom = 40.5884
Ave special neighs/atom = 0
Neighbor list builds = 1281
Dangerous builds = 0
unfix              2
write_data         data_overlap.data

# reset force field parameters
# Set 1-2, 1-3, and 1-4 pairwise interactions to zero; not needed if no bonded terms
#special_bonds      lj/coul 0.0 0.0 0.0
kspace_style       pppm/disp 1.0e-6
neigh_modify       delay 0 every 1 check yes
include "MgMOF74-Pressure50000.in.settings"
# UFF parameters for all atoms not defined by force field
pair_style         hybrid lj/long/coul/long cut long 12.8 buck/long/coul/long cut long 12.8
pair_modify        mix arithmetic shift yes
pair_coeff         7 7 lj/long/coul/long 0.111 2.691
pair_coeff         2 2 lj/long/coul/long 0.105 3.431
pair_coeff         3 3 lj/long/coul/long 0.105 3.431
pair_coeff         4 4 lj/long/coul/long 0.105 3.431
pair_coeff         5 5 lj/long/coul/long 0.105 3.431
pair_coeff         6 6 lj/long/coul/long 0.044 2.571
pair_coeff         8 8 lj/long/coul/long 0.060 3.118
pair_coeff         9 9 lj/long/coul/long 0.060 3.118
pair_coeff         10 10 lj/long/coul/long 0.060 3.118
pair_coeff         1 1 lj/long/coul/long 0.294 3.730
# Lennard-Jones parameters from force field
pair_coeff         1 6 lj/long/coul/long 0.114 3.15
# Buckingham parameters from force field
pair_coeff         1 7 buck/long/coul/long 503735.46 4.915 869.75957
pair_coeff         1 8 buck/long/coul/long 36618.413 2.965 943.43844
pair_coeff         1 9 buck/long/coul/long 40336.705 3.265 943.43844
pair_coeff         1 10 buck/long/coul/long 20010.424 2.790 943.43844
pair_coeff         1 2 buck/long/coul/long 151480.54 3.995 1627.7890
pair_coeff         1 3 buck/long/coul/long 70571.228 3.280 1627.7890
pair_coeff         1 4 buck/long/coul/long 460219.42 4.370 1627.7890
pair_coeff         1 5 buck/long/coul/long 5085.8640 2.315 1627.7890

# melt crystalline guest molecules
unfix              1
run                0
WARNING: No fixes defined, atoms won't move (../verlet.cpp:55)
PPPMDisp initialization ...
  Coulomb G vector (1/distance) = 0.264777
  Coulomb grid = 30 50 30
  Coulomb stencil order = 5
  Coulomb estimated absolute RMS force accuracy = 0.000346238
  Coulomb estimated relative force accuracy = 1.04269e-06
  using double precision FFTs
  3d grid and FFT values/proc = 78033 45000
Neighbor list info ...
  3 neighbor list requests
  update every 1 steps, delay 0 steps, check yes
  max neighbors/atom: 2000, page size: 100000
  master list distance cutoff = 14.8
  ghost atom cutoff = 14.8
  binsize = 7.4 -> bins = 4 7 4
Memory usage per processor = 12.3728 Mbytes
Step Temp E_pair E_mol TotEng comT[1] comT[2] comT[3] comG[1] comG[2] comG[3] comM[1] comM[2] comM[3] 
  200000    1.8863588     60225410            0     60225417    12.678813    22.439909    14.766066    19.283603    36.222546    67.347738    12.612127     22.30075    14.235163 
Loop time of 0 on 1 procs for 0 steps with 1307 atoms

0.0% CPU use with 1 MPI tasks x no OpenMP threads

MPI task timing breakdown:
Section |  min time  |  avg time  |  max time  |%varavg| %total
---------------------------------------------------------------
Pair    | 0          | 0          | 0          |   0.0 |  0.00
Bond    | 0          | 0          | 0          |   0.0 |  0.00
Kspace  | 0          | 0          | 0          |   0.0 |  0.00
Neigh   | 0          | 0          | 0          |   0.0 |  0.00
Comm    | 0          | 0          | 0          |   0.0 |  0.00
Output  | 0          | 0          | 0          |   0.0 |  0.00
Modify  | 0          | 0          | 0          |   0.0 |  0.00
Other   |            | 0          |            |       |  0.00

Nlocal:    1307 ave 1307 max 1307 min
Histogram: 1 0 0 0 0 0 0 0 0 0
Nghost:    7919 ave 7919 max 7919 min
Histogram: 1 0 0 0 0 0 0 0 0 0
Neighs:    491061 ave 491061 max 491061 min
Histogram: 1 0 0 0 0 0 0 0 0 0

Total # of neighbors = 491061
Ave neighs/atom = 375.716
Ave special neighs/atom = 0
Neighbor list builds = 0
Dangerous builds = 0
velocity           GUEST create 1000 1738
fix                3 GUEST nvt temp 1000 1000 50.0
run                400000
PPPMDisp initialization ...
  Coulomb G vector (1/distance) = 0.264777
  Coulomb grid = 30 50 30
  Coulomb stencil order = 5
  Coulomb estimated absolute RMS force accuracy = 0.000346238
  Coulomb estimated relative force accuracy = 1.04269e-06
  using double precision FFTs
  3d grid and FFT values/proc = 78033 45000
Memory usage per processor = 12.3728 Mbytes
Step Temp E_pair E_mol TotEng comT[1] comT[2] comT[3] comG[1] comG[2] comG[3] comM[1] comM[2] comM[3] 
  200000    7.6569678     60225410            0     60225439    12.678813    22.439909    14.766066    19.283603    36.222546    67.347738    12.612127     22.30075    14.235163 
  200200    377.84603     59211768            0     59213239    12.683383    22.437726     14.76624    19.740756    36.004062    67.365105    12.612127     22.30075    14.235163 
  200400    393.87871     59211935            0     59213468    12.683213    22.437747    14.766139    19.723704     36.00623    67.354998    12.612127     22.30075    14.235163 
  200600    575.23472     59214245            0     59216484    12.683292     22.43772    14.766758    19.731694    36.003551    67.416993    12.612127     22.30075    14.235163 
  200800    406.48492     59212678            0     59214261    12.683316    22.437742    14.766126    19.734002    36.005744     67.35374    12.612127     22.30075    14.235163 
  201000    475.09952     59213283            0     59215132    12.683344    22.437639    14.766566    19.736876    35.995362    67.397778    12.612127     22.30075    14.235163 
  201200    256.82464     59212470            0     59213470     12.68338    22.437843    14.766613    19.740472    36.015768    67.402502    12.612127     22.30075    14.235163 
  201400    353.85189     59212558            0     59213936    12.683314    22.437806    14.766137    19.733891    36.012069    67.354797    12.612127     22.30075    14.235163 
  201600    324.78334     59210737            0     59212001    12.683261    22.437761    14.766172     19.72855    36.007593    67.358292    12.612127     22.30075    14.235163 
  201800    440.45936     59212996            0     59214711     12.68334    22.437795    14.766998    19.736492    36.011035    67.440967    12.612127     22.30075    14.235163 
  202000     475.2369     59213999            0     59215849    12.683289     22.43779    14.766348    19.731379     36.01053    67.375993    12.612127     22.30075    14.235163 
  202200    255.28014     59211072            0     59212065    12.683365     22.43772    14.766155    19.738916    36.003459    67.356643    12.612127     22.30075    14.235163 
  202400    306.47652     59214103            0     59215296    12.683385    22.437822    14.766908    19.740999    36.013718    67.431935    12.612127     22.30075    14.235163 
  202600    606.36655     59214208            0     59216569     12.68331    22.437853    14.765975    19.733497    36.016835    67.338675    12.612127     22.30075    14.235163 
  202800    436.47491     59213638            0     59215337    12.683312    22.437577    14.766198    19.733628    35.989232    67.360981    12.612127     22.30075    14.235163 
  203000    506.80349     59211473            0     59213446    12.683326    22.437769    14.766427    19.735044    36.008457      67.3838    12.612127     22.30075    14.235163 
  203200    417.55021     59212577            0     59214202    12.683373     22.43769    14.766034    19.739702    36.000542    67.344533    12.612127     22.30075    14.235163 
  203400    295.94898     59211097            0     59212249    12.683372    22.437753     14.76613    19.739698     36.00682    67.354172    12.612127     22.30075    14.235163 
  203600    453.65364     59212332            0     59214098    12.683363    22.437809    14.766465    19.738726    36.012452    67.387679    12.612127     22.30075    14.235163 
  203800    319.13383     59212509            0     59213752    12.683203     22.43779    14.766211    19.722748    36.010465    67.362189    12.612127     22.30075    14.235163 
  204000    318.05817     59210714            0     59211952    12.683422    22.437773    14.766211    19.744692     36.00878    67.362244    12.612127     22.30075    14.235163 
  204200    464.34033     59211791            0     59213599     12.68334    22.437727    14.766155    19.736448    36.004204    67.356681    12.612127     22.30075    14.235163 
  204400    228.66062     59211899            0     59212789    12.683332    22.437754    14.765909    19.735651    36.006946    67.331986    12.612127     22.30075    14.235163 
  204600    202.21517     59213994            0     59214781    12.683311    22.437731    14.767452    19.733549    36.004586    67.486402    12.612127     22.30075    14.235163 
  204800    366.29604     59214378            0     59215804    12.683303    22.437732    14.765832    19.732733    36.004685    67.324309    12.612127     22.30075    14.235163 
  205000    428.60584     59213238            0     59214906    12.683347     22.43772    14.766203    19.737179    36.003483    67.361435    12.612127     22.30075    14.235163 
  205200    314.54803     59213294            0     59214519    12.683293     22.43773    14.765743    19.731699     36.00453    67.315388    12.612127     22.30075    14.235163 
  205400    264.68883     59214213            0     59215244    12.683295     22.43781    14.765947    19.731966    36.012525    67.335823    12.612127     22.30075    14.235163 
  205600    223.34294     59212092            0     59212962    12.683304    22.437803    14.766614    19.732885    36.011818    67.402584    12.612127     22.30075    14.235163 
  205800    356.81271     59213612            0     59215001    12.683336    22.437796    14.766804    19.736033    36.011151    67.421518    12.612127     22.30075    14.235163 
  206000    270.22959     59210816            0     59211868     12.68322    22.437668    14.766104    19.724402    35.998327    67.351583    12.612127     22.30075    14.235163 
  206200    379.93897     59212841            0     59214320    12.683385    22.437736    14.765677    19.740965    36.005066    67.308768    12.612127     22.30075    14.235163 
  206400    259.05619     59214984            0     59215992    12.683368    22.437738    14.766258    19.739267    36.005349    67.366909    12.612127     22.30075    14.235163 
  206600    219.63638     59211298            0     59212153     12.68331    22.437791    14.766106    19.733464    36.010604    67.351704    12.612127     22.30075    14.235163 
  206800    388.12091     59212773            0     59214283    12.683433    22.437869     14.76694    19.745754    36.018372    67.435164    12.612127     22.30075    14.235163 
  207000    482.51139     59212042            0     59213920    12.683308    22.437687    14.766536    19.733202    36.000171    67.394777    12.612127     22.30075    14.235163 
  207200    248.99297     59210906            0     59211876    12.683342    22.437792    14.766001    19.736697    36.010748    67.341271    12.612127     22.30075    14.235163 
  207400    369.11407     59211596            0     59213033    12.683287    22.437798    14.766194    19.731187    36.011289    67.360573    12.612127     22.30075    14.235163 
  207600    343.37889     59211141            0     59212477    12.683291    22.437828    14.766243    19.731523    36.014321     67.36542    12.612127     22.30075    14.235163 
  207800    301.67944     59212354            0     59213528    12.683337    22.437718    14.766168    19.736194     36.00332    67.357968    12.612127     22.30075    14.235163 
  208000    272.99638     59213890            0     59214953     12.68328    22.437558    14.766003    19.730495    35.987338    67.341476    12.612127     22.30075    14.235163 
  208200    357.06788     59213773            0     59215163     12.68336    22.437797    14.766435    19.738467    36.011175    67.384691    12.612127     22.30075    14.235163 
  208400    305.50074     59213165            0     59214355    12.683335     22.43769    14.765835    19.735902    36.000532    67.324631    12.612127     22.30075    14.235163 
  208600    275.58187     59212156            0     59213228    12.683392    22.437721    14.766191    19.741605    36.003619     67.36027    12.612127     22.30075    14.235163 
  208800      293.344     59211752            0     59212894    12.683369    22.437889    14.766071    19.739384    36.020368    67.348205    12.612127     22.30075    14.235163 
  209000    229.02264     59212316            0     59213208     12.68334     22.43776    14.766422    19.736496    36.007528    67.383318    12.612127     22.30075    14.235163 
  209200    285.99204     59214793            0     59215906    12.683292    22.437801    14.766279     19.73167    36.011609    67.369049    12.612127     22.30075    14.235163 
  209400    311.91271     59213063            0     59214277    12.683298    22.437744    14.766192    19.732233    36.005923    67.360354    12.612127     22.30075    14.235163 
  209600    313.80127     59213349            0     59214571      12.6832    22.437791    14.766112    19.722463    36.010595    67.352307    12.612127     22.30075    14.235163 
  209800    398.92939     59213430            0     59214983    12.683296    22.437759    14.766086    19.732052    36.007372    67.349768    12.612127     22.30075    14.235163 
  210000    348.76547     59213726            0     59215084    12.683288    22.437748    14.767184    19.731279    36.006322    67.459546    12.612127     22.30075    14.235163 
  210200    437.52367     59212042            0     59213745    12.683239    22.437846    14.766363    19.726331    36.016129    67.377418    12.612127     22.30075    14.235163 
  210400    207.83816     59212778            0     59213587    12.683267    22.437688    14.766528    19.729149    36.000283    67.393932    12.612127     22.30075    14.235163 
  210600     208.8744     59213631            0     59214444    12.683293    22.437741     14.76649    19.731732    36.005564    67.390174    12.612127     22.30075    14.235163 
  210800    303.58476     59214762            0     59215944    12.683336    22.437765    14.766648    19.736008    36.008045     67.40592    12.612127     22.30075    14.235163 
  211000    439.22996     59212914            0     59214624    12.683319    22.437821     14.76637    19.734387    36.013631    67.378135    12.612127     22.30075    14.235163 
  211200     345.9924     59213189            0     59214536    12.683283    22.437803    14.766177    19.730738    36.011856    67.358795    12.612127     22.30075    14.235163 
  211400    448.45302     59211609            0     59213355    12.683314    22.437805    14.766414    19.733822    36.011973    67.382503    12.612127     22.30075    14.235163 
  211600    239.50913     59213099            0     59214032    12.683339    22.437641    14.766108    19.736321    35.995563    67.351929    12.612127     22.30075    14.235163 
  211800    391.19397     59211512            0     59213035    12.683355    22.437864    14.766295    19.737928    36.017894    67.370663    12.612127     22.30075    14.235163 
  212000    249.95758     59215464            0     59216437    12.683314    22.437821    14.766534    19.733878    36.013573    67.394513    12.612127     22.30075    14.235163 
  212200    210.81296     59211576            0     59212397    12.683325    22.437756    14.766167    19.734908    36.007136    67.357836    12.612127     22.30075    14.235163 
  212400    249.91514     59211337            0     59212310    12.683166     22.43787    14.766568    19.719002    36.018562    67.397948    12.612127     22.30075    14.235163 
  212600    384.56149     59213649            0     59215146    12.683369    22.437741    14.765952    19.739338    36.005609    67.336323    12.612127     22.30075    14.235163 
  212800     273.5336     59211156            0     59212221    12.683334    22.437821    14.766419     19.73587    36.013633    67.383054    12.612127     22.30075    14.235163 
  213000    525.38009     59211846            0     59213891    12.683324    22.437746    14.766245    19.734828    36.006107    67.365591    12.612127     22.30075    14.235163 
  213200    400.62191     59214077            0     59215637    12.683283    22.437723    14.765813    19.730732    36.003832    67.322427    12.612127     22.30075    14.235163 
  213400    337.92148     59211863            0     59213178    12.683331    22.437763    14.766043    19.735586    36.007768     67.34542    12.612127     22.30075    14.235163 
  213600    425.32885     59212920            0     59214576    12.683277    22.437741    14.765921    19.730192    36.005591    67.333192    12.612127     22.30075    14.235163 
  213800    158.83602     59213978            0     59214596    12.683333    22.437689    14.766076    19.735794    36.000399    67.348754    12.612127     22.30075    14.235163 
  214000    236.56075     59213449            0     59214370    12.683299    22.437789    14.766207    19.732313    36.010414    67.361842    12.612127     22.30075    14.235163 
  214200    252.34617     59214466            0     59215448    12.683398    22.437707    14.766447    19.742289    36.002229    67.385877    12.612127     22.30075    14.235163 
  214400    243.25372     59212923            0     59213870     12.68337    22.437763    14.766134    19.739412    36.007761    67.354551    12.612127     22.30075    14.235163 
  214600    406.25159     59212766            0     59214348    12.683277    22.437703     14.76591    19.730139    36.001858    67.332137    12.612127     22.30075    14.235163 
  214800    292.36299     59213801            0     59214939    12.683281    22.437706    14.766527    19.730541    36.002058    67.393823    12.612127     22.30075    14.235163 
  215000    247.40077     59214267            0     59215230    12.683389    22.437752    14.766631    19.741379     36.00667    67.404274    12.612127     22.30075    14.235163 
  215200    454.46891     59212210            0     59213979    12.683354    22.437741    14.765962    19.737823    36.005643    67.337322    12.612127     22.30075    14.235163 
  215400    282.26619     59213820            0     59214919    12.683364    22.437829    14.766724    19.738861    36.014459    67.413564    12.612127     22.30075    14.235163 
  215600    281.54387     59214381            0     59215477    12.683374    22.437757    14.766317    19.739809    36.007233    67.372862    12.612127     22.30075    14.235163 
  215800    177.93023     59214042            0     59214734    12.683305    22.437807    14.766333    19.732939     36.01224    67.374474    12.612127     22.30075    14.235163 
  216000    545.98329     59213585            0     59215711    12.683342    22.437768    14.766439    19.736678     36.00835    67.385017    12.612127     22.30075    14.235163 
  216200    284.48146     59212465            0     59213573    12.683379    22.437704    14.766528    19.740381    36.001943     67.39396    12.612127     22.30075    14.235163 
  216400     367.5178     59214548            0     59215979    12.683321     22.43777    14.766594    19.734575    36.008514    67.400511    12.612127     22.30075    14.235163 
  216600    281.05253     59212010            0     59213104    12.683373    22.437789    14.766366    19.739753    36.010411    67.377717    12.612127     22.30075    14.235163 
  216800    329.50459     59211982            0     59213265    12.683286      22.4378    14.766497    19.731069    36.011532    67.390875    12.612127     22.30075    14.235163 
  217000    432.93886     59214052            0     59215737    12.683292    22.437744     14.76694    19.731598    36.005944    67.435138    12.612127     22.30075    14.235163 
  217200     237.2313     59212932            0     59213855    12.683348    22.437712    14.766515    19.737294    36.002681    67.392608    12.612127     22.30075    14.235163 
  217400    358.48533     59211575            0     59212970    12.683271    22.437706    14.766121    19.729586    36.002143    67.353282    12.612127     22.30075    14.235163 
  217600    513.36808     59211721            0     59213720    12.683275    22.437761    14.766498    19.729976    36.007631    67.390996    12.612127     22.30075    14.235163 
  217800     270.5933     59212450            0     59213503    12.683388    22.437792    14.766811    19.741296    36.010724    67.422299    12.612127     22.30075    14.235163 
  218000    285.27236     59214284            0     59215395    12.683323    22.437703    14.765854    19.734769    36.001819    67.326495    12.612127     22.30075    14.235163 
  218200    270.88321     59213897            0     59214952    12.683255    22.437794    14.765837    19.727979    36.010869     67.32484    12.612127     22.30075    14.235163 
  218400    195.35857     59214187            0     59214948    12.683352    22.437709    14.766766    19.737609    36.002389    67.417719    12.612127     22.30075    14.235163 
  218600    367.54573     59214387            0     59215818    12.683335    22.437757    14.766706    19.735989    36.007216    67.411753    12.612127     22.30075    14.235163 
  218800    239.09942     59213580            0     59214510    12.683282    22.437786    14.766056    19.730675    36.010153    67.346769    12.612127     22.30075    14.235163 
  219000      267.735     59214084            0     59215126     12.68332    22.437779    14.766431    19.734453    36.009458    67.384217    12.612127     22.30075    14.235163 
  219200    299.48714     59213685            0     59214850    12.683284    22.437784    14.766164    19.730842    36.009885    67.357546    12.612127     22.30075    14.235163 
  219400    208.19996     59212183            0     59212993    12.683316    22.437807    14.765984    19.734022    36.012187    67.339571    12.612127     22.30075    14.235163 
  219600    173.22949     59213067            0     59213741    12.683285    22.437744    14.766456     19.73094     36.00588    67.386741    12.612127     22.30075    14.235163 
  219800     352.3588     59212475            0     59213846    12.683345    22.437673    14.766702    19.736905    35.998818    67.411314    12.612127     22.30075    14.235163 
  220000    361.71119     59213422            0     59214831    12.683303    22.437691    14.765873    19.732752     36.00061     67.32839    12.612127     22.30075    14.235163 
  220200    243.04022     59213666            0     59214612    12.683313    22.437829    14.766911    19.733703    36.014436    67.432221    12.612127     22.30075    14.235163 
  220400     300.0574     59212106            0     59213274    12.683326    22.437733    14.766455    19.735073    36.004836    67.386605    12.612127     22.30075    14.235163 
  220600    467.66803     59212337            0     59214158    12.683293    22.437769    14.766341    19.731751    36.008364    67.375205    12.612127     22.30075    14.235163 
  220800    244.31755     59213833            0     59214785    12.683226    22.437778    14.766185    19.725084    36.009348    67.359635    12.612127     22.30075    14.235163 
  221000    195.48663     59214181            0     59214942    12.683323    22.437858    14.765381    19.734772    36.017341    67.279224    12.612127     22.30075    14.235163 
  221200    403.86561     59211611            0     59213183    12.683239    22.437758    14.765859    19.726305    36.007331    67.327015    12.612127     22.30075    14.235163 
  221400    128.11188     59212660            0     59213159    12.683324    22.437771    14.765988    19.734849    36.008562    67.339968    12.612127     22.30075    14.235163 
  221600    517.34667     59212834            0     59214848    12.683365     22.43771    14.766917    19.738953    36.002462    67.432828    12.612127     22.30075    14.235163 
  221800    203.17678     59214641            0     59215432    12.683309    22.437834    14.766509    19.733306    36.014961    67.392086    12.612127     22.30075    14.235163 
  222000    389.85812     59213173            0     59214690     12.68342    22.437835    14.766203    19.744479    36.014985    67.361452    12.612127     22.30075    14.235163 
  222200    397.10106     59213015            0     59214560    12.683284    22.437748     14.76647     19.73087    36.006335    67.388186    12.612127     22.30075    14.235163 
  222400    332.42404     59212154            0     59213448    12.683291     22.43779    14.766179    19.731556    36.010537    67.359038    12.612127     22.30075    14.235163 
  222600    277.89146     59213854            0     59214936    12.683284    22.437793    14.766489    19.730834    36.010806    67.390062    12.612127     22.30075    14.235163 
  222800    292.19369     59213556            0     59214693     12.68326    22.437751    14.766793    19.728457    36.006598    67.420446    12.612127     22.30075    14.235163 
  223000    297.15222     59212782            0     59213939    12.683251    22.437741    14.766234    19.727582    36.005604    67.364585    12.612127     22.30075    14.235163 
  223200     367.5527     59213634            0     59215064      12.6833    22.437723    14.765979    19.732448      36.0038    67.339031    12.612127     22.30075    14.235163 
  223400     163.7386     59211064            0     59211701    12.683342    22.437804    14.766024    19.736661    36.011889    67.343551    12.612127     22.30075    14.235163 
  223600    309.37393     59213365            0     59214569    12.683286    22.437727    14.766798    19.731091    36.004235    67.420958    12.612127     22.30075    14.235163 
  223800    123.56839     59213433            0     59213914    12.683267    22.437767    14.765864    19.729176    36.008187    67.327482    12.612127     22.30075    14.235163 
  224000    281.67388     59213985            0     59215082    12.683405    22.437755    14.766323    19.742992    36.006979    67.373482    12.612127     22.30075    14.235163 
  224200    200.21921     59213075            0     59213855    12.683311    22.437791    14.766113    19.733545    36.010604    67.352415    12.612127     22.30075    14.235163 
  224400    305.70022     59212889            0     59214079    12.683323     22.43776    14.766012    19.734701    36.007475    67.342331    12.612127     22.30075    14.235163 
  224600     428.0654     59213039            0     59214705    12.683258    22.437778    14.766102    19.728224    36.009311    67.351366    12.612127     22.30075    14.235163 
  224800    153.30982     59215188            0     59215784     12.68336     22.43771    14.766468    19.738442    36.002503    67.387995    12.612127     22.30075    14.235163 
  225000    299.95297     59213041            0     59214209    12.683326    22.437731    14.766182    19.735044    36.004622    67.359333    12.612127     22.30075    14.235163 
  225200    348.70885     59210382            0     59211740    12.683311    22.437781     14.76625    19.733578    36.009653    67.366145    12.612127     22.30075    14.235163 
  225400    195.65725     59212181            0     59212943    12.683347    22.437661    14.765731    19.737172    35.997613    67.314188    12.612127     22.30075    14.235163 
  225600    222.09263     59213017            0     59213881    12.683327    22.437813    14.766383    19.735135    36.012773      67.3794    12.612127     22.30075    14.235163 
  225800    371.50672     59214876            0     59216322    12.683304    22.437806    14.765509     19.73281    36.012125     67.29202    12.612127     22.30075    14.235163 
  226000      259.363     59211527            0     59212537    12.683338    22.437833    14.766067    19.736288    36.014822    67.347877    12.612127     22.30075    14.235163 
  226200    356.30619     59212034            0     59213422    12.683337    22.437803    14.766528    19.736138    36.011791    67.393976    12.612127     22.30075    14.235163 
  226400    318.35791     59212796            0     59214035    12.683279    22.437684    14.766109     19.73038     35.99987     67.35207    12.612127     22.30075    14.235163 
  226600    393.02319     59214373            0     59215903    12.683337    22.437739    14.767066    19.736106    36.005383    67.447781    12.612127     22.30075    14.235163 
  226800    320.05045     59213079            0     59214325    12.683354    22.437827    14.766366    19.737833    36.014179    67.377746    12.612127     22.30075    14.235163 
  227000    176.09499     59211112            0     59211798    12.683272    22.437656    14.765734    19.729663    35.997128    67.314522    12.612127     22.30075    14.235163 
  227200    351.09234     59213897            0     59215264    12.683321    22.437735    14.766887    19.734543    36.005017    67.429913    12.612127     22.30075    14.235163 
  227400    237.75795     59213444            0     59214369    12.683336    22.437695    14.765906    19.736014    36.001007    67.331709    12.612127     22.30075    14.235163 
  227600    393.76893     59210882            0     59212414    12.683375    22.437778    14.766108    19.739949    36.009351    67.351942    12.612127     22.30075    14.235163 
  227800    166.27365     59214656            0     59215303    12.683372    22.437751    14.766907    19.739661    36.006564    67.431835    12.612127     22.30075    14.235163 
  228000    287.90035     59212355            0     59213476     12.68324    22.437777    14.766607    19.726479    36.009187    67.401809    12.612127     22.30075    14.235163 
  228200    249.72664     59214383            0     59215355    12.683272    22.437686    14.766738    19.729656    36.000138    67.414924    12.612127     22.30075    14.235163 
  228400    245.83327     59212936            0     59213893     12.68336    22.437755    14.766273    19.738462    36.006998    67.368436    12.612127     22.30075    14.235163 
  228600    186.43177     59214221            0     59214947    12.683258    22.437783    14.766546    19.728265    36.009846    67.395717    12.612127     22.30075    14.235163 
  228800    447.74177     59211921            0     59213664    12.683327    22.437708    14.766385    19.735106    36.002296    67.379635    12.612127     22.30075    14.235163 
  229000    372.08247     59211567            0     59213015    12.683286    22.437777    14.766202    19.731032     36.00918     67.36131    12.612127     22.30075    14.235163 
  229200    176.95569     59213639            0     59214328    12.683266    22.437732    14.767028    19.729046    36.004667    67.444004    12.612127     22.30075    14.235163 
  229400    78.813584     59214547            0     59214854    12.683277    22.437789    14.767042    19.730122    36.010405    67.445355    12.612127     22.30075    14.235163 
  229600    222.26481     59213314            0     59214179    12.683294    22.437726    14.766825    19.731876    36.004144    67.423626    12.612127     22.30075    14.235163 
  229800    191.12735     59214099            0     59214843    12.683353    22.437775    14.766185    19.737773    36.008964    67.359672    12.612127     22.30075    14.235163 
  230000    313.46231     59213109            0     59214329    12.683291    22.437798    14.766468    19.731537    36.011267    67.387901    12.612127     22.30075    14.235163 
  230200    268.74059     59213686            0     59214733    12.683373    22.437736    14.766926    19.739735      36.0051    67.433771    12.612127     22.30075    14.235163 
  230400    199.35962     59213155            0     59213931    12.683303    22.437774    14.765537    19.732709    36.008914    67.294855    12.612127     22.30075    14.235163 
  230600    261.92571     59212691            0     59213711     12.68323    22.437786    14.766196    19.725468    36.010143    67.360777    12.612127     22.30075    14.235163 
  230800    199.48427     59214609            0     59215385    12.683325    22.437763    14.767482    19.734958    36.007786    67.489343    12.612127     22.30075    14.235163 
  231000    287.10783     59213689            0     59214807    12.683315    22.437774    14.766886    19.733975    36.008871    67.429746    12.612127     22.30075    14.235163 
  231200    324.29246     59210465            0     59211728    12.683343    22.437706    14.766311    19.736701    36.002106    67.372229    12.612127     22.30075    14.235163 
  231400     249.0063     59213242            0     59214211    12.683282    22.437672    14.765564    19.730686    35.998738    67.297535    12.612127     22.30075    14.235163 
  231600    255.20143     59214100            0     59215094    12.683282    22.437782    14.766562    19.730631    36.009685    67.397314    12.612127     22.30075    14.235163 
  231800     342.5801     59212932            0     59214265     12.68339    22.437738    14.766152    19.741494    36.005273    67.356296    12.612127     22.30075    14.235163 
  232000      256.597     59213747            0     59214746    12.683291    22.437797    14.766112    19.731593    36.011246    67.352339    12.612127     22.30075    14.235163 
  232200    577.23549     59214870            0     59217117    12.683295    22.437734    14.766588    19.731958     36.00487     67.39993    12.612127     22.30075    14.235163 
  232400    429.36446     59211776            0     59213448    12.683376     22.43777    14.766605    19.740091    36.008499    67.401673    12.612127     22.30075    14.235163 
  232600    145.32131     59212373            0     59212939    12.683287    22.437737    14.766607    19.731106     36.00525    67.401895    12.612127     22.30075    14.235163 
  232800     180.8362     59212717            0     59213421    12.683227    22.437725    14.765847    19.725188    36.003988    67.325818    12.612127     22.30075    14.235163 
  233000    317.94728     59213609            0     59214846    12.683295    22.437815    14.766544    19.731985    36.013038    67.395543    12.612127     22.30075    14.235163 
  233200    360.31164     59215117            0     59216520    12.683356    22.437762    14.765817    19.738001    36.007689    67.322824    12.612127     22.30075    14.235163 
  233400     246.7799     59212115            0     59213076    12.683327    22.437765    14.766618    19.735188    36.008012    67.402978    12.612127     22.30075    14.235163 
  233600    287.50335     59213727            0     59214847    12.683334     22.43779    14.766191    19.735878    36.010554    67.360266    12.612127     22.30075    14.235163 
  233800    228.94871     59214049            0     59214940    12.683333    22.437722    14.766214     19.73572    36.003741    67.362526    12.612127     22.30075    14.235163 
  234000    219.92246     59216209            0     59217066    12.683386    22.437766    14.767278    19.741018    36.008079    67.468943    12.612127     22.30075    14.235163 
  234200    140.97259     59213002            0     59213550    12.683247    22.437685    14.766601    19.727148    36.000045    67.401273    12.612127     22.30075    14.235163 
  234400    237.82326     59213024            0     59213950    12.683304    22.437743     14.76586    19.732818    36.005776    67.327098    12.612127     22.30075    14.235163 
  234600    369.60908     59213087            0     59214525    12.683318    22.437769    14.766957     19.73423    36.008374    67.436912    12.612127     22.30075    14.235163 
  234800    109.29126     59214411            0     59214837    12.683361     22.43777    14.766947    19.738506    36.008541    67.435841    12.612127     22.30075    14.235163 
  235000    320.17478     59212168            0     59213414    12.683272    22.437777    14.766013     19.72965    36.009222    67.342475    12.612127     22.30075    14.235163 
  235200    250.54293     59211752            0     59212728    12.683316    22.437733    14.766048     19.73409     36.00476    67.345948    12.612127     22.30075    14.235163 
  235400     215.7674     59213343            0     59214183    12.683335    22.437737    14.765921    19.735951    36.005212    67.333272    12.612127     22.30075    14.235163 
  235600    278.91961     59211555            0     59212641    12.683361    22.437727    14.766057    19.738582    36.004246    67.346789    12.612127     22.30075    14.235163 
  235800    265.44202     59212285            0     59213319    12.683322    22.437756    14.766678     19.73467    36.007107    67.408936    12.612127     22.30075    14.235163 
  236000    493.70861     59213967            0     59215889    12.683392     22.43772      14.7655    19.741639    36.003514    67.291072    12.612127     22.30075    14.235163 
  236200     200.7884     59213297            0     59214078    12.683303    22.437768    14.766424    19.732767    36.008276    67.383575    12.612127     22.30075    14.235163 
  236400    234.79073     59215674            0     59216588    12.683185    22.437719    14.766365    19.720964    36.003392    67.377679    12.612127     22.30075    14.235163 
  236600    244.08982     59212982            0     59213932    12.683295    22.437747    14.767009    19.731952    36.006182     67.44206    12.612127     22.30075    14.235163 
  236800    215.57656     59212912            0     59213752    12.683301    22.437796    14.765321    19.732588    36.011103    67.273171    12.612127     22.30075    14.235163 
  237000    231.94757     59211960            0     59212863    12.683284    22.437699    14.766069    19.730873    36.001402     67.34802    12.612127     22.30075    14.235163 
  237200    268.62021     59214295            0     59215341    12.683293    22.437719     14.76669    19.731782    36.003368    67.410121    12.612127     22.30075    14.235163 
  237400    246.95918     59212451            0     59213413    12.683337    22.437704    14.766457    19.736113    36.001895    67.386876    12.612127     22.30075    14.235163 
  237600    241.89416     59212766            0     59213708    12.683345    22.437748    14.766639      19.7369    36.006269    67.405103    12.612127     22.30075    14.235163 
  237800    86.765466     59215250            0     59215588    12.683296    22.437723    14.766685    19.732083    36.003831     67.40963    12.612127     22.30075    14.235163 
  238000    228.71477     59212657            0     59213547    12.683342    22.437757    14.766241    19.736621    36.007201    67.365194    12.612127     22.30075    14.235163 
  238200    222.16716     59214511            0     59215376    12.683348    22.437759    14.767173    19.737279    36.007453    67.458451    12.612127     22.30075    14.235163 
  238400    219.03736     59213935            0     59214788    12.683359    22.437735    14.766654    19.738336    36.004981    67.406542    12.612127     22.30075    14.235163 
  238600    282.87589     59215755            0     59216856    12.683324      22.4378    14.767002    19.734871    36.011523     67.44135    12.612127     22.30075    14.235163 
  238800    243.18517     59212298            0     59213245    12.683359    22.437742    14.765503    19.738304    36.005743    67.291361    12.612127     22.30075    14.235163 
  239000    230.25971     59211955            0     59212852    12.683342    22.437771    14.766347     19.73661    36.008571    67.375873    12.612127     22.30075    14.235163 
  239200    353.03687     59213069            0     59214443    12.683343     22.43779    14.765908    19.736764     36.01047    67.331934    12.612127     22.30075    14.235163 
  239400    345.51875     59213391            0     59214736    12.683327    22.437794    14.766538    19.735104    36.010903    67.394983    12.612127     22.30075    14.235163 
  239600    346.35912     59212437            0     59213785    12.683266    22.437669     14.76693    19.729088     35.99838    67.434217    12.612127     22.30075    14.235163 
  239800    210.24822     59211795            0     59212614    12.683354    22.437849    14.766327    19.737866    36.016395     67.37388    12.612127     22.30075    14.235163 
  240000    204.37205     59212082            0     59212877     12.68333    22.437727    14.766884    19.735437    36.004177    67.429603    12.612127     22.30075    14.235163 
  240200    142.49203     59213697            0     59214251      12.6833    22.437852     14.76674     19.73242     36.01671    67.415176    12.612127     22.30075    14.235163 
  240400    266.19835     59213470            0     59214507    12.683383    22.437753    14.765996    19.740761    36.006848    67.340763    12.612127     22.30075    14.235163 
  240600    220.27656     59212815            0     59213672    12.683267    22.437777    14.766589    19.729139    36.009214    67.400086    12.612127     22.30075    14.235163 
  240800    226.28176     59212679            0     59213560    12.683295    22.437714     14.76681    19.731975    36.002874    67.422146    12.612127     22.30075    14.235163 
  241000    250.14432     59215565            0     59216539    12.683279    22.437765    14.766347    19.730313     36.00801    67.375811    12.612127     22.30075    14.235163 
  241200    278.24433     59213189            0     59214272    12.683276     22.43775    14.766584     19.73005    36.006529    67.399526    12.612127     22.30075    14.235163 
  241400    173.98835     59211371            0     59212048    12.683236    22.437721    14.766355    19.726071     36.00359    67.376686    12.612127     22.30075    14.235163 
  241600     228.2506     59212361            0     59213249     12.68331    22.437754    14.766421    19.733415    36.006927    67.383243    12.612127     22.30075    14.235163 
  241800    260.26148     59214766            0     59215779    12.683363    22.437725    14.766614     19.73874    36.003974    67.402585    12.612127     22.30075    14.235163 
  242000    227.46199     59213701            0     59214587    12.683343    22.437758     14.76647    19.736717    36.007281     67.38812    12.612127     22.30075    14.235163 
  242200    325.64998     59213129            0     59214397    12.683306     22.43775    14.766855    19.733002    36.006542    67.426628    12.612127     22.30075    14.235163 
  242400    267.37489     59215553            0     59216594    12.683316    22.437717    14.766391    19.734041    36.003218    67.380293    12.612127     22.30075    14.235163 
  242600    280.62787     59212638            0     59213730    12.683277    22.437763    14.766192    19.730153    36.007844    67.360317    12.612127     22.30075    14.235163 
  242800    157.96147     59214550            0     59215165    12.683308     22.43776    14.766301    19.733206    36.007465     67.37123    12.612127     22.30075    14.235163 
  243000    184.02455     59212768            0     59213484    12.683312    22.437767    14.765484     19.73363    36.008174    67.289515    12.612127     22.30075    14.235163 
  243200    304.88478     59213242            0     59214429    12.683322    22.437696    14.766499    19.734606    36.001104    67.391014    12.612127     22.30075    14.235163 
  243400    388.51661     59213186            0     59214698    12.683345     22.43774     14.76624    19.736974    36.005548    67.365112    12.612127     22.30075    14.235163 
  243600    282.17036     59211275            0     59212373    12.683339      22.4377    14.765918    19.736302    36.001497    67.332938    12.612127     22.30075    14.235163 
  243800    198.59279     59212439            0     59213212    12.683299    22.437718    14.766116    19.732395    36.003314    67.352783    12.612127     22.30075    14.235163 
  244000    314.58638     59213856            0     59215081    12.683274    22.437782    14.767121    19.729855    36.009739    67.453309    12.612127     22.30075    14.235163 
  244200    226.29681     59211468            0     59212349    12.683305    22.437762    14.766057    19.732976    36.007717    67.346795    12.612127     22.30075    14.235163 
  244400    400.79379     59211997            0     59213557    12.683297    22.437781    14.766371    19.732139    36.009619    67.378261    12.612127     22.30075    14.235163 
  244600    224.89388     59214656            0     59215532    12.683352    22.437768    14.766527    19.737602    36.008283    67.393811    12.612127     22.30075    14.235163 
  244800    204.11772     59214021            0     59214815    12.683282    22.437753     14.76617    19.730657    36.006843    67.358158    12.612127     22.30075    14.235163 
  245000    332.19478     59213595            0     59214889    12.683307    22.437799    14.766569     19.73319    36.011364    67.398026    12.612127     22.30075    14.235163 
  245200     368.1719     59215315            0     59216748    12.683292    22.437727    14.767028    19.731622    36.004174    67.444007    12.612127     22.30075    14.235163 
  245400    270.02191     59212369            0     59213421    12.683292    22.437736    14.765723    19.731663    36.005099    67.313369    12.612127     22.30075    14.235163 
  245600    181.03608     59211618            0     59212323    12.683312    22.437735    14.766532    19.733691    36.005013    67.394361    12.612127     22.30075    14.235163 
  245800    287.04726     59213820            0     59214938    12.683375    22.437749    14.766476      19.7399    36.006427    67.388797    12.612127     22.30075    14.235163 
  246000    158.53432     59213767            0     59214384    12.683298    22.437772    14.766653    19.732271    36.008661    67.406454    12.612127     22.30075    14.235163 
  246200    468.72493     59211524            0     59213348    12.683333    22.437788    14.766585    19.735764    36.010335    67.399682    12.612127     22.30075    14.235163 
  246400    292.93671     59211386            0     59212527    12.683258     22.43769    14.766633    19.728252    36.000503    67.404425    12.612127     22.30075    14.235163 
  246600    284.17294     59213066            0     59214173     12.68337    22.437747     14.76655     19.73942     36.00621    67.396142    12.612127     22.30075    14.235163 
  246800    151.79046     59213601            0     59214191    12.683304    22.437754    14.766561    19.732834    36.006947    67.397207    12.612127     22.30075    14.235163 
  247000    119.08156     59215763            0     59216227      12.6833    22.437789    14.766468    19.732476    36.010372     67.38796    12.612127     22.30075    14.235163 
  247200    395.67813     59213580            0     59215120    12.683276    22.437735    14.766032    19.730002    36.005022    67.344316    12.612127     22.30075    14.235163 
  247400    220.82761     59211539            0     59212398    12.683325    22.437732    14.766269     19.73499    36.004691    67.368074    12.612127     22.30075    14.235163 
  247600    171.52301     59211130            0     59211798    12.683331    22.437753     14.76642     19.73555    36.006789    67.383105    12.612127     22.30075    14.235163 
  247800    152.72294     59215352            0     59215947    12.683376    22.437773    14.766805     19.74004    36.008829    67.421702    12.612127     22.30075    14.235163 
  248000    235.73679     59213948            0     59214866    12.683335    22.437714    14.766198    19.735974    36.002892    67.360969    12.612127     22.30075    14.235163 
  248200    281.32614     59212966            0     59214061    12.683272    22.437721    14.766498     19.72965     36.00364    67.390918    12.612127     22.30075    14.235163 
  248400    236.89382     59213286            0     59214208    12.683287    22.437808    14.766498    19.731174    36.012339    67.390971    12.612127     22.30075    14.235163 
  248600    228.10848     59211578            0     59212466    12.683352    22.437779     14.76612    19.737691    36.009432    67.353105    12.612127     22.30075    14.235163 
  248800    177.89197     59213773            0     59214465    12.683331    22.437687    14.767079    19.735533     36.00021     67.44911    12.612127     22.30075    14.235163 
  249000    127.93245     59213843            0     59214341    12.683289    22.437739      14.7666    19.731332    36.005436    67.401147    12.612127     22.30075    14.235163 
  249200    205.29881     59212073            0     59212873     12.68328    22.437743    14.766568    19.730476    36.005765    67.397989    12.612127     22.30075    14.235163 
  249400    325.14378     59214060            0     59215326    12.683343    22.437747    14.766653    19.736769    36.006183    67.406433    12.612127     22.30075    14.235163 
  249600    240.82426     59213884            0     59214822    12.683374    22.437784    14.766111    19.739856    36.009869    67.352234    12.612127     22.30075    14.235163 
  249800    145.20895     59213919            0     59214484    12.683307     22.43776    14.765935    19.733185     36.00749    67.334641    12.612127     22.30075    14.235163 
  250000    198.30102     59213435            0     59214207    12.683312    22.437782    14.766722    19.733619    36.009712    67.413322    12.612127     22.30075    14.235163 
  250200    193.00426     59213481            0     59214232    12.683359    22.437839    14.767154    19.738356     36.01546    67.456583    12.612127     22.30075    14.235163 
  250400    152.28286     59213887            0     59214480    12.683281    22.437707    14.766334    19.730504    36.002205    67.374496    12.612127     22.30075    14.235163 
  250600    232.94373     59211561            0     59212468    12.683311    22.437751    14.766071    19.733535    36.006585    67.348242    12.612127     22.30075    14.235163 
  250800    265.03825     59212317            0     59213348    12.683281    22.437794    14.766207    19.730553    36.010863    67.361849    12.612127     22.30075    14.235163 
  251000    252.26314     59212267            0     59213249    12.683338    22.437751    14.766248    19.736226    36.006597    67.365936    12.612127     22.30075    14.235163 
  251200     230.1787     59215402            0     59216299    12.683315    22.437762    14.766053    19.733962    36.007723    67.346454    12.612127     22.30075    14.235163 
  251400    183.44485     59211078            0     59211793    12.683332    22.437763    14.766588    19.735622    36.007804     67.39991    12.612127     22.30075    14.235163 
  251600    456.47092     59211610            0     59213387    12.683322    22.437784    14.766724    19.734603    36.009925    67.413584    12.612127     22.30075    14.235163 
  251800     257.1299     59215510            0     59216511     12.68332    22.437734    14.766371    19.734436    36.004916    67.378287    12.612127     22.30075    14.235163 
  252000    357.21834     59213983            0     59215373    12.683266    22.437717    14.766229    19.729068    36.003258    67.364085    12.612127     22.30075    14.235163 
  252200    285.31042     59214675            0     59215785    12.683321    22.437803    14.765753    19.734592    36.011801    67.316461    12.612127     22.30075    14.235163 
  252400    161.37707     59213386            0     59214014    12.683374    22.437727     14.76615    19.739874    36.004231    67.356103    12.612127     22.30075    14.235163 
  252600    169.70673     59213931            0     59214592     12.68333    22.437693    14.766156     19.73541    36.000759    67.356734    12.612127     22.30075    14.235163 
  252800     329.7746     59214510            0     59215794    12.683293    22.437772     14.76619    19.731734    36.008693    67.360182    12.612127     22.30075    14.235163 
  253000    260.12227     59213121            0     59214134    12.683323    22.437727    14.766077    19.734746     36.00419    67.348788    12.612127     22.30075    14.235163 
  253200    305.89384     59215515            0     59216705     12.68332    22.437721    14.766439    19.734419    36.003625    67.385083    12.612127     22.30075    14.235163 
  253400    151.83223     59212764            0     59213355    12.683331    22.437722    14.766896    19.735582      36.0037    67.430722    12.612127     22.30075    14.235163 
  253600    489.57847     59214138            0     59216044      12.6833    22.437737     14.76678    19.732473    36.005249    67.419136    12.612127     22.30075    14.235163 
  253800    401.07345     59212797            0     59214359    12.683261    22.437754    14.766427    19.728507    36.006919    67.383874    12.612127     22.30075    14.235163 
  254000    181.93506     59210982            0     59211690    12.683359    22.437738    14.766152     19.73835    36.005356    67.356336    12.612127     22.30075    14.235163 
  254200    265.79763     59214889            0     59215924    12.683312    22.437818    14.765818    19.733615    36.013284    67.322894    12.612127     22.30075    14.235163 
  254400    369.51936     59211218            0     59212656    12.683302    22.437743    14.766354    19.732631    36.005804     67.37654    12.612127     22.30075    14.235163 
  254600    181.17741     59211148            0     59211853    12.683278    22.437741    14.766242    19.730259    36.005651    67.365374    12.612127     22.30075    14.235163 
  254800    320.97741     59213848            0     59215097     12.68329     22.43786      14.7659    19.731449    36.017493    67.331152    12.612127     22.30075    14.235163 
  255000    197.87512     59211813            0     59212583    12.683344    22.437729    14.766527    19.736858    36.004385    67.393847    12.612127     22.30075    14.235163 
  255200    228.27224     59211612            0     59212501    12.683338    22.437813    14.766491    19.736261    36.012845    67.390283    12.612127     22.30075    14.235163 
  255400    191.11456     59212891            0     59213635    12.683366    22.437737    14.766788    19.739027    36.005259    67.419956    12.612127     22.30075    14.235163 
  255600    223.79104     59212436            0     59213307    12.683321    22.437771    14.766177    19.734506    36.008569    67.358794    12.612127     22.30075    14.235163 
  255800    91.154698     59211882            0     59212237    12.683343    22.437711     14.76615    19.736705    36.002558    67.356112    12.612127     22.30075    14.235163 
  256000    347.48267     59213100            0     59214453    12.683306    22.437773    14.766167     19.73308    36.008821    67.357879    12.612127     22.30075    14.235163 
  256200    194.57442     59212572            0     59213329    12.683294    22.437792    14.766105    19.731826    36.010733    67.351585    12.612127     22.30075    14.235163 
  256400    123.25013     59212038            0     59212517    12.683322     22.43776    14.765941    19.734659    36.007512    67.335264    12.612127     22.30075    14.235163 
  256600    262.09768     59215890            0     59216910    12.683361     22.43769    14.765467    19.738575     36.00046    67.287809    12.612127     22.30075    14.235163 
  256800    284.07746     59214480            0     59215585     12.68334    22.437723    14.766465     19.73642    36.003807     67.38765    12.612127     22.30075    14.235163 
  257000     178.8832     59213851            0     59214548    12.683334    22.437721    14.766293    19.735807    36.003616    67.370451    12.612127     22.30075    14.235163 
  257200    214.49763     59212769            0     59213604    12.683283    22.437744    14.766197    19.730775    36.005876    67.360803    12.612127     22.30075    14.235163 
  257400    313.81994     59212996            0     59214217    12.683373    22.437712    14.766285    19.739796     36.00272    67.369659    12.612127     22.30075    14.235163 
  257600    227.90038     59213762            0     59214650    12.683338    22.437746    14.766624    19.736251    36.006149    67.403582    12.612127     22.30075    14.235163 
  257800    154.08263     59213307            0     59213907    12.683379    22.437779    14.766715    19.740391    36.009437    67.412706    12.612127     22.30075    14.235163 
  258000     310.4025     59211932            0     59213141    12.683292    22.437739    14.766143    19.731622    36.005394    67.355427    12.612127     22.30075    14.235163 
  258200     163.2329     59213300            0     59213935    12.683362    22.437728    14.766957    19.738669    36.004335    67.436907    12.612127     22.30075    14.235163 
  258400     375.9645     59213869            0     59215332     12.68336    22.437718    14.767033    19.738451    36.003345    67.444518    12.612127     22.30075    14.235163 
  258600    102.80242     59214165            0     59214565    12.683392    22.437772    14.766906    19.741657    36.008734    67.431742    12.612127     22.30075    14.235163 
  258800    222.70281     59213813            0     59214680    12.683296    22.437708    14.766355    19.732089    36.002298    67.376598    12.612127     22.30075    14.235163 
  259000    144.61346     59211075            0     59211638    12.683309     22.43778    14.765818     19.73337    36.009536    67.322874    12.612127     22.30075    14.235163 
  259200    463.71902     59213656            0     59215461    12.683291    22.437788    14.766985    19.731573    36.010278    67.439714    12.612127     22.30075    14.235163 
  259400    164.73906     59215575            0     59216216    12.683288    22.437766    14.766402     19.73122    36.008143    67.381337    12.612127     22.30075    14.235163 
  259600    184.12148     59212894            0     59213611    12.683326    22.437807    14.765818    19.735012      36.0122    67.322883    12.612127     22.30075    14.235163 
  259800    310.42014     59211924            0     59213132    12.683226    22.437731    14.765986    19.725089    36.004597    67.339738    12.612127     22.30075    14.235163 
  260000    288.20894     59211600            0     59212722    12.683259    22.437732    14.766445    19.728367    36.004676    67.385676    12.612127     22.30075    14.235163 
  260200    443.21017     59212872            0     59214597    12.683333    22.437736    14.766737    19.735777    36.005139    67.414823    12.612127     22.30075    14.235163 
  260400    170.87333     59212153            0     59212818    12.683304    22.437755    14.766391    19.732883    36.007005    67.380254    12.612127     22.30075    14.235163 
  260600    189.95143     59210867            0     59211606    12.683311    22.437758     14.76615    19.733532    36.007264    67.356147    12.612127     22.30075    14.235163 
  260800    289.75953     59213322            0     59214450    12.683327    22.437691    14.766304    19.735181    36.000576     67.37151    12.612127     22.30075    14.235163 
  261000    257.69125     59211239            0     59212242    12.683342    22.437761    14.766556    19.736628    36.007654    67.396729    12.612127     22.30075    14.235163 
  261200    311.89219     59214177            0     59215391    12.683306    22.437776    14.766792    19.733074    36.009137    67.420314    12.612127     22.30075    14.235163 
  261400     231.8528     59211715            0     59212617    12.683321    22.437755    14.765816    19.734535    36.007003    67.322703    12.612127     22.30075    14.235163 
  261600    166.53242     59212535            0     59213183    12.683304    22.437746     14.76684    19.732853    36.006097    67.425124    12.612127     22.30075    14.235163 
  261800    158.07503     59212760            0     59213375    12.683279    22.437772    14.766246    19.730344    36.008713    67.365736    12.612127     22.30075    14.235163 
  262000    229.57516     59215818            0     59216712    12.683301    22.437719    14.766105     19.73253    36.003382    67.351677    12.612127     22.30075    14.235163 
  262200    473.93162     59212318            0     59214163    12.683323      22.4378    14.766679    19.734762    36.011516    67.409034    12.612127     22.30075    14.235163 
  262400    163.00611     59215908            0     59216542    12.683351    22.437739    14.766914    19.737552    36.005405    67.432529    12.612127     22.30075    14.235163 
  262600    407.44639     59212562            0     59214148    12.683335     22.43775    14.766919    19.735938    36.006526    67.433095    12.612127     22.30075    14.235163 
  262800     172.0786     59215146            0     59215816    12.683336    22.437773    14.766374    19.736011    36.008837    67.378562    12.612127     22.30075    14.235163 
  263000    307.74234     59215319            0     59216517    12.683312    22.437701    14.767027    19.733686    36.001564    67.443921    12.612127     22.30075    14.235163 
  263200    203.18769     59213451            0     59214242    12.683285    22.437781    14.766023    19.730963    36.009641    67.343387    12.612127     22.30075    14.235163 
  263400    497.45539     59211466            0     59213403    12.683281    22.437764    14.766448    19.730543    36.007883     67.38592    12.612127     22.30075    14.235163 
  263600    298.82499     59214159            0     59215322    12.683343    22.437747    14.766431    19.736702      36.0062    67.384245    12.612127     22.30075    14.235163 
  263800    330.47284     59212628            0     59213915    12.683312    22.437765    14.766248    19.733623    36.007994    67.365987    12.612127     22.30075    14.235163 
  264000    211.63273     59212595            0     59213418    12.683343    22.437759    14.766567    19.736749    36.007389    67.397827    12.612127     22.30075    14.235163 
  264200    328.68909     59213256            0     59214535    12.683324    22.437782    14.767022    19.734889    36.009677    67.443363    12.612127     22.30075    14.235163 
  264400    217.22177     59213876            0     59214721    12.683266    22.437761    14.766605    19.729069    36.007635     67.40162    12.612127     22.30075    14.235163 
  264600     323.2895     59214277            0     59215536    12.683336    22.437778    14.766082    19.736075    36.009341    67.349331    12.612127     22.30075    14.235163 
  264800      189.265     59215959            0     59216696    12.683273     22.43777     14.76577    19.729777    36.008493    67.318168    12.612127     22.30075    14.235163 
  265000    476.47006     59213939            0     59215794    12.683318    22.437751    14.765778     19.73428    36.006565     67.31889    12.612127     22.30075    14.235163 
  265200      329.073     59211690            0     59212971    12.683363    22.437817    14.766348    19.738796    36.013256    67.375973    12.612127     22.30075    14.235163 
  265400    406.30651     59213568            0     59215150    12.683344    22.437759    14.767176    19.736827    36.007382    67.458826    12.612127     22.30075    14.235163 
  265600    392.07904     59214285            0     59215812    12.683285    22.437808    14.767091     19.73095     36.01231    67.450242    12.612127     22.30075    14.235163 
  265800    503.77507     59212414            0     59214375    12.683322    22.437725    14.766416    19.734647    36.003996    67.382751    12.612127     22.30075    14.235163 
  266000    398.60036     59212291            0     59213842    12.683322    22.437755    14.766711    19.734604    36.007005    67.412268    12.612127     22.30075    14.235163 
  266200    271.25782     59214511            0     59215567    12.683325    22.437749    14.766872    19.734962     36.00645    67.428343    12.612127     22.30075    14.235163 
  266400    115.83312     59214877            0     59215328    12.683308    22.437746    14.766628    19.733257    36.006148    67.403994    12.612127     22.30075    14.235163 
  266600    241.26575     59213573            0     59214513    12.683337    22.437746    14.766091    19.736197     36.00613    67.350238    12.612127     22.30075    14.235163 
  266800    67.731946     59215054            0     59215318      12.6833    22.437746    14.767185    19.732468    36.006095    67.459723    12.612127     22.30075    14.235163 
  267000    147.35051     59212784            0     59213358    12.683265    22.437702    14.766453    19.728944    36.001726    67.386454    12.612127     22.30075    14.235163 
  267200    204.52889     59214111            0     59214907     12.68331     22.43776    14.766107    19.733409    36.007493    67.351806    12.612127     22.30075    14.235163 
  267400    185.21682     59212184            0     59212905    12.683323    22.437823     14.76659    19.734703    36.013767    67.400143    12.612127     22.30075    14.235163 
  267600    398.07862     59214655            0     59216205      12.6833    22.437784    14.766645    19.732471    36.009888    67.405667    12.612127     22.30075    14.235163 
  267800    160.08316     59212890            0     59213513    12.683308     22.43781     14.76618    19.733242    36.012523    67.359121    12.612127     22.30075    14.235163 
  268000    301.41155     59211820            0     59212994    12.683336    22.437724     14.76573    19.735999    36.003874     67.31416    12.612127     22.30075    14.235163 
  268200    155.23202     59215556            0     59216161     12.68332     22.43773    14.767203    19.734462    36.004484    67.461493    12.612127     22.30075    14.235163 
  268400    191.70482     59213284            0     59214031    12.683387    22.437782     14.76641    19.741151    36.009757    67.382178    12.612127     22.30075    14.235163 
  268600    550.37899     59211692            0     59213835    12.683301    22.437724    14.766154    19.732546    36.003884    67.356512    12.612127     22.30075    14.235163 
  268800    276.33537     59214063            0     59215139    12.683356     22.43779    14.766777    19.738029     36.01047    67.418906    12.612127     22.30075    14.235163 
  269000    135.22423     59210823            0     59211350    12.683338     22.43778    14.766097    19.736202    36.009498     67.35079    12.612127     22.30075    14.235163 
  269200    110.84149     59212243            0     59212674    12.683307    22.437762    14.766459    19.733121    36.007729    67.387097    12.612127     22.30075    14.235163 
  269400    97.458753     59214559            0     59214939    12.683327    22.437703    14.765729    19.735186    36.001772    67.314067    12.612127     22.30075    14.235163 
  269600    210.34939     59211716            0     59212535     12.68327    22.437746    14.766541    19.729425    36.006137    67.395211    12.612127     22.30075    14.235163 
  269800    131.98758     59213742            0     59214256    12.683341    22.437804    14.766364    19.736537    36.011884    67.377527    12.612127     22.30075    14.235163 
  270000     278.6962     59211696            0     59212781    12.683315    22.437768     14.76655    19.733897    36.008342    67.396182    12.612127     22.30075    14.235163 
  270200    258.69241     59213614            0     59214621     12.68332    22.437787     14.76641    19.734444    36.010257    67.382108    12.612127     22.30075    14.235163 
  270400    275.29694     59213171            0     59214243    12.683307    22.437752    14.765283    19.733176    36.006703    67.269424    12.612127     22.30075    14.235163 
  270600    290.33535     59211981            0     59213111    12.683329     22.43774    14.766141    19.735326    36.005486    67.355281    12.612127     22.30075    14.235163 
  270800    194.38808     59211219            0     59211976    12.683312    22.437796    14.766528    19.733664    36.011115    67.393983    12.612127     22.30075    14.235163 
  271000    184.70725     59214154            0     59214873    12.683286    22.437751    14.766274    19.731028    36.006615    67.368585    12.612127     22.30075    14.235163 
  271200     246.2997     59211558            0     59212517    12.683293    22.437743    14.766409    19.731746    36.005826    67.382019    12.612127     22.30075    14.235163 
  271400    200.46482     59216567            0     59217347    12.683277     22.43778    14.766541    19.730152     36.00955    67.395258    12.612127     22.30075    14.235163 
  271600    284.35779     59212849            0     59213956    12.683316    22.437702    14.766422    19.734016    36.001676    67.383371    12.612127     22.30075    14.235163 
  271800     229.6561     59211637            0     59212531    12.683291    22.437802    14.765794     19.73159    36.011734    67.320473    12.612127     22.30075    14.235163 
  272000        205.9     59213912            0     59214713     12.68329    22.437811    14.766816    19.731478    36.012621    67.422786    12.612127     22.30075    14.235163 
  272200    206.44536     59210610            0     59211413    12.683334    22.437826    14.766041    19.735868    36.014115    67.345218    12.612127     22.30075    14.235163 
  272400    282.33639     59212284            0     59213383    12.683334    22.437778     14.76615    19.735867    36.009276    67.356102    12.612127     22.30075    14.235163 
  272600    366.57562     59213127            0     59214554    12.683349    22.437782     14.76725    19.737331    36.009707    67.466219    12.612127     22.30075    14.235163 
  272800    321.35233     59213834            0     59215085    12.683277    22.437712    14.766509    19.730153    36.002673    67.392021    12.612127     22.30075    14.235163 
  273000    188.14546     59213550            0     59214283    12.683286    22.437795    14.766582    19.731053    36.010969    67.399314    12.612127     22.30075    14.235163 
  273200    181.17149     59212965            0     59213670    12.683293    22.437762      14.7663    19.731783    36.007673    67.371171    12.612127     22.30075    14.235163 
  273400    197.37435     59213932            0     59214700    12.683274    22.437743    14.765324    19.729818    36.005856    67.273479    12.612127     22.30075    14.235163 
  273600    359.54642     59211266            0     59212666    12.683325    22.437756    14.765905    19.734918    36.007152    67.331654    12.612127     22.30075    14.235163 
  273800     295.9946     59212702            0     59213854    12.683274    22.437713    14.766045    19.729851    36.002855    67.345609    12.612127     22.30075    14.235163 
  274000     417.8846     59212522            0     59214149    12.683306    22.437752    14.766381    19.733083    36.006733    67.379209    12.612127     22.30075    14.235163 
  274200    153.67703     59213937            0     59214535    12.683299    22.437769    14.766849     19.73236    36.008373    67.426033    12.612127     22.30075    14.235163 
  274400    354.98607     59212762            0     59214144    12.683336    22.437786    14.766631    19.736029    36.010159    67.404294    12.612127     22.30075    14.235163 
  274600    196.67565     59215462            0     59216227    12.683313    22.437716    14.766874    19.733757    36.003153    67.428602    12.612127     22.30075    14.235163 
  274800    255.05968     59212455            0     59213447    12.683348    22.437737    14.766392    19.737269     36.00524    67.380394    12.612127     22.30075    14.235163 
  275000    238.26181     59215183            0     59216111    12.683274     22.43776    14.767843    19.729889    36.007523    67.525546    12.612127     22.30075    14.235163 
  275200    262.25178     59213096            0     59214117    12.683344    22.437794     14.76658    19.736849    36.010872    67.399177    12.612127     22.30075    14.235163 
  275400    143.53791     59214505            0     59215064    12.683353     22.43778     14.76671    19.737722    36.009479    67.412112    12.612127     22.30075    14.235163 
  275600    204.48728     59215338            0     59216134    12.683314    22.437744    14.766576    19.733868    36.005925    67.398773    12.612127     22.30075    14.235163 
  275800    134.93133     59215965            0     59216490    12.683339    22.437755    14.766686    19.736368    36.007009     67.40976    12.612127     22.30075    14.235163 
  276000    206.65776     59214572            0     59215377    12.683303     22.43775    14.766168    19.732769    36.006493    67.357909    12.612127     22.30075    14.235163 
  276200    353.50349     59212713            0     59214090    12.683326    22.437741    14.766173    19.735043     36.00561    67.358434    12.612127     22.30075    14.235163 
  276400    276.50546     59209938            0     59211015    12.683306    22.437766    14.766105    19.733088    36.008111    67.351662    12.612127     22.30075    14.235163 
  276600    213.94802     59212111            0     59212944     12.68332    22.437755    14.766666    19.734429     36.00701    67.407764    12.612127     22.30075    14.235163 
  276800    290.91918     59212377            0     59213510    12.683314    22.437777     14.76662    19.733851     36.00922    67.403195    12.612127     22.30075    14.235163 
  277000      214.353     59212504            0     59213339    12.683334    22.437809    14.766739    19.735896    36.012415    67.415016    12.612127     22.30075    14.235163 
  277200    158.83515     59213037            0     59213656    12.683313    22.437767    14.766651    19.733719    36.008176    67.406278    12.612127     22.30075    14.235163 
  277400    243.68703     59211634            0     59212583    12.683289    22.437757    14.765993    19.731333    36.007207    67.340404    12.612127     22.30075    14.235163 
  277600    387.75158     59212890            0     59214400    12.683256    22.437661    14.766276    19.728047     35.99757    67.368736    12.612127     22.30075    14.235163 
  277800    117.85514     59214648            0     59215107    12.683304     22.43775    14.765736    19.732802    36.006541    67.314716    12.612127     22.30075    14.235163 
  278000    81.906089     59215009            0     59215328    12.683283    22.437732    14.766365    19.730753    36.004749    67.377675    12.612127     22.30075    14.235163 
  278200    172.52674     59213135            0     59213806    12.683336    22.437752    14.766259    19.736036    36.006662    67.367055    12.612127     22.30075    14.235163 
  278400    434.30868     59213713            0     59215404    12.683321    22.437764    14.766683    19.734571    36.007928    67.409471    12.612127     22.30075    14.235163 
  278600    150.00702     59214869            0     59215453    12.683357    22.437821    14.766672    19.738131    36.013568    67.408363    12.612127     22.30075    14.235163 
  278800    195.01781     59212687            0     59213446    12.683348    22.437782    14.766607      19.7372      36.0097    67.401861    12.612127     22.30075    14.235163 
  279000    315.62367     59212187            0     59213416    12.683331    22.437734    14.766444     19.73559    36.004926    67.385574    12.612127     22.30075    14.235163 
  279200     188.6982     59214054            0     59214789    12.683314    22.437765    14.766852    19.733829    36.007962    67.426408    12.612127     22.30075    14.235163 
  279400    160.67069     59213905            0     59214530    12.683286    22.437757     14.76711    19.731032    36.007223    67.452152    12.612127     22.30075    14.235163 
  279600    353.35837     59214002            0     59215377    12.683359    22.437724     14.76581    19.738333    36.003896    67.322167    12.612127     22.30075    14.235163 
  279800     255.4945     59214299            0     59215294     12.68333    22.437695    14.766633    19.735495    36.001044    67.404459    12.612127     22.30075    14.235163 
  280000    377.51375     59212975            0     59214444    12.683286    22.437748    14.765867    19.731067    36.006274    67.327871    12.612127     22.30075    14.235163 
  280200    261.51202     59215163            0     59216181    12.683324    22.437718    14.766926    19.734829    36.003306      67.4338    12.612127     22.30075    14.235163 
  280400    238.36814     59212843            0     59213770    12.683341    22.437789    14.767176    19.736547    36.010452    67.458801    12.612127     22.30075    14.235163 
  280600    352.88031     59214039            0     59215413    12.683306    22.437749    14.766491    19.733094    36.006444    67.390269    12.612127     22.30075    14.235163 
  280800    176.94418     59213941            0     59214630    12.683324     22.43771    14.766178    19.734876    36.002552    67.358916    12.612127     22.30075    14.235163 
  281000    207.31118     59214779            0     59215586    12.683288    22.437755    14.766123    19.731258    36.006982     67.35343    12.612127     22.30075    14.235163 
  281200    114.75582     59211057            0     59211504    12.683253    22.437783    14.766412    19.727732    36.009833     67.38234    12.612127     22.30075    14.235163 
  281400     353.4074     59211621            0     59212997    12.683308    22.437798    14.766428    19.733259    36.011314    67.383924    12.612127     22.30075    14.235163 
  281600    327.51377     59213432            0     59214707    12.683315    22.437794     14.76593    19.733954     36.01093    67.334171    12.612127     22.30075    14.235163 
  281800    248.98348     59211252            0     59212221    12.683329    22.437804    14.765857    19.735326    36.011953    67.326805    12.612127     22.30075    14.235163 
  282000    285.02269     59212602            0     59213711    12.683283    22.437744    14.765937    19.730795    36.005909    67.334858    12.612127     22.30075    14.235163 
  282200    253.25627     59212702            0     59213688    12.683284    22.437753    14.765999    19.730874    36.006808    67.340996    12.612127     22.30075    14.235163 
  282400    278.76603     59213404            0     59214490    12.683347    22.437763    14.766246    19.737151    36.007817      67.3657    12.612127     22.30075    14.235163 
  282600    272.77281     59215723            0     59216785    12.683292    22.437762    14.765881    19.731672    36.007662    67.329182    12.612127     22.30075    14.235163 
  282800    196.94799     59214140            0     59214906    12.683316    22.437735     14.76601    19.734003    36.005007    67.342087    12.612127     22.30075    14.235163 
  283000    421.87172     59212546            0     59214189    12.683358    22.437731     14.76594    19.738203    36.004651    67.335143    12.612127     22.30075    14.235163 
  283200    382.68893     59212840            0     59214330    12.683345    22.437738    14.766031    19.736996    36.005347    67.344227    12.612127     22.30075    14.235163 
  283400    210.73675     59214798            0     59215618    12.683316     22.43778    14.766648    19.734031    36.009487    67.405976    12.612127     22.30075    14.235163 
  283600    173.58091     59212171            0     59212846    12.683272    22.437693    14.766496    19.729614    36.000839    67.390708    12.612127     22.30075    14.235163 
  283800    156.11563     59211689            0     59212297    12.683329    22.437728    14.766528    19.735379    36.004336    67.393925    12.612127     22.30075    14.235163 
  284000    444.59806     59213104            0     59214835    12.683312    22.437744       14.766    19.733683    36.005901    67.341087    12.612127     22.30075    14.235163 
  284200    353.12187     59213174            0     59214549    12.683318    22.437762    14.766053    19.734219    36.007668    67.346392    12.612127     22.30075    14.235163 
  284400    235.66228     59214079            0     59214996    12.683336    22.437755    14.767069    19.736064    36.006961    67.448037    12.612127     22.30075    14.235163 
  284600    167.93884     59211373            0     59212026    12.683321    22.437743    14.766584    19.734515    36.005761    67.399603    12.612127     22.30075    14.235163 
  284800    264.66782     59213017            0     59214047    12.683369    22.437761    14.765933    19.739325    36.007596    67.334382    12.612127     22.30075    14.235163 
  285000     452.8224     59212541            0     59214303    12.683306    22.437771    14.766577     19.73305    36.008626    67.398813    12.612127     22.30075    14.235163 
  285200    177.52956     59214607            0     59215298     12.68332    22.437733    14.767432    19.734407    36.004763    67.484438    12.612127     22.30075    14.235163 
  285400    77.378648     59213810            0     59214112    12.683273    22.437771    14.766234    19.729781    36.008572    67.364503    12.612127     22.30075    14.235163 
  285600    241.31385     59212464            0     59213403    12.683314    22.437734    14.766586    19.733814    36.004955    67.399733    12.612127     22.30075    14.235163 
  285800    318.80877     59213003            0     59214245    12.683316    22.437702    14.766536    19.734032    36.001726    67.394737    12.612127     22.30075    14.235163 
  286000     133.0228     59213743            0     59214260     12.68338    22.437794    14.766495    19.740496    36.010898    67.390683    12.612127     22.30075    14.235163 
  286200     65.42889     59213367            0     59213621    12.683326     22.43777    14.766228    19.735049    36.008504    67.363921    12.612127     22.30075    14.235163 
  286400    149.16732     59212870            0     59213451    12.683356    22.437792    14.766265    19.738014    36.010686     67.36759    12.612127     22.30075    14.235163 
  286600    228.30556     59214104            0     59214993    12.683302    22.437702    14.765472    19.732688    36.001732    67.288306    12.612127     22.30075    14.235163 
  286800    190.26659     59212171            0     59212912    12.683335    22.437734    14.765466    19.735962    36.004952     67.28771    12.612127     22.30075    14.235163 
  287000    227.78978     59212489            0     59213376    12.683336    22.437766    14.766308    19.736001    36.008136    67.371942    12.612127     22.30075    14.235163 
  287200    174.86457     59213880            0     59214560    12.683309    22.437743    14.766944    19.733328    36.005825    67.435564    12.612127     22.30075    14.235163 
  287400    250.86702     59213076            0     59214052     12.68334    22.437753    14.765821    19.736416    36.006823    67.323197    12.612127     22.30075    14.235163 
  287600    333.45254     59213972            0     59215270    12.683293    22.437784    14.766198     19.73178    36.009888     67.36089    12.612127     22.30075    14.235163 
  287800    227.71682     59213049            0     59213936    12.683315    22.437749    14.766594     19.73398    36.006444    67.400561    12.612127     22.30075    14.235163 
  288000    315.19456     59211736            0     59212963    12.683298    22.437735    14.765828    19.732228    36.005034    67.323875    12.612127     22.30075    14.235163 
  288200    348.88179     59213401            0     59214759    12.683285    22.437756    14.766788    19.730964    36.007143    67.419981    12.612127     22.30075    14.235163 
  288400    346.33343     59211921            0     59213269    12.683303    22.437743    14.766565    19.732767    36.005767    67.397665    12.612127     22.30075    14.235163 
  288600    155.27045     59212542            0     59213146    12.683313    22.437739    14.766664    19.733748    36.005384    67.407522    12.612127     22.30075    14.235163 
  288800    250.28366     59215102            0     59216076    12.683276    22.437772    14.767199    19.730016    36.008689    67.461054    12.612127     22.30075    14.235163 
  289000    223.50285     59213887            0     59214757    12.683315    22.437776    14.766475    19.733973    36.009097    67.388623    12.612127     22.30075    14.235163 
  289200    177.11039     59213861            0     59214551    12.683257    22.437744    14.766836    19.728099    36.005936    67.424726    12.612127     22.30075    14.235163 
  289400      361.645     59213526            0     59214934    12.683324    22.437703    14.766819    19.734872    36.001847    67.423031    12.612127     22.30075    14.235163 
  289600     326.7728     59211925            0     59213198    12.683319    22.437753     14.76583    19.734333    36.006859    67.324138    12.612127     22.30075    14.235163 
  289800    336.92797     59212426            0     59213737    12.683344    22.437754    14.765838    19.736898    36.006914    67.324929    12.612127     22.30075    14.235163 
  290000    323.11452     59211953            0     59213210    12.683324    22.437757    14.766177    19.734816    36.007209    67.358835    12.612127     22.30075    14.235163 
  290200    137.98452     59211653            0     59212190    12.683351    22.437731    14.766644    19.737546    36.004613    67.405523    12.612127     22.30075    14.235163 
  290400    227.19215     59212442            0     59213326    12.683312    22.437737    14.766335    19.733662    36.005168    67.374613    12.612127     22.30075    14.235163 
  290600    310.96065     59211090            0     59212300    12.683303    22.437739     14.76624    19.732781    36.005424    67.365091    12.612127     22.30075    14.235163 
  290800      302.479     59212380            0     59213558    12.683335    22.437753    14.766289    19.735959    36.006825     67.37002    12.612127     22.30075    14.235163 
  291000    206.47786     59211605            0     59212408    12.683334    22.437786    14.766025    19.735805    36.010107    67.343647    12.612127     22.30075    14.235163 
  291200    402.68026     59212445            0     59214013    12.683317    22.437807    14.766887    19.734137    36.012198     67.42991    12.612127     22.30075    14.235163 
  291400    342.50512     59214395            0     59215729    12.683362    22.437778    14.767767    19.738617    36.009314    67.517882    12.612127     22.30075    14.235163 
  291600    334.01119     59213130            0     59214430    12.683305    22.437761    14.766492    19.732992    36.007622    67.390335    12.612127     22.30075    14.235163 
  291800    263.35964     59212717            0     59213743    12.683322    22.437808    14.766476     19.73467    36.012272     67.38873    12.612127     22.30075    14.235163 
  292000    171.73784     59212160            0     59212828    12.683314     22.43775    14.766565    19.733803    36.006464     67.39769    12.612127     22.30075    14.235163 
  292200    227.72541     59213313            0     59214199    12.683299    22.437756    14.765913    19.732309    36.007084    67.332393    12.612127     22.30075    14.235163 
  292400    291.51449     59215231            0     59216366    12.683318     22.43775    14.766551    19.734266    36.006485    67.396256    12.612127     22.30075    14.235163 
  292600    109.38943     59214018            0     59214444    12.683335    22.437787    14.766628    19.735939    36.010177    67.403982    12.612127     22.30075    14.235163 
  292800    293.13698     59212279            0     59213420    12.683337    22.437743    14.766486    19.736098    36.005794     67.38972    12.612127     22.30075    14.235163 
  293000    328.06382     59211740            0     59213017    12.683321    22.437736     14.76589    19.734537    36.005092    67.330088    12.612127     22.30075    14.235163 
  293200    193.91557     59212579            0     59213334    12.683273    22.437777    14.765842    19.729769    36.009245    67.325322    12.612127     22.30075    14.235163 
  293400    244.49061     59211546            0     59212498    12.683362    22.437753    14.766345    19.738644    36.006761    67.375685    12.612127     22.30075    14.235163 
  293600    256.37224     59212474            0     59213472    12.683312    22.437764    14.766664    19.733628    36.007912    67.407544    12.612127     22.30075    14.235163 
  293800    108.93942     59214286            0     59214710    12.683336    22.437867    14.766245    19.736008    36.018253    67.365643    12.612127     22.30075    14.235163 
  294000    176.92511     59212804            0     59213492     12.68332     22.43778    14.766055    19.734427    36.009491    67.346622    12.612127     22.30075    14.235163 
  294200     176.8873     59212567            0     59213256    12.683362    22.437742    14.766431    19.738611    36.005728     67.38428    12.612127     22.30075    14.235163 
  294400    297.40872     59212888            0     59214046    12.683313    22.437734    14.766198    19.733704    36.004859    67.360919    12.612127     22.30075    14.235163 
  294600    292.13439     59212515            0     59213652    12.683282     22.43777    14.766573    19.730683    36.008486    67.398483    12.612127     22.30075    14.235163 
  294800    198.57288     59212749            0     59213522    12.683305     22.43775    14.765739    19.732982     36.00653    67.315035    12.612127     22.30075    14.235163 
  295000    514.47793     59212591            0     59214594    12.683325     22.43774    14.766012    19.734948    36.005548    67.342331    12.612127     22.30075    14.235163 
  295200    269.67057     59210626            0     59211676    12.683287    22.437785    14.766218    19.731181    36.009998     67.36295    12.612127     22.30075    14.235163 
  295400    343.03095     59211950            0     59213286    12.683308    22.437745    14.766471    19.733198    36.006009    67.388212    12.612127     22.30075    14.235163 
  295600    155.08968     59211742            0     59212345    12.683355    22.437773    14.766646    19.737969    36.008761    67.405767    12.612127     22.30075    14.235163 
  295800    219.97342     59214043            0     59214899     12.68337    22.437798    14.766247    19.739484    36.011332    67.365849    12.612127     22.30075    14.235163 
  296000    537.56783     59211564            0     59213657    12.683359    22.437746    14.766305    19.738374    36.006063    67.371686    12.612127     22.30075    14.235163 
  296200    136.88162     59214139            0     59214672    12.683298    22.437778    14.766772    19.732266    36.009331    67.418343    12.612127     22.30075    14.235163 
  296400    95.527522     59214069            0     59214441    12.683327    22.437729    14.766478    19.735192    36.004428    67.388976    12.612127     22.30075    14.235163 
  296600    251.55404     59213003            0     59213982    12.683298    22.437786     14.76654    19.732282    36.010098    67.395148    12.612127     22.30075    14.235163 
  296800    264.72248     59212953            0     59213983    12.683296    22.437732    14.766463    19.732007    36.004712    67.387438    12.612127     22.30075    14.235163 
  297000    300.08373     59213131            0     59214299    12.683315    22.437754     14.76597    19.733978     36.00688    67.338121    12.612127     22.30075    14.235163 
  297200    131.69155     59212925            0     59213437    12.683307    22.437754    14.766282    19.733121    36.006867    67.369323    12.612127     22.30075    14.235163 
  297400     246.4756     59213425            0     59214385    12.683285    22.437747    14.766239    19.730959     36.00618    67.365033    12.612127     22.30075    14.235163 
  297600    97.601181     59211760            0     59212140    12.683296    22.437801    14.766163    19.732004    36.011623    67.357474    12.612127     22.30075    14.235163 
  297800    245.26822     59212225            0     59213180    12.683289    22.437746    14.766194    19.731379    36.006104    67.360564    12.612127     22.30075    14.235163 
  298000    262.47879     59213125            0     59214147    12.683377    22.437789    14.766354    19.740178    36.010416    67.376558    12.612127     22.30075    14.235163 
  298200    311.09463     59213287            0     59214498    12.683349      22.4378    14.766607    19.737391    36.011529    67.401843    12.612127     22.30075    14.235163 
  298400    252.20666     59210843            0     59211824    12.683366    22.437747    14.766466    19.739037    36.006196    67.387783    12.612127     22.30075    14.235163 
  298600      163.161     59213414            0     59214049    12.683323    22.437769    14.766715    19.734777    36.008395    67.412708    12.612127     22.30075    14.235163 
  298800    227.00474     59212600            0     59213483    12.683276    22.437726    14.766272     19.73002    36.004063    67.368333    12.612127     22.30075    14.235163 
  299000    176.10571     59213760            0     59214446    12.683341    22.437784    14.766235    19.736583    36.009881    67.364667    12.612127     22.30075    14.235163 
  299200    189.85958     59213384            0     59214123    12.683319    22.437735     14.76683    19.734373    36.005019    67.424147    12.612127     22.30075    14.235163 
  299400    127.31558     59211390            0     59211885    12.683372    22.437767    14.766428    19.739655    36.008209    67.383974    12.612127     22.30075    14.235163 
  299600    348.66698     59212415            0     59213772    12.683301    22.437722    14.766978      19.7325    36.003731    67.438996    12.612127     22.30075    14.235163 
  299800    284.78296     59212191            0     59213300    12.683313    22.437774    14.766184    19.733793    36.008893    67.359566    12.612127     22.30075    14.235163 
  300000    253.56778     59212006            0     59212993    12.683286    22.437746    14.766633    19.731008    36.006064    67.404494    12.612127     22.30075    14.235163 
  300200    471.53997     59212941            0     59214776    12.683284    22.437765    14.767095    19.730889    36.007987    67.450716    12.612127     22.30075    14.235163 
  300400    149.39926     59213553            0     59214134    12.683348    22.437747    14.766516    19.737268     36.00624    67.392744    12.612127     22.30075    14.235163 
  300600    254.29126     59215192            0     59216182    12.683337    22.437786    14.766976    19.736112    36.010089    67.438735    12.612127     22.30075    14.235163 
  300800    178.52485     59212080            0     59212775    12.683336     22.43771    14.766939    19.736025    36.002459    67.435033    12.612127     22.30075    14.235163 
  301000    329.64597     59212710            0     59213993    12.683279    22.437752    14.766429    19.730298    36.006709    67.384077    12.612127     22.30075    14.235163 
  301200     308.4201     59212561            0     59213762    12.683298    22.437806    14.766266    19.732235    36.012106    67.367718    12.612127     22.30075    14.235163 
  301400    341.84847     59213718            0     59215048    12.683326    22.437788     14.76671    19.735096    36.010282    67.412197    12.612127     22.30075    14.235163 
  301600    282.43306     59214920            0     59216020    12.683325    22.437781    14.766658    19.734969    36.009582    67.406959    12.612127     22.30075    14.235163 
  301800    191.25847     59212138            0     59212883    12.683329    22.437785       14.766    19.735321    36.010027    67.341159    12.612127     22.30075    14.235163 
  302000    326.67064     59211870            0     59213142    12.683287    22.437741    14.765878    19.731106    36.005656    67.328941    12.612127     22.30075    14.235163 
  302200    338.70851     59211785            0     59213104    12.683289    22.437749    14.766273    19.731307    36.006386    67.368431    12.612127     22.30075    14.235163 
  302400    229.19441     59213850            0     59214742    12.683329    22.437743    14.766684    19.735299    36.005784    67.409552    12.612127     22.30075    14.235163 
  302600    214.82822     59213901            0     59214737    12.683245    22.437756    14.766816    19.726958    36.007124    67.422746    12.612127     22.30075    14.235163 
  302800    279.72355     59212614            0     59213703    12.683329    22.437764    14.766686     19.73532    36.007862    67.409726    12.612127     22.30075    14.235163 
  303000    135.46269     59214533            0     59215060    12.683293    22.437714    14.767303    19.731747    36.002906    67.471497    12.612127     22.30075    14.235163 
  303200    409.27172     59213916            0     59215509    12.683308    22.437763    14.766966    19.733209     36.00782    67.437735    12.612127     22.30075    14.235163 
  303400    447.80502     59212113            0     59213856    12.683226    22.437784    14.766215    19.725093    36.009951    67.362654    12.612127     22.30075    14.235163 
  303600    239.43859     59213666            0     59214598    12.683312    22.437739    14.765787    19.733642    36.005443    67.319802    12.612127     22.30075    14.235163 
  303800    267.96359     59213350            0     59214393    12.683325    22.437762    14.766526    19.734909    36.007759    67.393789    12.612127     22.30075    14.235163 
  304000    160.64671     59213225            0     59213850    12.683296    22.437731    14.767298    19.732087    36.004603    67.470974    12.612127     22.30075    14.235163 
  304200    278.48138     59213730            0     59214814    12.683382    22.437738    14.767463    19.740638    36.005344    67.487525    12.612127     22.30075    14.235163 
  304400    203.33341     59212836            0     59213627     12.68332    22.437736    14.766475      19.7344    36.005148    67.388604    12.612127     22.30075    14.235163 
  304600    464.24575     59212667            0     59214474    12.683313    22.437719    14.766904    19.733766    36.003386    67.431543    12.612127     22.30075    14.235163 
  304800    357.76825     59212453            0     59213846    12.683293    22.437746    14.766864    19.731703    36.006141    67.427573    12.612127     22.30075    14.235163 
  305000    149.21105     59211152            0     59211733    12.683393    22.437737    14.766447    19.741771    36.005173    67.385866    12.612127     22.30075    14.235163 
  305200     178.3321     59212598            0     59213292    12.683338    22.437741    14.766722    19.736222    36.005648    67.413312    12.612127     22.30075    14.235163 
  305400    254.24337     59211345            0     59212335     12.68334    22.437784    14.766149    19.736497    36.009916    67.356025    12.612127     22.30075    14.235163 
  305600    203.45618     59212028            0     59212820    12.683298    22.437781    14.766797    19.732258    36.009569    67.420818    12.612127     22.30075    14.235163 
  305800    308.91351     59212979            0     59214182    12.683294     22.43775    14.766111     19.73183    36.006514    67.352193    12.612127     22.30075    14.235163 
  306000    189.51413     59212164            0     59212902    12.683294    22.437803    14.765773    19.731813    36.011789    67.318451    12.612127     22.30075    14.235163 
  306200     186.0617     59213097            0     59213821    12.683293    22.437782    14.765761    19.731779    36.009695    67.317214    12.612127     22.30075    14.235163 
  306400    187.63105     59211829            0     59212560    12.683315    22.437798    14.766605    19.733926    36.011306     67.40163    12.612127     22.30075    14.235163 
  306600    329.17276     59212307            0     59213588    12.683326    22.437742    14.766397    19.734999    36.005681    67.380839    12.612127     22.30075    14.235163 
  306800    85.465385     59214432            0     59214764    12.683282    22.437733    14.766651    19.730596    36.004773    67.406221    12.612127     22.30075    14.235163 
  307000    358.64753     59212220            0     59213616    12.683276    22.437695    14.766585    19.730085    36.001013    67.399684    12.612127     22.30075    14.235163 
  307200    321.51878     59213587            0     59214838    12.683335    22.437811    14.766279     19.73592    36.012631     67.36901    12.612127     22.30075    14.235163 
  307400    295.76774     59214021            0     59215173    12.683293    22.437751    14.767163     19.73176    36.006624    67.457448    12.612127     22.30075    14.235163 
  307600    194.16941     59213130            0     59213886     12.68341    22.437813    14.766756    19.743411    36.012793    67.416757    12.612127     22.30075    14.235163 
  307800    167.45629     59212417            0     59213069    12.683395     22.43772    14.766418    19.741902    36.003472    67.382986    12.612127     22.30075    14.235163 
  308000    300.90195     59210915            0     59212086    12.683259    22.437731    14.766168    19.728361    36.004624    67.357887    12.612127     22.30075    14.235163 
  308200    454.20007     59211477            0     59213246    12.683353    22.437753    14.766339    19.737767    36.006787    67.375077    12.612127     22.30075    14.235163 
  308400    310.94997     59211753            0     59212963    12.683293    22.437735    14.765973    19.731713    36.005038    67.338472    12.612127     22.30075    14.235163 
  308600     227.4653     59213422            0     59214308    12.683347    22.437771    14.765817    19.737108    36.008591    67.322775    12.612127     22.30075    14.235163 
  308800    115.85752     59213448            0     59213899    12.683295    22.437765    14.766583    19.731925    36.007998    67.399419    12.612127     22.30075    14.235163 
  309000    287.48344     59212147            0     59213267    12.683282    22.437773    14.766486    19.730636    36.008829     67.38971    12.612127     22.30075    14.235163 
  309200    295.32959     59210556            0     59211706    12.683287    22.437744    14.766245    19.731104    36.005944    67.365614    12.612127     22.30075    14.235163 
  309400    204.07432     59211393            0     59212188    12.683309     22.43775    14.766192    19.733389    36.006472    67.360372    12.612127     22.30075    14.235163 
  309600    64.187379     59213326            0     59213576    12.683301    22.437727    14.766484    19.732559    36.004186    67.389522    12.612127     22.30075    14.235163 
  309800     198.6979     59213796            0     59214570    12.683327    22.437773    14.766401    19.735135    36.008771    67.381217    12.612127     22.30075    14.235163 
  310000    162.30252     59211151            0     59211783    12.683319    22.437747    14.766652    19.734384    36.006166    67.406353    12.612127     22.30075    14.235163 
  310200    425.27388     59212024            0     59213680    12.683323    22.437756    14.765906     19.73474    36.007154    67.331732    12.612127     22.30075    14.235163 
  310400    120.49519     59213479            0     59213948    12.683269    22.437738    14.765789    19.729346     36.00527    67.320052    12.612127     22.30075    14.235163 
  310600    175.12603     59214709            0     59215390    12.683331    22.437734     14.76594    19.735515     36.00494    67.335094    12.612127     22.30075    14.235163 
  310800    328.38168     59214104            0     59215382    12.683233    22.437711    14.766036     19.72578    36.002624    67.344773    12.612127     22.30075    14.235163 
  311000    419.32426     59212615            0     59214247    12.683325    22.437758    14.766576    19.734955    36.007289    67.398761    12.612127     22.30075    14.235163 
  311200    179.18657     59212310            0     59213007    12.683282    22.437757    14.765747    19.730628    36.007167    67.315823    12.612127     22.30075    14.235163 
  311400    350.23281     59211121            0     59212484    12.683299    22.437752     14.76588    19.732394    36.006701    67.329154    12.612127     22.30075    14.235163 
  311600    277.15921     59212470            0     59213549    12.683311    22.437739    14.765968    19.733543    36.005441    67.337925    12.612127     22.30075    14.235163 
  311800    152.85577     59211768            0     59212363    12.683317     22.43778    14.766438    19.734108    36.009531    67.384944    12.612127     22.30075    14.235163 
  312000    255.97976     59211298            0     59212295    12.683317    22.437756    14.766068    19.734128    36.007103    67.347977    12.612127     22.30075    14.235163 
  312200    174.60462     59212516            0     59213196    12.683347    22.437783    14.766141    19.737189    36.009859    67.355272    12.612127     22.30075    14.235163 
  312400     152.9455     59212857            0     59213453    12.683309    22.437752    14.766554    19.733387    36.006705    67.396564    12.612127     22.30075    14.235163 
  312600    280.41764     59211100            0     59212192    12.683315    22.437754    14.766232    19.733993    36.006865    67.364339    12.612127     22.30075    14.235163 
  312800    383.86801     59213648            0     59215143    12.683299    22.437773    14.766833    19.732332    36.008817     67.42444    12.612127     22.30075    14.235163 
  313000    306.24885     59212753            0     59213945    12.683307    22.437766    14.765781     19.73312    36.008099    67.319231    12.612127     22.30075    14.235163 
  313200    214.70522     59213322            0     59214158    12.683303    22.437726    14.766462    19.732742    36.004153    67.387307    12.612127     22.30075    14.235163 
  313400    233.41659     59211456            0     59212365    12.683342     22.43773    14.765901    19.736606    36.004556    67.331185    12.612127     22.30075    14.235163 
  313600    203.58371     59211704            0     59212497    12.683314    22.437736     14.76652    19.733868    36.005099    67.393163    12.612127     22.30075    14.235163 
  313800    244.90181     59212646            0     59213600    12.683311    22.437805    14.765911    19.733586     36.01205    67.332258    12.612127     22.30075    14.235163 
  314000    181.00504     59213239            0     59213943     12.68327    22.437752    14.766971    19.729428    36.006668    67.438242    12.612127     22.30075    14.235163 
  314200    329.54681     59215548            0     59216831    12.683349    22.437771    14.767104     19.73731    36.008583    67.451607    12.612127     22.30075    14.235163 
  314400    496.17312     59212104            0     59214036    12.683292    22.437723    14.766302    19.731613    36.003785    67.371301    12.612127     22.30075    14.235163 
  314600    264.58319     59211415            0     59212445    12.683327    22.437739     14.76637    19.735179    36.005415    67.378134    12.612127     22.30075    14.235163 
  314800    274.18472     59212121            0     59213188    12.683347    22.437751    14.766623    19.737145    36.006594    67.403497    12.612127     22.30075    14.235163 
  315000    178.25422     59212046            0     59212740    12.683303    22.437736    14.766141    19.732751    36.005137    67.355282    12.612127     22.30075    14.235163 
  315200    247.19579     59212109            0     59213072    12.683309    22.437763    14.765901    19.733372    36.007842      67.3312    12.612127     22.30075    14.235163 
  315400    161.72817     59214158            0     59214788    12.683264    22.437742    14.765217    19.728884    36.005672    67.262747    12.612127     22.30075    14.235163 
  315600    149.38913     59212607            0     59213188    12.683309    22.437745    14.765687    19.733334    36.006024    67.309837    12.612127     22.30075    14.235163 
  315800    85.355982     59213566            0     59213898    12.683309    22.437762    14.766972    19.733365    36.007754    67.438363    12.612127     22.30075    14.235163 
  316000    163.68457     59214211            0     59214848    12.683297    22.437741    14.766698    19.732196    36.005612    67.410951    12.612127     22.30075    14.235163 
  316200    229.81364     59212957            0     59213851    12.683354    22.437759    14.766393    19.737884    36.007425    67.380493    12.612127     22.30075    14.235163 
  316400    223.51518     59214605            0     59215475    12.683274    22.437772    14.766159    19.729854    36.008683    67.357064    12.612127     22.30075    14.235163 
  316600    182.19291     59213554            0     59214263    12.683331    22.437793    14.766887    19.735584    36.010854     67.42982    12.612127     22.30075    14.235163 
  316800    242.84057     59214057            0     59215002    12.683319    22.437736     14.76714    19.734377    36.005123    67.455146    12.612127     22.30075    14.235163 
  317000    218.20535     59211904            0     59212753    12.683303    22.437738    14.766152    19.732775    36.005354    67.356304    12.612127     22.30075    14.235163 
  317200    166.92553     59215582            0     59216232    12.683305    22.437758    14.767309    19.732934    36.007327    67.472079    12.612127     22.30075    14.235163 
  317400    196.59857     59214791            0     59215556    12.683279    22.437755    14.767434    19.730344    36.006998    67.484569    12.612127     22.30075    14.235163 
  317600    216.92405     59214424            0     59215268    12.683331    22.437752    14.766573    19.735593    36.006757    67.398431    12.612127     22.30075    14.235163 
  317800    163.22019     59212145            0     59212780    12.683317    22.437681    14.766878    19.734123    35.999604    67.429006    12.612127     22.30075    14.235163 
  318000    175.26349     59212369            0     59213051    12.683265    22.437696    14.766486     19.72899    36.001097    67.389742    12.612127     22.30075    14.235163 
  318200    245.76731     59213117            0     59214074    12.683348    22.437777    14.766512    19.737215     36.00918    67.392349    12.612127     22.30075    14.235163 
  318400     415.9829     59213537            0     59215157     12.68328    22.437783    14.766648    19.730421    36.009765    67.405968    12.612127     22.30075    14.235163 
  318600     257.2312     59213157            0     59214159    12.683303    22.437775    14.766349    19.732724     36.00903    67.376019    12.612127     22.30075    14.235163 
  318800     271.3193     59213241            0     59214298    12.683333    22.437727    14.765867    19.735737    36.004189    67.327835    12.612127     22.30075    14.235163 
  319000    185.47801     59212143            0     59212865    12.683322    22.437708    14.766253    19.734642    36.002318    67.366417    12.612127     22.30075    14.235163 
  319200     290.7433     59211944            0     59213076    12.683306    22.437758    14.766178    19.733004    36.007262    67.358899    12.612127     22.30075    14.235163 
  319400    284.93698     59214852            0     59215961    12.683316    22.437723     14.76635    19.734049    36.003853    67.376101    12.612127     22.30075    14.235163 
  319600    188.17096     59214822            0     59215555    12.683283    22.437795    14.766784    19.730749    36.010986    67.419579    12.612127     22.30075    14.235163 
  319800    422.13314     59210680            0     59212323    12.683276    22.437731    14.766118    19.730061    36.004594    67.352945    12.612127     22.30075    14.235163 
  320000    285.49116     59212049            0     59213160    12.683296    22.437755    14.766357    19.732046    36.007017    67.376892    12.612127     22.30075    14.235163 
  320200    220.25646     59211034            0     59211891    12.683351     22.43776    14.766462    19.737576    36.007528    67.387373    12.612127     22.30075    14.235163 
  320400     155.8017     59211751            0     59212357    12.683266    22.437754    14.766658    19.729091    36.006921    67.406947    12.612127     22.30075    14.235163 
  320600    234.61212     59213229            0     59214142    12.683355    22.437787    14.766107    19.737926    36.010166     67.35186    12.612127     22.30075    14.235163 
  320800    236.43088     59214340            0     59215260    12.683311    22.437714    14.765449    19.733571    36.002904    67.285967    12.612127     22.30075    14.235163 
  321000    205.32948     59213790            0     59214589    12.683271    22.437804    14.766397    19.729579    36.011885    67.380809    12.612127     22.30075    14.235163 
  321200    231.03836     59213304            0     59214204    12.683363    22.437716    14.765973    19.738772    36.003059    67.338444    12.612127     22.30075    14.235163 
  321400    222.75461     59214209            0     59215076    12.683329    22.437612    14.767151    19.735302    35.992671    67.456293    12.612127     22.30075    14.235163 
  321600    275.04352     59215836            0     59216907    12.683254    22.437811    14.766978    19.727839    36.012577    67.439016    12.612127     22.30075    14.235163 
  321800    133.61721     59214372            0     59214892    12.683303    22.437767    14.765813    19.732762    36.008245    67.322463    12.612127     22.30075    14.235163 
  322000    292.25277     59212912            0     59214050    12.683287    22.437783    14.766408    19.731185    36.009777     67.38195    12.612127     22.30075    14.235163 
  322200    183.41988     59216745            0     59217459    12.683307    22.437767    14.766187    19.733172    36.008201    67.359854    12.612127     22.30075    14.235163 
  322400    283.75968     59212142            0     59213247    12.683286    22.437769    14.766141    19.731085    36.008423    67.355284    12.612127     22.30075    14.235163 
  322600    355.52173     59213564            0     59214948    12.683315    22.437754    14.765837    19.733976    36.006879    67.324822    12.612127     22.30075    14.235163 
  322800    154.08484     59213974            0     59214574    12.683268    22.437729    14.766513     19.72923    36.004439    67.392481    12.612127     22.30075    14.235163 
  323000    243.58824     59213726            0     59214674    12.683318    22.437744    14.765868    19.734253    36.005917     67.32794    12.612127     22.30075    14.235163 
  323200    187.55914     59213227            0     59213957    12.683315    22.437774    14.766076    19.733934    36.008928    67.348726    12.612127     22.30075    14.235163 
  323400    419.79223     59212534            0     59214168    12.683325    22.437766    14.766609    19.734967    36.008086     67.40205    12.612127     22.30075    14.235163 
  323600    376.88546     59212999            0     59214466    12.683296    22.437793    14.767002    19.732044    36.010765    67.441377    12.612127     22.30075    14.235163 
  323800    144.43097     59213596            0     59214158    12.683293    22.437726    14.766515    19.731759    36.004106    67.392663    12.612127     22.30075    14.235163 
  324000    415.23448     59213448            0     59215065    12.683326    22.437756    14.766325    19.735081    36.007074    67.373647    12.612127     22.30075    14.235163 
  324200    261.15292     59211374            0     59212391    12.683348    22.437771    14.766416    19.737248     36.00858     67.38277    12.612127     22.30075    14.235163 
  324400    219.93683     59211980            0     59212836    12.683351    22.437749     14.76654    19.737573    36.006435    67.395152    12.612127     22.30075    14.235163 
  324600    555.08442     59212236            0     59214397    12.683359    22.437742    14.766318    19.738316    36.005736    67.372933    12.612127     22.30075    14.235163 
  324800    98.277771     59212105            0     59212487    12.683298    22.437731     14.76659    19.732214    36.004641    67.400139    12.612127     22.30075    14.235163 
  325000    345.99966     59212055            0     59213402    12.683309    22.437741    14.766465    19.733322    36.005631    67.387639    12.612127     22.30075    14.235163 
  325200    230.01785     59212639            0     59213535    12.683291    22.437748     14.76657    19.731528    36.006329    67.398168    12.612127     22.30075    14.235163 
  325400      178.476     59213065            0     59213760    12.683318    22.437726     14.76668    19.734258    36.004062    67.409194    12.612127     22.30075    14.235163 
  325600    360.58312     59213369            0     59214773    12.683356    22.437736    14.766394    19.738003    36.005148    67.380521    12.612127     22.30075    14.235163 
  325800    243.01141     59213406            0     59214352    12.683345    22.437788    14.766653    19.736921    36.010296    67.406498    12.612127     22.30075    14.235163 
  326000    239.49104     59211216            0     59212148    12.683328    22.437756    14.766526    19.735285    36.007137    67.393758    12.612127     22.30075    14.235163 
  326200    257.95391     59212907            0     59213911    12.683315    22.437753    14.767064    19.733918    36.006836    67.447559    12.612127     22.30075    14.235163 
  326400    105.49215     59211847            0     59212257    12.683263    22.437758    14.766254    19.728754    36.007286    67.366582    12.612127     22.30075    14.235163 
  326600    207.24441     59211656            0     59212463    12.683315    22.437759     14.76619    19.733986    36.007414    67.360157    12.612127     22.30075    14.235163 
  326800    282.30057     59211183            0     59212282    12.683342    22.437772    14.765967    19.736609    36.008749    67.337826    12.612127     22.30075    14.235163 
  327000    337.13658     59211765            0     59213077    12.683288    22.437765    14.766514    19.731223    36.008011    67.392508    12.612127     22.30075    14.235163 
  327200    585.14492     59212036            0     59214314    12.683304     22.43775    14.766351    19.732885    36.006471    67.376281    12.612127     22.30075    14.235163 
  327400    335.25188     59212454            0     59213759    12.683314    22.437746    14.766408    19.733801    36.006157     67.38198    12.612127     22.30075    14.235163 
  327600    263.27739     59212048            0     59213073    12.683311    22.437779    14.766722     19.73351    36.009378    67.413357    12.612127     22.30075    14.235163 
  327800     350.3867     59210741            0     59212105     12.68331    22.437735    14.766137     19.73344    36.005037    67.354878    12.612127     22.30075    14.235163 
  328000      376.999     59212559            0     59214027    12.683278     22.43777    14.765851    19.730271    36.008495    67.326223    12.612127     22.30075    14.235163 
  328200    119.29099     59213665            0     59214129    12.683312    22.437746    14.765777     19.73366    36.006127    67.318848    12.612127     22.30075    14.235163 
  328400    188.75906     59213407            0     59214142    12.683273     22.43774    14.766056    19.729763     36.00547    67.346693    12.612127     22.30075    14.235163 
  328600    229.17836     59213532            0     59214424    12.683313    22.437768    14.766641    19.733796    36.008352    67.405212    12.612127     22.30075    14.235163 
  328800    170.55594     59212918            0     59213582    12.683293    22.437698    14.766498      19.7317    36.001325    67.390946    12.612127     22.30075    14.235163 
  329000    121.10791     59212853            0     59213324    12.683315    22.437754    14.766592    19.733978    36.006885    67.400359    12.612127     22.30075    14.235163 
  329200     265.3865     59215014            0     59216047    12.683314    22.437763     14.76621    19.733814    36.007804    67.362126    12.612127     22.30075    14.235163 
  329400    323.03267     59212801            0     59214058    12.683388    22.437715    14.766441    19.741241    36.003001    67.385227    12.612127     22.30075    14.235163 
  329600    327.25369     59212268            0     59213542    12.683289    22.437793    14.765945    19.731366    36.010767    67.335619    12.612127     22.30075    14.235163 
  329800    328.51933     59210875            0     59212154    12.683316    22.437754    14.766292     19.73409    36.006883    67.370377    12.612127     22.30075    14.235163 
  330000    245.60272     59210931            0     59211887    12.683331    22.437753    14.766064    19.735591    36.006797    67.347507    12.612127     22.30075    14.235163 
  330200    362.18378     59211758            0     59213168    12.683291    22.437722    14.765832    19.731517    36.003708    67.324304    12.612127     22.30075    14.235163 
  330400    326.72268     59212458            0     59213730    12.683301    22.437749    14.766769    19.732503     36.00636    67.418092    12.612127     22.30075    14.235163 
  330600    265.75709     59212100            0     59213134    12.683292    22.437777    14.766745    19.731596    36.009261     67.41571    12.612127     22.30075    14.235163 
  330800    228.00892     59213040            0     59213928    12.683322    22.437731    14.766403    19.734673     36.00456    67.381453    12.612127     22.30075    14.235163 
  331000    134.96527     59213693            0     59214218    12.683241    22.437764      14.7663    19.726523    36.007916    67.371146    12.612127     22.30075    14.235163 
  331200    223.46697     59213349            0     59214219     12.68333    22.437727    14.766426      19.7354    36.004194     67.38375    12.612127     22.30075    14.235163 
  331400    198.74164     59213546            0     59214319    12.683292    22.437731    14.766003    19.731679    36.004569    67.341403    12.612127     22.30075    14.235163 
  331600    249.68954     59213560            0     59214532    12.683359    22.437767    14.765852    19.738345    36.008212    67.326333    12.612127     22.30075    14.235163 
  331800    235.82905     59214547            0     59215465    12.683296    22.437768    14.766027    19.732016    36.008335    67.343824    12.612127     22.30075    14.235163 
  332000    277.89303     59214557            0     59215639     12.68329    22.437704    14.766981    19.731488    36.001926    67.439249    12.612127     22.30075    14.235163 
  332200    100.42506     59212058            0     59212449    12.683287    22.437715    14.766451    19.731123    36.003038    67.386285    12.612127     22.30075    14.235163 
  332400    159.29085     59212079            0     59212699    12.683326    22.437752    14.766175     19.73502    36.006692    67.358605    12.612127     22.30075    14.235163 
  332600    159.01922     59210598            0     59211217    12.683279    22.437781    14.765754    19.730378    36.009616    67.316554    12.612127     22.30075    14.235163 
  332800    94.329815     59213433            0     59213800    12.683305     22.43774     14.76628    19.732969    36.005548    67.369096    12.612127     22.30075    14.235163 
  333000    348.51253     59212085            0     59213441    12.683325    22.437743    14.765994    19.734956    36.005776    67.340558    12.612127     22.30075    14.235163 
  333200    178.70094     59212927            0     59213623    12.683288    22.437752    14.765629     19.73122    36.006677    67.303994    12.612127     22.30075    14.235163 
  333400    248.36514     59213885            0     59214852    12.683323    22.437734    14.765976    19.734796    36.004927    67.338739    12.612127     22.30075    14.235163 
  333600    124.96258     59214389            0     59214876    12.683286    22.437785    14.766115    19.731012    36.010026    67.352614    12.612127     22.30075    14.235163 
  333800    281.81769     59214291            0     59215388    12.683291    22.437816    14.766567    19.731515    36.013139    67.397894    12.612127     22.30075    14.235163 
  334000    195.02219     59213090            0     59213849    12.683295    22.437708    14.765999    19.731964    36.002275    67.340999    12.612127     22.30075    14.235163 
  334200    129.41409     59213358            0     59213862    12.683298    22.437718    14.766251    19.732201    36.003343    67.366235    12.612127     22.30075    14.235163 
  334400    539.42034     59211860            0     59213960    12.683332    22.437751    14.765928    19.735688    36.006628    67.333886    12.612127     22.30075    14.235163 
  334600    439.19668     59212870            0     59214580    12.683318    22.437713    14.766396    19.734284    36.002769    67.380698    12.612127     22.30075    14.235163 
  334800    317.26536     59213501            0     59214737    12.683383    22.437788    14.766667    19.740787    36.010297    67.407827    12.612127     22.30075    14.235163 
  335000    392.36185     59211153            0     59212680    12.683328    22.437755    14.766055     19.73521    36.007048    67.346602    12.612127     22.30075    14.235163 
  335200    437.91498     59210914            0     59212619    12.683357    22.437718    14.765976     19.73812    36.003344    67.338774    12.612127     22.30075    14.235163 
  335400    269.86946     59212419            0     59213469    12.683279     22.43773    14.766172    19.730368    36.004515    67.358369    12.612127     22.30075    14.235163 
  335600    267.96522     59212503            0     59213546    12.683317    22.437749    14.766579    19.734139      36.0064    67.399042    12.612127     22.30075    14.235163 
  335800    337.73206     59211578            0     59212893    12.683367    22.437763    14.766296     19.73915    36.007852    67.370719    12.612127     22.30075    14.235163 
  336000    322.58089     59211944            0     59213200    12.683297    22.437777    14.766607    19.732137    36.009253    67.401872    12.612127     22.30075    14.235163 
  336200    108.05556     59211260            0     59211681    12.683268    22.437715     14.76589    19.729233    36.002968    67.330122    12.612127     22.30075    14.235163 
  336400    179.73214     59210719            0     59211419    12.683352    22.437778    14.766287    19.737642    36.009333    67.369886    12.612127     22.30075    14.235163 
  336600    240.11399     59213087            0     59214022    12.683305    22.437738    14.766904    19.732971    36.005267    67.431535    12.612127     22.30075    14.235163 
  336800    385.22572     59211348            0     59212847    12.683315    22.437762    14.766515      19.7339    36.007696    67.392694    12.612127     22.30075    14.235163 
  337000    297.76596     59214109            0     59215269    12.683334    22.437771    14.765892    19.735849    36.008603    67.330321    12.612127     22.30075    14.235163 
  337200    287.44656     59212714            0     59213833    12.683297    22.437739    14.766373    19.732151    36.005367      67.3784    12.612127     22.30075    14.235163 
  337400    321.07819     59212265            0     59213515    12.683323     22.43777    14.766848    19.734732    36.008545    67.426011    12.612127     22.30075    14.235163 
  337600    201.71033     59210954            0     59211739    12.683306    22.437759    14.766386    19.733008    36.007402    67.379759    12.612127     22.30075    14.235163 
  337800    105.59074     59212525            0     59212936     12.68335     22.43775    14.766128    19.737476    36.006468    67.353923    12.612127     22.30075    14.235163 
  338000    193.78507     59211571            0     59212326    12.683332    22.437717    14.766278    19.735642    36.003251    67.368956    12.612127     22.30075    14.235163 
  338200    422.17906     59210612            0     59212256    12.683278    22.437705    14.766044    19.730203    36.002005    67.345539    12.612127     22.30075    14.235163 
  338400    278.38104     59212702            0     59213786    12.683328    22.437738    14.766198    19.735241    36.005334    67.360956    12.612127     22.30075    14.235163 
  338600    234.21476     59212635            0     59213546    12.683343    22.437771    14.765967    19.736781    36.008594     67.33783    12.612127     22.30075    14.235163 
  338800     227.2659     59213417            0     59214302    12.683315    22.437752    14.766404    19.733952    36.006724    67.381515    12.612127     22.30075    14.235163 
  339000    207.69879     59213083            0     59213892    12.683325    22.437756    14.765733    19.734909    36.007128    67.314425    12.612127     22.30075    14.235163 
  339200    302.59625     59211930            0     59213108    12.683286    22.437728    14.766442    19.731065    36.004331    67.385345    12.612127     22.30075    14.235163 
  339400    256.79501     59211276            0     59212276    12.683326    22.437763    14.766582    19.735064    36.007793    67.399336    12.612127     22.30075    14.235163 
  339600    378.95909     59212019            0     59213494     12.68331    22.437752    14.766102    19.733467    36.006686    67.351326    12.612127     22.30075    14.235163 
  339800    144.38761     59212347            0     59212909    12.683306    22.437716    14.766473    19.733031    36.003104    67.388486    12.612127     22.30075    14.235163 
  340000    297.25562     59212715            0     59213872    12.683315    22.437754    14.766006    19.733952     36.00688    67.341746    12.612127     22.30075    14.235163 
  340200    228.21616     59211170            0     59212059    12.683332    22.437767    14.766085    19.735625     36.00823    67.349682    12.612127     22.30075    14.235163 
  340400    339.87548     59210398            0     59211721    12.683293    22.437766    14.766066    19.731728    36.008111    67.347742    12.612127     22.30075    14.235163 
  340600    429.13778     59213300            0     59214971    12.683338    22.437837    14.766705    19.736241    36.015204     67.41163    12.612127     22.30075    14.235163 
  340800    206.33878     59212213            0     59213016     12.68333    22.437753    14.766534    19.735498    36.006807    67.394525    12.612127     22.30075    14.235163 
  341000    376.13286     59211642            0     59213106    12.683301    22.437714    14.765996    19.732568    36.002896    67.340708    12.612127     22.30075    14.235163 
  341200    81.982797     59214084            0     59214403    12.683263    22.437697     14.76575     19.72879     36.00125    67.316103    12.612127     22.30075    14.235163 
  341400    352.18538     59212626            0     59213997    12.683306     22.43776     14.76609    19.733065    36.007466    67.350143    12.612127     22.30075    14.235163 
  341600    116.69741     59210786            0     59211241    12.683285    22.437793    14.766073    19.730935    36.010812    67.348452    12.612127     22.30075    14.235163 
  341800    176.60791     59211046            0     59211734    12.683314    22.437714    14.766398     19.73381     36.00294    67.380942    12.612127     22.30075    14.235163 
  342000    324.95568     59212431            0     59213696    12.683308    22.437775    14.766421    19.733277    36.008966    67.383223    12.612127     22.30075    14.235163 
  342200    335.57737     59213114            0     59214421    12.683318    22.437703    14.766441    19.734213    36.001807    67.385289    12.612127     22.30075    14.235163 
  342400    326.83381     59211011            0     59212284    12.683335    22.437799    14.766168    19.735962    36.011412    67.357896    12.612127     22.30075    14.235163 
  342600    380.96998     59211249            0     59212732    12.683267     22.43774    14.766119     19.72919    36.005551    67.353048    12.612127     22.30075    14.235163 
  342800    309.27471     59213339            0     59214543    12.683387    22.437755    14.766162    19.741111    36.007055    67.357305    12.612127     22.30075    14.235163 
  343000     260.9948     59212409            0     59213425    12.683371    22.437743     14.76659    19.739588    36.005808    67.400184    12.612127     22.30075    14.235163 
  343200    232.45687     59211577            0     59212482    12.683301    22.437753    14.766292    19.732561    36.006779     67.37034    12.612127     22.30075    14.235163 
  343400     150.6841     59211413            0     59212000     12.68332    22.437752    14.766053    19.734406    36.006688    67.346409    12.612127     22.30075    14.235163 
  343600    462.96742     59211547            0     59213349    12.683294    22.437739     14.76662    19.731895    36.005377    67.403157    12.612127     22.30075    14.235163 
  343800    370.79465     59211399            0     59212842    12.683292    22.437789    14.766012    19.731673    36.010427    67.342285    12.612127     22.30075    14.235163 
  344000    199.93283     59214094            0     59214872     12.68334    22.437766    14.765945    19.736408    36.008069    67.335636    12.612127     22.30075    14.235163 
  344200    304.78433     59211869            0     59213056    12.683301    22.437749    14.766474    19.732547    36.006405    67.388579    12.612127     22.30075    14.235163 
  344400    110.76982     59212881            0     59213313    12.683295    22.437722    14.766516    19.731976    36.003701     67.39276    12.612127     22.30075    14.235163 
  344600    345.94321     59212601            0     59213948    12.683314     22.43776    14.766075    19.733865    36.007542     67.34863    12.612127     22.30075    14.235163 
  344800    168.02882     59212788            0     59213442    12.683305    22.437783     14.76688     19.73297    36.009853     67.42915    12.612127     22.30075    14.235163 
  345000     299.6232     59211641            0     59212807    12.683345    22.437767    14.766459     19.73691    36.008192     67.38703    12.612127     22.30075    14.235163 
  345200     120.0048     59211876            0     59212343    12.683285    22.437756    14.766165    19.730961     36.00709    67.357603    12.612127     22.30075    14.235163 
  345400    144.45658     59210850            0     59211412    12.683352    22.437762    14.765962     19.73768    36.007682    67.337338    12.612127     22.30075    14.235163 
  345600    327.16637     59211160            0     59212433    12.683331    22.437787    14.765946     19.73558    36.010207    67.335738    12.612127     22.30075    14.235163 
  345800    146.17586     59211016            0     59211586    12.683288    22.437745    14.766464    19.731224    36.006016    67.387532    12.612127     22.30075    14.235163 
  346000    388.89535     59211077            0     59212590    12.683344    22.437771    14.766051    19.736883    36.008635    67.346183    12.612127     22.30075    14.235163 
  346200    269.16116     59210530            0     59211578    12.683346    22.437808    14.766238    19.737015    36.012294    67.364912    12.612127     22.30075    14.235163 
  346400    288.32517     59210994            0     59212116    12.683315    22.437756    14.766059    19.733956    36.007094    67.347065    12.612127     22.30075    14.235163 
  346600    265.74639     59213178            0     59214212    12.683343    22.437803    14.766191    19.736701    36.011816    67.360253    12.612127     22.30075    14.235163 
  346800    375.34752     59213401            0     59214862    12.683327    22.437763    14.766334    19.735164    36.007859      67.3745    12.612127     22.30075    14.235163 
  347000    421.61781     59211748            0     59213389    12.683291    22.437759    14.766303    19.731589    36.007402     67.37149    12.612127     22.30075    14.235163 
  347200    341.12678     59213004            0     59214332    12.683289    22.437725    14.766326    19.731301    36.004043    67.373758    12.612127     22.30075    14.235163 
  347400    242.55914     59214255            0     59215200    12.683274    22.437715    14.766258    19.729853    36.003044    67.366914    12.612127     22.30075    14.235163 
  347600    322.85139     59212170            0     59213427    12.683293    22.437759    14.766728    19.731757    36.007374    67.414006    12.612127     22.30075    14.235163 
  347800    155.18509     59211426            0     59212031    12.683287     22.43774    14.766556    19.731195    36.005464    67.396718    12.612127     22.30075    14.235163 
  348000    461.40576     59212382            0     59214178     12.68327    22.437766    14.766282    19.729461    36.008074    67.369334    12.612127     22.30075    14.235163 
  348200    252.50213     59212577            0     59213560    12.683344    22.437756    14.766956    19.736804    36.007069    67.436808    12.612127     22.30075    14.235163 
  348400     230.8743     59212077            0     59212976    12.683286    22.437743    14.766162    19.731086    36.005846    67.357352    12.612127     22.30075    14.235163 
  348600    303.55994     59211716            0     59212898    12.683314    22.437744    14.766338    19.733854     36.00591    67.374956    12.612127     22.30075    14.235163 
  348800    153.55305     59212133            0     59212731    12.683276    22.437756    14.766269    19.730086    36.007155    67.368032    12.612127     22.30075    14.235163 
  349000    367.63801     59213134            0     59214565    12.683319    22.437739    14.766707    19.734309    36.005422    67.411886    12.612127     22.30075    14.235163 
  349200    265.03848     59212559            0     59213590    12.683311    22.437804    14.766025    19.733564    36.011894    67.343677    12.612127     22.30075    14.235163 
  349400    357.04156     59213509            0     59214899    12.683374    22.437722    14.765936    19.739807     36.00375    67.334717    12.612127     22.30075    14.235163 
  349600    350.87459     59210926            0     59212292    12.683317    22.437724    14.766158    19.734145    36.003916    67.356908    12.612127     22.30075    14.235163 
  349800    347.83295     59211686            0     59213040    12.683335    22.437759    14.766226    19.735957     36.00744    67.363724    12.612127     22.30075    14.235163 
  350000    131.15568     59211169            0     59211679    12.683303    22.437759    14.766202    19.732718    36.007441    67.361337    12.612127     22.30075    14.235163 
  350200    131.15986     59212650            0     59213161    12.683324    22.437719    14.765711    19.734864    36.003399    67.312189    12.612127     22.30075    14.235163 
  350400    316.98381     59212224            0     59213458    12.683344     22.43778    14.766268     19.73688    36.009476    67.367893    12.612127     22.30075    14.235163 
  350600    201.66478     59212914            0     59213699    12.683347    22.437765    14.766477    19.737117    36.008052    67.388879    12.612127     22.30075    14.235163 
  350800    198.02343     59213018            0     59213788     12.68329    22.437772     14.76594    19.731466    36.008669    67.335087    12.612127     22.30075    14.235163 
  351000     259.2746     59214516            0     59215526    12.683301    22.437784    14.766411    19.732559    36.009886    67.382288    12.612127     22.30075    14.235163 
  351200    292.50258     59214433            0     59215571    12.683268    22.437759    14.765824    19.729233    36.007361     67.32351    12.612127     22.30075    14.235163 
  351400     205.1436     59212515            0     59213314    12.683321    22.437756    14.765638    19.734583    36.007132    67.304908    12.612127     22.30075    14.235163 
  351600    182.20764     59211079            0     59211789    12.683325    22.437768    14.766008     19.73497    36.008349    67.341942    12.612127     22.30075    14.235163 
  351800    463.37936     59212007            0     59213811    12.683329    22.437761    14.765924    19.735379    36.007575    67.333538    12.612127     22.30075    14.235163 
  352000    122.78603     59211368            0     59211846    12.683313    22.437722    14.766076    19.733745    36.003704    67.348741    12.612127     22.30075    14.235163 
  352200    97.117385     59211283            0     59211661    12.683331     22.43776    14.766252    19.735549    36.007514    67.366342    12.612127     22.30075    14.235163 
  352400    256.28454     59213404            0     59214401    12.683319    22.437761     14.76663    19.734322    36.007629    67.404171    12.612127     22.30075    14.235163 
  352600    200.81014     59213042            0     59213824    12.683362    22.437733    14.766807    19.738686    36.004832    67.421875    12.612127     22.30075    14.235163 
  352800    281.50111     59213340            0     59214436    12.683305     22.43773    14.766392    19.732926    36.004555    67.380305    12.612127     22.30075    14.235163 
  353000    278.23828     59211545            0     59212628    12.683312    22.437755      14.7664    19.733613    36.007018    67.381165    12.612127     22.30075    14.235163 
  353200    115.43921     59210922            0     59211372    12.683318    22.437721    14.766149    19.734213    36.003647    67.356039    12.612127     22.30075    14.235163 
  353400    147.45706     59211306            0     59211880    12.683356    22.437752    14.766191    19.738094    36.006739    67.360211    12.612127     22.30075    14.235163 
  353600    118.71815     59211902            0     59212364    12.683271    22.437769    14.766748    19.729577    36.008404    67.415917    12.612127     22.30075    14.235163 
  353800    214.95532     59213608            0     59214444    12.683311    22.437771    14.766817    19.733561    36.008611    67.422847    12.612127     22.30075    14.235163 
  354000    258.03628     59211233            0     59212237    12.683294    22.437769    14.766224    19.731834    36.008437    67.363518    12.612127     22.30075    14.235163 
  354200      325.982     59211424            0     59212693    12.683262    22.437759    14.766099    19.728627    36.007379    67.351015    12.612127     22.30075    14.235163 
  354400    178.37944     59212127            0     59212822    12.683312    22.437759    14.766219    19.733656    36.007392    67.363045    12.612127     22.30075    14.235163 
  354600    318.09327     59211697            0     59212936    12.683361    22.437761    14.766214    19.738558    36.007613    67.362535    12.612127     22.30075    14.235163 
  354800    207.91538     59213239            0     59214048    12.683321     22.43779      14.7669    19.734587     36.01051    67.431166    12.612127     22.30075    14.235163 
  355000    186.60216     59211091            0     59211818    12.683291    22.437812    14.766385     19.73158     36.01274    67.379667    12.612127     22.30075    14.235163 
  355200    252.03335     59211260            0     59212242    12.683315    22.437753    14.766263    19.733955    36.006829    67.367455    12.612127     22.30075    14.235163 
  355400    233.19329     59210815            0     59211723    12.683309    22.437722    14.766247     19.73334    36.003685    67.365811    12.612127     22.30075    14.235163 
  355600     377.1185     59212996            0     59214464    12.683288    22.437767    14.765955    19.731283    36.008188    67.336637    12.612127     22.30075    14.235163 
  355800    276.21632     59213144            0     59214219    12.683334    22.437768    14.766448    19.735808    36.008314    67.385988    12.612127     22.30075    14.235163 
  356000    358.95868     59212800            0     59214198    12.683331    22.437782    14.766676    19.735523    36.009722    67.408725    12.612127     22.30075    14.235163 
  356200    320.23746     59211797            0     59213043    12.683319    22.437756     14.76642    19.734302    36.007157    67.383187    12.612127     22.30075    14.235163 
  356400    302.02447     59212330            0     59213506    12.683299     22.43779    14.766084    19.732365    36.010554     67.34957    12.612127     22.30075    14.235163 
  356600    91.903719     59211287            0     59211645    12.683294    22.437714    14.765974    19.731862    36.002925    67.338506    12.612127     22.30075    14.235163 
  356800    441.50113     59210344            0     59212063    12.683324     22.43777    14.766249    19.734869    36.008541     67.36601    12.612127     22.30075    14.235163 
  357000     266.2042     59210831            0     59211867     12.68332    22.437759    14.766179    19.734471    36.007424    67.359034    12.612127     22.30075    14.235163 
  357200    261.29622     59210725            0     59211742    12.683314    22.437753    14.766053     19.73387    36.006818    67.346477    12.612127     22.30075    14.235163 
  357400    301.87546     59211675            0     59212850    12.683321    22.437776    14.766312    19.734509    36.009126    67.372364    12.612127     22.30075    14.235163 
  357600     218.7842     59212361            0     59213213    12.683303    22.437751    14.766633    19.732737    36.006626    67.404498    12.612127     22.30075    14.235163 
  357800    139.56337     59212688            0     59213231    12.683325    22.437721    14.766748    19.734974    36.003609    67.416002    12.612127     22.30075    14.235163 
  358000    263.45833     59211683            0     59212708    12.683315    22.437756    14.766364    19.733953    36.007096    67.377583    12.612127     22.30075    14.235163 
  358200     137.4767     59213220            0     59213755    12.683353    22.437747    14.767138    19.737753    36.006251    67.455009    12.612127     22.30075    14.235163 
  358400    259.76087     59211013            0     59212024    12.683314    22.437764    14.766531    19.733841    36.007861    67.394266    12.612127     22.30075    14.235163 
  358600    189.85144     59212180            0     59212919    12.683306    22.437764    14.766495    19.733003    36.007952    67.390636    12.612127     22.30075    14.235163 
  358800    385.89227     59210358            0     59211860    12.683363    22.437742    14.766219    19.738778    36.005722    67.363081    12.612127     22.30075    14.235163 
  359000    180.50954     59212229            0     59212932    12.683299    22.437728    14.766818    19.732351    36.004351    67.422956    12.612127     22.30075    14.235163 
  359200    206.98753     59211114            0     59211919     12.68331    22.437742    14.766198     19.73342    36.005701    67.360892    12.612127     22.30075    14.235163 
  359400    314.23731     59209751            0     59210974    12.683302    22.437765    14.766196    19.732679    36.008046    67.360768    12.612127     22.30075    14.235163 
  359600    226.36143     59213596            0     59214477     12.68326    22.437715    14.766276    19.728431     36.00304    67.368709    12.612127     22.30075    14.235163 
  359800    237.62524     59214382            0     59215307    12.683329    22.437746    14.765877    19.735388    36.006077    67.328806    12.612127     22.30075    14.235163 
  360000    270.94884     59211830            0     59212885     12.68331    22.437745    14.766214    19.733437    36.005996    67.362494    12.612127     22.30075    14.235163 
  360200    95.836102     59211885            0     59212258    12.683309    22.437766    14.766213    19.733351    36.008125    67.362402    12.612127     22.30075    14.235163 
  360400    358.54765     59211478            0     59212874    12.683281    22.437773    14.766062    19.730514    36.008769    67.347374    12.612127     22.30075    14.235163 
  360600    254.08508     59211880            0     59212869    12.683284    22.437749    14.765762    19.730841    36.006406    67.317301    12.612127     22.30075    14.235163 
  360800    210.27487     59213581            0     59214400    12.683311    22.437751     14.76566     19.73358    36.006598    67.307123    12.612127     22.30075    14.235163 
  361000    266.62725     59211754            0     59212792    12.683277    22.437774    14.765976    19.730137     36.00893    67.338683    12.612127     22.30075    14.235163 
  361200    248.84171     59212697            0     59213665    12.683343    22.437784    14.766228    19.736758    36.009897     67.36393    12.612127     22.30075    14.235163 
  361400    245.35975     59214002            0     59214958    12.683278    22.437719    14.766277    19.730234    36.003458     67.36884    12.612127     22.30075    14.235163 
  361600    340.04047     59213581            0     59214905     12.68328     22.43778    14.766488     19.73044    36.009509    67.389997    12.612127     22.30075    14.235163 
  361800    606.81313     59211811            0     59214173    12.683301    22.437775     14.76591    19.732504    36.009003    67.332095    12.612127     22.30075    14.235163 
  362000    466.66665     59211038            0     59212854    12.683342    22.437762    14.766126    19.736635    36.007737    67.353782    12.612127     22.30075    14.235163 
  362200    285.29094     59211772            0     59212883    12.683314    22.437752     14.76584    19.733851    36.006673    67.325143    12.612127     22.30075    14.235163 
  362400     239.6391     59210997            0     59211930    12.683315    22.437732    14.766282    19.733971    36.004708    67.369327    12.612127     22.30075    14.235163 
  362600    414.29213     59210876            0     59212489    12.683303    22.437753    14.766021    19.732796    36.006813    67.343264    12.612127     22.30075    14.235163 
  362800    177.93239     59210923            0     59211616    12.683321    22.437755    14.766072     19.73453    36.007017    67.348366    12.612127     22.30075    14.235163 
  363000     239.6703     59213596            0     59214529    12.683334     22.43776    14.766077    19.735803    36.007535    67.348876    12.612127     22.30075    14.235163 
  363200    131.60004     59213285            0     59213797    12.683303    22.437774    14.766742    19.732743    36.008899    67.415361    12.612127     22.30075    14.235163 
  363400    376.81023     59213166            0     59214633    12.683263    22.437765    14.766262     19.72871    36.008049    67.367314    12.612127     22.30075    14.235163 
  363600    215.37187     59211344            0     59212183    12.683319    22.437742     14.76596    19.734302    36.005752    67.337141    12.612127     22.30075    14.235163 
  363800    343.83621     59212720            0     59214058    12.683302    22.437776    14.766153     19.73268    36.009131    67.356418    12.612127     22.30075    14.235163 
  364000    251.60589     59213477            0     59214456    12.683326     22.43778    14.766578    19.735059    36.009469    67.398987    12.612127     22.30075    14.235163 
  364200    304.25661     59210953            0     59212137    12.683309    22.437762    14.766092    19.733374    36.007669    67.350347    12.612127     22.30075    14.235163 
  364400    405.81918     59211277            0     59212857    12.683331    22.437766    14.766479    19.735516    36.008156     67.38908    12.612127     22.30075    14.235163 
  364600    228.86221     59211786            0     59212677    12.683305     22.43778    14.765987    19.732914    36.009509    67.339876    12.612127     22.30075    14.235163 
  364800    218.67533     59212367            0     59213218    12.683337    22.437745    14.766378    19.736177    36.006021    67.378966    12.612127     22.30075    14.235163 
  365000    294.81663     59210454            0     59211602    12.683305     22.43777    14.766027    19.732968    36.008544    67.343878    12.612127     22.30075    14.235163 
  365200    323.75638     59211621            0     59212882    12.683313    22.437757    14.766175    19.733739    36.007189    67.358601    12.612127     22.30075    14.235163 
  365400    362.22101     59211510            0     59212920    12.683302    22.437741    14.765991    19.732613    36.005594    67.340225    12.612127     22.30075    14.235163 
  365600    102.83682     59211482            0     59211882    12.683293    22.437759    14.766542    19.731714    36.007455    67.395402    12.612127     22.30075    14.235163 
  365800    161.58553     59213065            0     59213694    12.683345    22.437746    14.766223    19.736938    36.006118     67.36344    12.612127     22.30075    14.235163 
  366000    367.52294     59213169            0     59214600    12.683311    22.437756    14.765878     19.73354    36.007159    67.328972    12.612127     22.30075    14.235163 
  366200    136.07873     59212203            0     59212733    12.683315    22.437743    14.765976    19.733918    36.005855    67.338766    12.612127     22.30075    14.235163 
  366400    399.13215     59213331            0     59214885    12.683323    22.437758    14.766068    19.734774    36.007299    67.347978    12.612127     22.30075    14.235163 
  366600    141.78802     59212074            0     59212626    12.683349    22.437753     14.76619    19.737334    36.006804    67.360118    12.612127     22.30075    14.235163 
  366800    189.82507     59212111            0     59212850    12.683317    22.437763    14.766507    19.734152    36.007804    67.391831    12.612127     22.30075    14.235163 
  367000    146.05146     59212497            0     59213066     12.68335    22.437775    14.766296     19.73749    36.009003    67.370784    12.612127     22.30075    14.235163 
  367200    452.29824     59213046            0     59214807    12.683316     22.43776     14.76675    19.734075    36.007506    67.416174    12.612127     22.30075    14.235163 
  367400    299.02871     59212250            0     59213414    12.683304    22.437742    14.766639    19.732893     36.00573     67.40505    12.612127     22.30075    14.235163 
  367600    155.22019     59210757            0     59211362    12.683315    22.437752    14.766094    19.733991    36.006719    67.350565    12.612127     22.30075    14.235163 
  367800    143.50852     59211867            0     59212426    12.683334    22.437764    14.766045     19.73581    36.007871    67.345629    12.612127     22.30075    14.235163 
  368000    205.95433     59212041            0     59212843    12.683334    22.437778    14.766225     19.73589    36.009325    67.363661    12.612127     22.30075    14.235163 
  368200    157.83182     59212118            0     59212732    12.683272    22.437734    14.766159    19.729617    36.004881    67.357032    12.612127     22.30075    14.235163 
  368400    79.631325     59213034            0     59213344    12.683339    22.437772    14.765766    19.736338    36.008662    67.317739    12.612127     22.30075    14.235163 
  368600    207.30589     59211528            0     59212336    12.683315    22.437754    14.766566    19.733939    36.006883    67.397775    12.612127     22.30075    14.235163 
  368800    182.11368     59211423            0     59212132    12.683332    22.437752    14.766084    19.735604    36.006668    67.349567    12.612127     22.30075    14.235163 
  369000    430.84296     59210847            0     59212525    12.683291    22.437757    14.766207    19.731543    36.007178    67.361839    12.612127     22.30075    14.235163 
  369200     279.2421     59211855            0     59212942    12.683321    22.437683    14.766255    19.734567    35.999789    67.366603    12.612127     22.30075    14.235163 
  369400    249.69596     59212145            0     59213117    12.683324    22.437758    14.766749     19.73483    36.007293    67.416041    12.612127     22.30075    14.235163 
  369600    228.16037     59212313            0     59213201    12.683332    22.437751    14.766843     19.73569    36.006577    67.425468    12.612127     22.30075    14.235163 
  369800    223.38553     59212645            0     59213514    12.683358    22.437745    14.766747    19.738206    36.005979    67.415859    12.612127     22.30075    14.235163 
  370000    249.14286     59211192            0     59212162    12.683296    22.437793    14.766168    19.732029    36.010859    67.357967    12.612127     22.30075    14.235163 
  370200    258.89641     59212756            0     59213764    12.683344    22.437745    14.766404    19.736823    36.006022    67.381578    12.612127     22.30075    14.235163 
  370400    414.84443     59212842            0     59214457    12.683322    22.437714    14.766802    19.734643    36.002957    67.421385    12.612127     22.30075    14.235163 
  370600    287.55833     59213988            0     59215107    12.683272    22.437786      14.7665    19.729685    36.010128    67.391149    12.612127     22.30075    14.235163 
  370800    275.86453     59210688            0     59211762    12.683335    22.437711    14.766004    19.735914    36.002604    67.341482    12.612127     22.30075    14.235163 
  371000    239.50902     59212509            0     59213441    12.683348     22.43777    14.766105    19.737232    36.008515    67.351586    12.612127     22.30075    14.235163 
  371200    228.68941     59212577            0     59213467    12.683319    22.437727    14.765892    19.734395     36.00419    67.330345    12.612127     22.30075    14.235163 
  371400    59.444113     59212721            0     59212953    12.683349    22.437708    14.765922    19.737344    36.002312    67.333296    12.612127     22.30075    14.235163 
  371600    243.59067     59213139            0     59214088     12.68333    22.437726    14.766404    19.735469    36.004145    67.381506    12.612127     22.30075    14.235163 
  371800    280.43903     59212181            0     59213273    12.683313    22.437749    14.766387    19.733726    36.006447    67.379849    12.612127     22.30075    14.235163 
  372000    303.93137     59210783            0     59211966    12.683307    22.437743    14.766002    19.733158    36.005818    67.341354    12.612127     22.30075    14.235163 
  372200    187.97772     59209792            0     59210524     12.68329    22.437758    14.766087    19.731446     36.00729    67.349805    12.612127     22.30075    14.235163 
  372400    359.72502     59212864            0     59214264    12.683308    22.437711    14.766599    19.733234    36.002621    67.401007    12.612127     22.30075    14.235163 
  372600    255.39453     59212279            0     59213273    12.683305    22.437727    14.766589    19.732923     36.00423    67.400035    12.612127     22.30075    14.235163 
  372800    357.87158     59211345            0     59212738    12.683302    22.437778    14.765986    19.732673    36.009328    67.339766    12.612127     22.30075    14.235163 
  373000    344.31318     59211532            0     59212873    12.683293    22.437755    14.766047    19.731793    36.007001    67.345785    12.612127     22.30075    14.235163 
  373200    123.33493     59211449            0     59211929     12.68333    22.437781    14.766377    19.735451    36.009633    67.378823    12.612127     22.30075    14.235163 
  373400    335.21395     59211931            0     59213236    12.683331    22.437838    14.765641    19.735552    36.015361     67.30519    12.612127     22.30075    14.235163 
  373600    361.98842     59209914            0     59211323    12.683334     22.43775    14.766226     19.73589    36.006478    67.363758    12.612127     22.30075    14.235163 
  373800    380.51958     59211741            0     59213223    12.683308    22.437763    14.766125    19.733265    36.007827    67.353596    12.612127     22.30075    14.235163 
  374000    157.73357     59210293            0     59210907    12.683315    22.437753    14.766231    19.733941    36.006816    67.364275    12.612127     22.30075    14.235163 
  374200    171.51811     59211506            0     59212174    12.683308    22.437756    14.766353    19.733255    36.007083    67.376478    12.612127     22.30075    14.235163 
  374400    224.36319     59212322            0     59213196    12.683322    22.437754    14.766037    19.734643      36.0069    67.344786    12.612127     22.30075    14.235163 
  374600    262.54629     59210783            0     59211805    12.683322     22.43776    14.766086    19.734632    36.007501    67.349741    12.612127     22.30075    14.235163 
  374800    206.37834     59211398            0     59212201    12.683326    22.437769     14.76615     19.73503    36.008447    67.356148    12.612127     22.30075    14.235163 
  375000    189.04538     59211736            0     59212472    12.683335     22.43772    14.766245    19.735941    36.003545    67.365618    12.612127     22.30075    14.235163 
  375200     207.2818     59212362            0     59213168    12.683317    22.437767     14.76644    19.734187    36.008253    67.385189    12.612127     22.30075    14.235163 
  375400    106.89908     59211313            0     59211729    12.683306    22.437755    14.766262    19.733062    36.007007    67.367373    12.612127     22.30075    14.235163 
  375600    236.05084     59211430            0     59212349    12.683281    22.437775    14.766569    19.730596    36.009034    67.398092    12.612127     22.30075    14.235163 
  375800    59.116001     59213214            0     59213444     12.68328    22.437756    14.765619    19.730444    36.007072    67.303035    12.612127     22.30075    14.235163 
  376000    335.08828     59212580            0     59213884    12.683327    22.437734    14.765754    19.735144    36.004866    67.316471    12.612127     22.30075    14.235163 
  376200    471.98196     59211852            0     59213689    12.683318    22.437762    14.766019     19.73428    36.007729    67.342992    12.612127     22.30075    14.235163 
  376400    106.67604     59215810            0     59216226    12.683301    22.437748    14.766345    19.732534    36.006299    67.375666    12.612127     22.30075    14.235163 
  376600    281.65008     59214630            0     59215727    12.683303    22.437718    14.765931    19.732796    36.003357    67.334228    12.612127     22.30075    14.235163 
  376800    310.78143     59212031            0     59213241    12.683296    22.437756    14.765899    19.732013    36.007159    67.330993    12.612127     22.30075    14.235163 
  377000    286.89389     59213037            0     59214154    12.683345    22.437793    14.766222    19.736942    36.010826    67.363371    12.612127     22.30075    14.235163 
  377200    280.88696     59212667            0     59213761    12.683319    22.437734    14.766303    19.734338    36.004869    67.371436    12.612127     22.30075    14.235163 
  377400    141.40245     59214061            0     59214611    12.683316    22.437747    14.765408    19.734025    36.006235    67.281939    12.612127     22.30075    14.235163 
  377600    396.51881     59211225            0     59212768    12.683315    22.437755    14.766168    19.733964    36.006991     67.35795    12.612127     22.30075    14.235163 
  377800    224.26781     59211544            0     59212417    12.683316     22.43777    14.766202    19.734065    36.008537    67.361292    12.612127     22.30075    14.235163 
  378000    247.55819     59210721            0     59211685    12.683347    22.437745    14.766092    19.737169    36.006045    67.350379    12.612127     22.30075    14.235163 
  378200    313.42302     59212113            0     59213333    12.683325    22.437774    14.766434    19.734973    36.008898    67.384586    12.612127     22.30075    14.235163 
  378400    295.95282     59211787            0     59212939    12.683329    22.437749    14.766324    19.735367    36.006376    67.373556    12.612127     22.30075    14.235163 
  378600    255.90668     59212120            0     59213116    12.683343    22.437763    14.765863    19.736724    36.007795    67.327405    12.612127     22.30075    14.235163 
  378800    213.35867     59211722            0     59212553    12.683322    22.437735    14.765647    19.734686    36.005045    67.305845    12.612127     22.30075    14.235163 
  379000    183.45244     59211771            0     59212485      12.6833    22.437734    14.765827    19.732446    36.004886    67.323848    12.612127     22.30075    14.235163 
  379200    177.20554     59213156            0     59213846    12.683302    22.437742    14.766292    19.732634    36.005668    67.370375    12.612127     22.30075    14.235163 
  379400    125.43841     59212064            0     59212552    12.683313    22.437769     14.76689    19.733776    36.008414    67.430151    12.612127     22.30075    14.235163 
  379600    146.42151     59214356            0     59214926    12.683293    22.437751    14.766078    19.731699    36.006599    67.348915    12.612127     22.30075    14.235163 
  379800     400.3386     59211607            0     59213166    12.683273     22.43777     14.76615    19.729761    36.008488    67.356108    12.612127     22.30075    14.235163 
  380000     118.1394     59212852            0     59213312    12.683365    22.437752    14.766271    19.738943    36.006741     67.36823    12.612127     22.30075    14.235163 
  380200    308.28093     59212348            0     59213548    12.683297    22.437743    14.766519    19.732123    36.005806    67.393051    12.612127     22.30075    14.235163 
  380400    418.85695     59212951            0     59214582    12.683342    22.437699    14.766059    19.736645    36.001406    67.347049    12.612127     22.30075    14.235163 
  380600    123.96881     59212089            0     59212571     12.68333    22.437716    14.765799    19.735461    36.003139    67.321065    12.612127     22.30075    14.235163 
  380800    427.06579     59209924            0     59211587    12.683322    22.437753    14.766291    19.734618    36.006829    67.370271    12.612127     22.30075    14.235163 
  381000    123.73543     59212494            0     59212976    12.683329    22.437778    14.765885    19.735309    36.009297    67.329582    12.612127     22.30075    14.235163 
  381200    142.50877     59210915            0     59211470    12.683304    22.437719    14.766159      19.7328    36.003423    67.357071    12.612127     22.30075    14.235163 
  381400    59.316646     59212470            0     59212700    12.683333    22.437758    14.765834    19.735798    36.007348    67.324513    12.612127     22.30075    14.235163 
  381600    347.89971     59212145            0     59213499    12.683277    22.437756    14.766253    19.730164    36.007129    67.366436    12.612127     22.30075    14.235163 
  381800    347.41039     59210926            0     59212279    12.683305    22.437776    14.766295    19.732993    36.009104    67.370606    12.612127     22.30075    14.235163 
  382000    275.50309     59211470            0     59212543    12.683313     22.43776    14.766134    19.733709    36.007501    67.354551    12.612127     22.30075    14.235163 
  382200    333.06838     59211562            0     59212859    12.683367    22.437751    14.765996    19.739118    36.006646    67.340717    12.612127     22.30075    14.235163 
  382400    119.10678     59211648            0     59212111    12.683293    22.437761     14.76595    19.731737    36.007647    67.336099    12.612127     22.30075    14.235163 
  382600    67.087193     59212815            0     59213076     12.68334    22.437809     14.76658    19.736454    36.012398    67.399173    12.612127     22.30075    14.235163 
  382800    371.79225     59213417            0     59214864    12.683296     22.43773    14.766261    19.732022    36.004477     67.36721    12.612127     22.30075    14.235163 
  383000    444.78016     59211645            0     59213377    12.683314    22.437754    14.765964    19.733836    36.006874    67.337481    12.612127     22.30075    14.235163 
  383200    131.42622     59213434            0     59213946    12.683343    22.437721    14.766247    19.736723    36.003594    67.365809    12.612127     22.30075    14.235163 
  383400    299.69727     59211878            0     59213044    12.683316    22.437758    14.766364    19.734072    36.007314    67.377572    12.612127     22.30075    14.235163 
  383600    221.74172     59210925            0     59211788    12.683321    22.437728    14.766193    19.734581    36.004304    67.360431    12.612127     22.30075    14.235163 
  383800    244.43531     59211437            0     59212389    12.683322    22.437766    14.765958    19.734664    36.008063    67.336893    12.612127     22.30075    14.235163 
  384000    423.35543     59211459            0     59213107    12.683288    22.437763    14.766484    19.731238    36.007838    67.389568    12.612127     22.30075    14.235163 
  384200    243.46673     59212247            0     59213195    12.683315    22.437754    14.766448    19.733977    36.006881    67.385982    12.612127     22.30075    14.235163 
  384400    223.79017     59212566            0     59213437    12.683317    22.437784    14.766498    19.734182    36.009911    67.390952    12.612127     22.30075    14.235163 
  384600    161.35862     59213002            0     59213631    12.683293    22.437746    14.766093    19.731739    36.006091    67.350432    12.612127     22.30075    14.235163 
  384800    378.74012     59211652            0     59213127    12.683315    22.437754    14.766007    19.733978    36.006877    67.341852    12.612127     22.30075    14.235163 
  385000    241.19258     59210837            0     59211776    12.683364    22.437722    14.766059    19.738894    36.003684    67.346994    12.612127     22.30075    14.235163 
  385200    230.26014     59212146            0     59213042    12.683304    22.437716    14.766259    19.732826     36.00314    67.367007    12.612127     22.30075    14.235163 
  385400    160.25313     59213239            0     59213863    12.683354    22.437736    14.767055    19.737805    36.005127    67.446626    12.612127     22.30075    14.235163 
  385600    220.38525     59211843            0     59212701    12.683333    22.437737    14.766679    19.735717    36.005208     67.40905    12.612127     22.30075    14.235163 
  385800    340.95623     59211178            0     59212505    12.683316    22.437743    14.766133    19.734068    36.005845    67.354481    12.612127     22.30075    14.235163 
  386000    203.74211     59212589            0     59213382    12.683288    22.437745    14.766414    19.731243    36.005967    67.382497    12.612127     22.30075    14.235163 
  386200    255.22806     59211914            0     59212907    12.683301    22.437746    14.765909    19.732594    36.006088    67.331991    12.612127     22.30075    14.235163 
  386400    201.01989     59213838            0     59214621    12.683295    22.437765    14.765687    19.731986    36.008023    67.309796    12.612127     22.30075    14.235163 
  386600    317.20101     59212066            0     59213301    12.683321    22.437734    14.765694    19.734537    36.004943    67.310524    12.612127     22.30075    14.235163 
  386800    306.86032     59212306            0     59213501    12.683346    22.437754    14.766031    19.737011    36.006867    67.344244    12.612127     22.30075    14.235163 
  387000    154.16495     59213136            0     59213737    12.683297    22.437769    14.766444    19.732171    36.008451    67.385592    12.612127     22.30075    14.235163 
  387200    121.89491     59212689            0     59213163    12.683351    22.437767    14.766043    19.737527    36.008227    67.345478    12.612127     22.30075    14.235163 
  387400    233.82537     59212101            0     59213012    12.683336    22.437736    14.766327    19.736052    36.005135     67.37382    12.612127     22.30075    14.235163 
  387600     256.8929     59211705            0     59212705    12.683321    22.437751    14.766118    19.734573    36.006571    67.352971    12.612127     22.30075    14.235163 
  387800    393.50408     59211475            0     59213007    12.683297    22.437766     14.76642     19.73219    36.008105    67.383163    12.612127     22.30075    14.235163 
  388000    131.95923     59211826            0     59212340    12.683317    22.437764    14.766434    19.734172    36.007924    67.384539    12.612127     22.30075    14.235163 
  388200    303.50031     59211720            0     59212901    12.683305    22.437739    14.766515    19.732984    36.005441    67.392666    12.612127     22.30075    14.235163 
  388400    356.53885     59211383            0     59212771    12.683302    22.437768    14.766481     19.73266    36.008271    67.389262    12.612127     22.30075    14.235163 
  388600    272.08381     59212759            0     59213818    12.683338    22.437763    14.766168    19.736297    36.007775    67.357963    12.612127     22.30075    14.235163 
  388800    172.03342     59211321            0     59211991    12.683372    22.437719    14.766181    19.739676    36.003366    67.359283    12.612127     22.30075    14.235163 
  389000    348.64444     59210740            0     59212097      12.6833    22.437743    14.766285    19.732469    36.005774    67.369618    12.612127     22.30075    14.235163 
  389200    265.49561     59211589            0     59212622    12.683321    22.437762    14.766076    19.734562    36.007756    67.348755    12.612127     22.30075    14.235163 
  389400    280.96131     59211373            0     59212467    12.683315    22.437753    14.766188    19.733946    36.006828    67.359916    12.612127     22.30075    14.235163 
  389600    200.81837     59212570            0     59213352    12.683313    22.437752    14.766454    19.733726    36.006756    67.386591    12.612127     22.30075    14.235163 
  389800    442.57867     59211552            0     59213275    12.683316    22.437758    14.766549    19.734001    36.007317    67.396026    12.612127     22.30075    14.235163 
  390000    232.58475     59212175            0     59213080    12.683321    22.437743    14.766338    19.734507    36.005837    67.374976    12.612127     22.30075    14.235163 
  390200    175.90647     59211495            0     59212179    12.683302    22.437781    14.766186    19.732661    36.009608    67.359761    12.612127     22.30075    14.235163 
  390400    224.28804     59212371            0     59213244    12.683324    22.437744    14.766313    19.734819     36.00595     67.37245    12.612127     22.30075    14.235163 
  390600    318.11919     59211337            0     59212575    12.683315    22.437754    14.766085    19.733978    36.006879    67.349658    12.612127     22.30075    14.235163 
  390800    352.47258     59211597            0     59212969    12.683318    22.437753    14.766373    19.734297    36.006843    67.378443    12.612127     22.30075    14.235163 
  391000    204.50747     59211922            0     59212718    12.683345    22.437756    14.766136    19.736913    36.007141    67.354776    12.612127     22.30075    14.235163 
  391200    209.67792     59211143            0     59211959    12.683313     22.43777    14.766301    19.733761    36.008538    67.371279    12.612127     22.30075    14.235163 
  391400    270.61232     59211225            0     59212278    12.683332    22.437739    14.766147    19.735656    36.005437     67.35582    12.612127     22.30075    14.235163 
  391600    287.45729     59211952            0     59213071    12.683301    22.437751    14.765842    19.732543    36.006609    67.325298    12.612127     22.30075    14.235163 
  391800    250.07894     59212070            0     59213044      12.6833    22.437768    14.765955    19.732419    36.008284    67.336605    12.612127     22.30075    14.235163 
  392000    283.50642     59210913            0     59212017    12.683352     22.43777    14.766203    19.737639    36.008521     67.36146    12.612127     22.30075    14.235163 
  392200    262.72706     59210468            0     59211490    12.683331    22.437783    14.766085    19.735518    36.009772    67.349596    12.612127     22.30075    14.235163 
  392400    229.73071     59210295            0     59211190    12.683278     22.43778    14.766092    19.730221    36.009556    67.350351    12.612127     22.30075    14.235163 
  392600    380.36757     59213178            0     59214659    12.683316    22.437753    14.766009    19.734022    36.006789     67.34203    12.612127     22.30075    14.235163 
  392800    377.03184     59211700            0     59213168    12.683306    22.437772    14.765711    19.733012    36.008734    67.312221    12.612127     22.30075    14.235163 
  393000     316.8202     59213496            0     59214730    12.683291    22.437703    14.766321     19.73158    36.001852    67.373222    12.612127     22.30075    14.235163 
  393200    167.35025     59211547            0     59212198    12.683331    22.437737    14.766606    19.735556    36.005235    67.401763    12.612127     22.30075    14.235163 
  393400    135.86185     59214005            0     59214534    12.683335     22.43777    14.766192    19.735908    36.008501    67.360356    12.612127     22.30075    14.235163 
  393600    374.89235     59211949            0     59213408    12.683305    22.437745    14.766356      19.7329    36.006018    67.376712    12.612127     22.30075    14.235163 
  393800    201.35007     59211634            0     59212418     12.68337    22.437756      14.7662    19.739479    36.007109    67.361091    12.612127     22.30075    14.235163 
  394000     183.6383     59211350            0     59212065    12.683329    22.437722    14.766105    19.735332    36.003712    67.351595    12.612127     22.30075    14.235163 
  394200    248.43765     59212411            0     59213378    12.683289    22.437767    14.766407     19.73133    36.008239    67.381833    12.612127     22.30075    14.235163 
  394400    396.52259     59211175            0     59212718    12.683305    22.437742    14.766188    19.732921    36.005732    67.359907    12.612127     22.30075    14.235163 
  394600    252.93804     59211067            0     59212052    12.683297    22.437763    14.765941    19.732194    36.007832    67.335265    12.612127     22.30075    14.235163 
  394800    316.53502     59212486            0     59213718    12.683334     22.43776    14.766271    19.735836    36.007462    67.368223    12.612127     22.30075    14.235163 
  395000    165.16712     59212399            0     59213042    12.683327    22.437787    14.766527    19.735131    36.010162    67.393829    12.612127     22.30075    14.235163 
  395200    218.03184     59212096            0     59212944    12.683302     22.43774    14.765928    19.732691    36.005484    67.333931    12.612127     22.30075    14.235163 
  395400    194.17289     59212835            0     59213591     12.68332    22.437744    14.766077    19.734492     36.00586    67.348824    12.612127     22.30075    14.235163 
  395600    174.34163     59211196            0     59211875    12.683295    22.437749    14.766098    19.731914    36.006431    67.350953    12.612127     22.30075    14.235163 
  395800    250.58374     59211984            0     59212959    12.683333    22.437753    14.766232    19.735789    36.006778    67.364367    12.612127     22.30075    14.235163 
  396000    246.70196     59211160            0     59212120    12.683306    22.437755    14.766161    19.733072    36.006962    67.357218    12.612127     22.30075    14.235163 
  396200    246.73757     59211367            0     59212327    12.683347    22.437751     14.76593    19.737177    36.006592    67.334159    12.612127     22.30075    14.235163 
  396400    169.14778     59210928            0     59211586    12.683302    22.437764    14.766327    19.732624    36.007879    67.373844    12.612127     22.30075    14.235163 
  396600    279.65557     59211873            0     59212961    12.683336    22.437737    14.766006    19.736028    36.005215    67.341709    12.612127     22.30075    14.235163 
  396800    348.70248     59211863            0     59213220    12.683318    22.437734    14.766108    19.734259    36.004938    67.351904    12.612127     22.30075    14.235163 
  397000     230.2367     59213470            0     59214366    12.683306    22.437751    14.766329    19.733007    36.006628    67.374076    12.612127     22.30075    14.235163 
  397200    226.75679     59210804            0     59211687    12.683334    22.437781    14.766417    19.735886    36.009643     67.38285    12.612127     22.30075    14.235163 
  397400    465.21021     59211273            0     59213084    12.683364    22.437731    14.766426    19.738808    36.004656    67.383761    12.612127     22.30075    14.235163 
  397600    104.00893     59210797            0     59211202    12.683374    22.437754    14.766126    19.739853    36.006953    67.353734    12.612127     22.30075    14.235163 
  397800    279.91999     59211894            0     59212984    12.683344    22.437759     14.76643    19.736892    36.007396    67.384143    12.612127     22.30075    14.235163 
  398000    231.57426     59211480            0     59212381    12.683296     22.43777    14.766021    19.732013    36.008549    67.343278    12.612127     22.30075    14.235163 
  398200    232.37975     59211267            0     59212172    12.683357    22.437775    14.765953    19.738129    36.008984    67.336422    12.612127     22.30075    14.235163 
  398400    420.14183     59211935            0     59213570     12.68333    22.437747    14.765943    19.735479    36.006174    67.335424    12.612127     22.30075    14.235163 
  398600    281.40092     59212534            0     59213629    12.683314    22.437754    14.765975    19.733847    36.006875    67.338647    12.612127     22.30075    14.235163 
  398800    229.10903     59211672            0     59212564    12.683305    22.437776    14.766229    19.732928    36.009153    67.363993    12.612127     22.30075    14.235163 
  399000    424.62495     59211388            0     59213041    12.683315    22.437753    14.766082    19.733971    36.006857     67.34936    12.612127     22.30075    14.235163 
  399200    255.93008     59212283            0     59213279    12.683297    22.437756    14.766569     19.73215     36.00709    67.398098    12.612127     22.30075    14.235163 
  399400     68.45562     59210963            0     59211230      12.6833    22.437759    14.766202    19.732443     36.00736    67.361293    12.612127     22.30075    14.235163 
  399600    231.72845     59210704            0     59211607    12.683343    22.437756    14.766184    19.736768    36.007144    67.359581    12.612127     22.30075    14.235163 
  399800    220.15994     59210875            0     59211732    12.683344    22.437746    14.766271    19.736846     36.00611    67.368241    12.612127     22.30075    14.235163 
  400000    260.80057     59211595            0     59212610    12.683358    22.437759     14.76606    19.738255    36.007445    67.347132    12.612127     22.30075    14.235163 
  400200     125.2277     59212151            0     59212639    12.683279    22.437749    14.766201    19.730338    36.006427    67.361217    12.612127     22.30075    14.235163 
  400400    444.20659     59212910            0     59214639    12.683312    22.437748    14.766094    19.733684    36.006355    67.350491    12.612127     22.30075    14.235163 
  400600    202.68546     59212507            0     59213296    12.683292    22.437759    14.766578    19.731613    36.007428    67.398996    12.612127     22.30075    14.235163 
  400800    182.77014     59213510            0     59214222    12.683295    22.437743    14.766733    19.731989    36.005781    67.414492    12.612127     22.30075    14.235163 
  401000    368.40613     59210174            0     59211608    12.683336    22.437756    14.766346    19.736061    36.007101    67.375704    12.612127     22.30075    14.235163 
  401200    278.66794     59211727            0     59212812    12.683318    22.437758    14.766135    19.734283    36.007279    67.354606    12.612127     22.30075    14.235163 
  401400    207.88694     59210452            0     59211261      12.6833     22.43778    14.766345    19.732444    36.009532    67.375631    12.612127     22.30075    14.235163 
  401600    367.26335     59212478            0     59213908    12.683333    22.437769    14.766513    19.735744    36.008405    67.392447    12.612127     22.30075    14.235163 
  401800    364.47394     59211367            0     59212785    12.683325     22.43772    14.766066    19.734915    36.003493     67.34775    12.612127     22.30075    14.235163 
  402000    184.73726     59211516            0     59212235    12.683307    22.437744    14.766123    19.733183    36.005944    67.353452    12.612127     22.30075    14.235163 
  402200    405.33328     59212284            0     59213862    12.683337    22.437784    14.766068    19.736161    36.009951    67.347967    12.612127     22.30075    14.235163 
  402400    184.23938     59211299            0     59212016    12.683315    22.437754    14.766243    19.733976    36.006879     67.36547    12.612127     22.30075    14.235163 
  402600    222.03529     59210944            0     59211809    12.683293    22.437787    14.766256    19.731792     36.01024    67.366755    12.612127     22.30075    14.235163 
  402800    259.99794     59211558            0     59212570    12.683304    22.437769    14.766384    19.732844    36.008418    67.379553    12.612127     22.30075    14.235163 
  403000    327.60086     59211948            0     59213223    12.683378    22.437768    14.765854    19.740276    36.008324    67.326531    12.612127     22.30075    14.235163 
  403200    314.47286     59211274            0     59212498    12.683316    22.437788    14.766219    19.734005    36.010302    67.362997    12.612127     22.30075    14.235163 
  403400    255.68747     59211948            0     59212943    12.683276    22.437792    14.765783    19.730088    36.010732    67.319424    12.612127     22.30075    14.235163 
  403600    475.81268     59212328            0     59214181    12.683304    22.437739     14.76617    19.732816    36.005399    67.358096    12.612127     22.30075    14.235163 
  403800    311.09477     59211800            0     59213011    12.683301    22.437742     14.76591    19.732525    36.005681    67.332171    12.612127     22.30075    14.235163 
  404000    373.85282     59212620            0     59214075     12.68333    22.437752    14.766463    19.735446    36.006736    67.387449    12.612127     22.30075    14.235163 
  404200    280.47015     59211131            0     59212223    12.683326    22.437774    14.766355    19.735058    36.008943    67.376605    12.612127     22.30075    14.235163 
  404400    339.97179     59210377            0     59211701    12.683316    22.437752    14.766057    19.734042    36.006683     67.34687    12.612127     22.30075    14.235163 
  404600     277.2464     59210849            0     59211928    12.683355    22.437748     14.76617     19.73799    36.006321    67.358089    12.612127     22.30075    14.235163 
  404800    435.87954     59210498            0     59212195    12.683288    22.437759    14.766051    19.731253    36.007434     67.34622    12.612127     22.30075    14.235163 
  405000    155.58046     59212178            0     59212784    12.683288    22.437789    14.766365    19.731292    36.010387    67.377658    12.612127     22.30075    14.235163 
  405200     326.4552     59212073            0     59213344    12.683344    22.437774    14.766379    19.736885    36.008946     67.37904    12.612127     22.30075    14.235163 
  405400    372.79784     59212500            0     59213951    12.683356    22.437791    14.766292    19.738056     36.01059     67.37031    12.612127     22.30075    14.235163 
  405600     277.3733     59211537            0     59212617    12.683329    22.437711    14.765905    19.735377    36.002612    67.331646    12.612127     22.30075    14.235163 
  405800    294.85701     59211265            0     59212412    12.683281    22.437721    14.765854    19.730551    36.003649    67.326569    12.612127     22.30075    14.235163 
  406000    92.227373     59213921            0     59214280    12.683308    22.437764    14.766536    19.733286    36.007881    67.394736    12.612127     22.30075    14.235163 
  406200    106.66442     59213631            0     59214046    12.683384    22.437795    14.765641    19.740872    36.010971    67.305228    12.612127     22.30075    14.235163 
  406400    356.53185     59211442            0     59212830    12.683318    22.437746    14.766167    19.734218    36.006107    67.357867    12.612127     22.30075    14.235163 
  406600    139.01295     59211431            0     59211973    12.683325    22.437767    14.766411    19.734915    36.008239    67.382231    12.612127     22.30075    14.235163 
  406800    255.08087     59211140            0     59212133    12.683315     22.43776     14.76621    19.733934    36.007465    67.362109    12.612127     22.30075    14.235163 
  407000    237.38608     59210742            0     59211666    12.683347    22.437779    14.766275     19.73719    36.009375    67.368637    12.612127     22.30075    14.235163 
  407200    328.13334     59211705            0     59212982    12.683309    22.437779    14.766012    19.733311    36.009455    67.342281    12.612127     22.30075    14.235163 
  407400    116.26187     59212392            0     59212845    12.683309    22.437764     14.76668    19.733335     36.00792    67.409145    12.612127     22.30075    14.235163 
  407600    179.28629     59212015            0     59212713    12.683315    22.437746    14.766489    19.733955    36.006083    67.390022    12.612127     22.30075    14.235163 
  407800    326.04079     59212720            0     59213990    12.683313    22.437767    14.766707    19.733713    36.008196    67.411851    12.612127     22.30075    14.235163 
  408000    320.88768     59212837            0     59214086    12.683345    22.437734    14.766269    19.736971    36.004912    67.367997    12.612127     22.30075    14.235163 
  408200    197.20785     59212645            0     59213413    12.683343    22.437729     14.76667    19.736717    36.004391     67.40811    12.612127     22.30075    14.235163 
  408400    318.33508     59212256            0     59213496    12.683308    22.437737    14.767089    19.733295    36.005258    67.450075    12.612127     22.30075    14.235163 
  408600    260.50847     59212413            0     59213428    12.683353    22.437751    14.766521    19.737719    36.006613    67.393291    12.612127     22.30075    14.235163 
  408800    184.97322     59212217            0     59212937    12.683307    22.437761    14.766849    19.733169      36.0076    67.426085    12.612127     22.30075    14.235163 
  409000    285.50318     59211971            0     59213082    12.683318    22.437751    14.766481    19.734203    36.006582    67.389233    12.612127     22.30075    14.235163 
  409200    298.04112     59212150            0     59213310    12.683293    22.437735    14.766307    19.731728    36.004964    67.371838    12.612127     22.30075    14.235163 
  409400     174.4183     59214461            0     59215140    12.683366    22.437714    14.766348    19.739052    36.002958    67.375949    12.612127     22.30075    14.235163 
  409600    320.45706     59213619            0     59214866    12.683296    22.437732    14.766678    19.732085    36.004753    67.408968    12.612127     22.30075    14.235163 
  409800     204.6081     59212654            0     59213451    12.683323    22.437715    14.766624    19.734757    36.003037    67.403556    12.612127     22.30075    14.235163 
  410000    281.44438     59212716            0     59213812    12.683298     22.43774     14.76639     19.73222    36.005498    67.380163    12.612127     22.30075    14.235163 
  410200    286.54371     59210759            0     59211874    12.683271    22.437634    14.766167    19.729573    35.994856     67.35781    12.612127     22.30075    14.235163 
  410400    298.42289     59211155            0     59212317    12.683321    22.437761    14.766381    19.734546    36.007605    67.379237    12.612127     22.30075    14.235163 
  410600    240.69593     59213827            0     59214764    12.683322    22.437757    14.766532     19.73468    36.007245    67.394305    12.612127     22.30075    14.235163 
  410800    143.83474     59211996            0     59212556    12.683319     22.43777    14.766467    19.734347    36.008472    67.387844    12.612127     22.30075    14.235163 
  411000    212.12669     59212493            0     59213319    12.683277    22.437751    14.766225    19.730173    36.006586    67.363641    12.612127     22.30075    14.235163 
  411200    237.07742     59211238            0     59212160    12.683336     22.43775    14.765837    19.736055    36.006532    67.324799    12.612127     22.30075    14.235163 
  411400    324.62486     59211219            0     59212482    12.683341    22.437738    14.766223    19.736589    36.005338    67.363481    12.612127     22.30075    14.235163 
  411600    284.53837     59211109            0     59212217    12.683325    22.437779    14.766039     19.73498    36.009419    67.344993    12.612127     22.30075    14.235163 
  411800    121.20009     59211500            0     59211971    12.683299    22.437757    14.766299    19.732317    36.007197    67.371079    12.612127     22.30075    14.235163 
  412000    301.81693     59210203            0     59211378    12.683318    22.437787    14.766094    19.734243    36.010167    67.350502    12.612127     22.30075    14.235163 
  412200    242.73186     59211657            0     59212602    12.683314    22.437721     14.76601    19.733842    36.003627      67.3421    12.612127     22.30075    14.235163 
  412400    337.93121     59212115            0     59213431    12.683342    22.437753    14.765982    19.736633    36.006806    67.339355    12.612127     22.30075    14.235163 
  412600    149.60023     59212206            0     59212789    12.683334    22.437752     14.76594    19.735831    36.006727    67.335133    12.612127     22.30075    14.235163 
  412800    383.21721     59213314            0     59214806    12.683347    22.437745    14.765614     19.73713    36.006015    67.302546    12.612127     22.30075    14.235163 
  413000     348.1852     59212277            0     59213633    12.683317    22.437752    14.765779     19.73417    36.006685    67.318995    12.612127     22.30075    14.235163 
  413200    193.58698     59212724            0     59213478    12.683379    22.437716    14.766167    19.740304    36.003093    67.357837    12.612127     22.30075    14.235163 
  413400    242.03644     59210942            0     59211884    12.683325    22.437759    14.766285    19.734912     36.00737    67.369665    12.612127     22.30075    14.235163 
  413600    339.64186     59211008            0     59212330    12.683293    22.437724    14.766528    19.731774    36.003916    67.393919    12.612127     22.30075    14.235163 
  413800    274.52368     59212206            0     59213274    12.683317    22.437793    14.766483    19.734144    36.010794    67.389433    12.612127     22.30075    14.235163 
  414000    467.51962     59211764            0     59213584    12.683304    22.437749    14.766352    19.732852    36.006413     67.37635    12.612127     22.30075    14.235163 
  414200    400.35395     59212165            0     59213724    12.683297     22.43773    14.765935    19.732138    36.004552    67.334667    12.612127     22.30075    14.235163 
  414400    150.21161     59212420            0     59213004    12.683234     22.43775    14.766012    19.725822    36.006502    67.342308    12.612127     22.30075    14.235163 
  414600    279.01908     59211136            0     59212222    12.683313    22.437767     14.76605    19.733779      36.0082    67.346113    12.612127     22.30075    14.235163 
  414800    234.71674     59211349            0     59212263    12.683319    22.437758    14.766449    19.734309    36.007341    67.386086    12.612127     22.30075    14.235163 
  415000    196.22235     59212367            0     59213131    12.683315    22.437754    14.765931    19.733974     36.00688    67.334251    12.612127     22.30075    14.235163 
  415200    168.30999     59211567            0     59212222     12.68332    22.437708    14.766334    19.734489     36.00235     67.37454    12.612127     22.30075    14.235163 
  415400    315.90311     59211851            0     59213081    12.683314    22.437737    14.766352    19.733831    36.005187    67.376384    12.612127     22.30075    14.235163 
  415600    242.10731     59211986            0     59212929    12.683283    22.437754    14.766239    19.730783    36.006862    67.365016    12.612127     22.30075    14.235163 
  415800    136.02165     59211186            0     59211716    12.683353    22.437761    14.766243    19.737755    36.007627    67.365463    12.612127     22.30075    14.235163 
  416000    205.19851     59211894            0     59212693     12.68329    22.437735    14.766711    19.731405    36.004971    67.412232    12.612127     22.30075    14.235163 
  416200    324.00548     59212106            0     59213367    12.683268    22.437763    14.766501    19.729284    36.007774     67.39125    12.612127     22.30075    14.235163 
  416400    177.30537     59211003            0     59211693    12.683279    22.437784    14.766268    19.730308    36.009867    67.367908    12.612127     22.30075    14.235163 
  416600    236.85794     59210299            0     59211221    12.683326    22.437755    14.766155    19.735068    36.006989    67.356674    12.612127     22.30075    14.235163 
  416800    235.89094     59210544            0     59211462    12.683321    22.437774    14.766163    19.734539    36.008958    67.357479    12.612127     22.30075    14.235163 
  417000    195.10126     59211823            0     59212582    12.683306    22.437787      14.7662    19.733016    36.010248    67.361157    12.612127     22.30075    14.235163 
  417200    274.73552     59211189            0     59212258    12.683322    22.437741    14.766239    19.734666     36.00559    67.365075    12.612127     22.30075    14.235163 
  417400    142.75519     59212153            0     59212709    12.683382    22.437736    14.766162    19.740675    36.005152    67.357352    12.612127     22.30075    14.235163 
  417600    277.94188     59210625            0     59211707    12.683313    22.437759    14.766192    19.733725    36.007375    67.360367    12.612127     22.30075    14.235163 
  417800    261.66754     59211866            0     59212885    12.683312    22.437749    14.765968    19.733608    36.006449    67.337935    12.612127     22.30075    14.235163 
  418000    214.39151     59211909            0     59212743    12.683321    22.437745    14.766348    19.734562    36.006047    67.375974    12.612127     22.30075    14.235163 
  418200    266.96651     59210691            0     59211731    12.683315    22.437766    14.766326    19.733913    36.008084    67.373742    12.612127     22.30075    14.235163 
  418400    288.82217     59210549            0     59211674     12.68332    22.437781    14.766234    19.734426    36.009601     67.36452    12.612127     22.30075    14.235163 
  418600    174.94447     59213137            0     59213818    12.683323    22.437759     14.76596    19.734761    36.007397    67.337092    12.612127     22.30075    14.235163 
  418800    222.45921     59210951            0     59211817    12.683313    22.437748    14.766368    19.733767    36.006273     67.37798    12.612127     22.30075    14.235163 
  419000    163.01559     59211156            0     59211791    12.683293    22.437755     14.76607    19.731709    36.007022    67.348176    12.612127     22.30075    14.235163 
  419200    203.63763     59211484            0     59212277    12.683314    22.437754    14.766187    19.733897    36.006959    67.359835    12.612127     22.30075    14.235163 
  419400    128.16196     59211201            0     59211700    12.683274    22.437746     14.76625    19.729895    36.006127    67.366178    12.612127     22.30075    14.235163 
  419600     303.9919     59210235            0     59211419    12.683274     22.43777    14.766112    19.729894    36.008497    67.352377    12.612127     22.30075    14.235163 
  419800    161.27482     59210632            0     59211260    12.683294    22.437738    14.766201     19.73187    36.005271    67.361255    12.612127     22.30075    14.235163 
  420000    108.83679     59211908            0     59212331    12.683321    22.437762    14.766518    19.734538    36.007705    67.392917    12.612127     22.30075    14.235163 
  420200    207.31606     59213903            0     59214711    12.683315    22.437753    14.766069    19.733976    36.006779    67.348073    12.612127     22.30075    14.235163 
  420400    246.15402     59213562            0     59214521    12.683315     22.43775    14.766266    19.733931    36.006558    67.367786    12.612127     22.30075    14.235163 
  420600    159.74179     59212390            0     59213012    12.683305    22.437768    14.766174     19.73292    36.008313    67.358548    12.612127     22.30075    14.235163 
  420800    255.47161     59213326            0     59214321    12.683318    22.437776    14.765286    19.734285    36.009086    67.269732    12.612127     22.30075    14.235163 
  421000    342.99108     59212378            0     59213714    12.683345    22.437746    14.766033    19.736988    36.006068    67.344468    12.612127     22.30075    14.235163 
  421200     261.1139     59212865            0     59213881    12.683284    22.437788    14.766279    19.730835    36.010354    67.368998    12.612127     22.30075    14.235163 
  421400      261.658     59212484            0     59213503    12.683305    22.437745    14.766433    19.732982    36.005983    67.384424    12.612127     22.30075    14.235163 
  421600    320.41778     59211887            0     59213134    12.683357    22.437786    14.766846    19.738185    36.010159    67.425732    12.612127     22.30075    14.235163 
  421800    65.427788     59212598            0     59212853    12.683325    22.437752    14.766465    19.734997    36.006704    67.387648    12.612127     22.30075    14.235163 
  422000    214.52365     59212652            0     59213488    12.683292    22.437704    14.766405     19.73164    36.001907    67.381634    12.612127     22.30075    14.235163 
  422200    175.81119     59213405            0     59214090    12.683279    22.437744    14.766584    19.730314    36.005872    67.399542    12.612127     22.30075    14.235163 
  422400    327.90541     59211945            0     59213222    12.683307    22.437754    14.766506    19.733104    36.006863     67.39179    12.612127     22.30075    14.235163 
  422600    293.92858     59211294            0     59212438    12.683322    22.437756    14.765975    19.734697    36.007136    67.338633    12.612127     22.30075    14.235163 
  422800    261.52739     59210893            0     59211911    12.683292    22.437731    14.766215    19.731657    36.004576    67.362595    12.612127     22.30075    14.235163 
  423000    138.40348     59213282            0     59213821    12.683351    22.437796    14.766425    19.737506    36.011123    67.383695    12.612127     22.30075    14.235163 
  423200    176.21626     59213163            0     59213849    12.683302    22.437765    14.766389    19.732612    36.008043    67.380068    12.612127     22.30075    14.235163 
  423400    326.79738     59211353            0     59212625    12.683337    22.437752    14.766277    19.736193    36.006756    67.368799    12.612127     22.30075    14.235163 
  423600    265.83775     59211210            0     59212245    12.683304    22.437736    14.766249    19.732836    36.005104    67.366021    12.612127     22.30075    14.235163 
  423800    213.82151     59210452            0     59211285    12.683317    22.437772    14.766207    19.734173    36.008704    67.361859    12.612127     22.30075    14.235163 
  424000    176.84681     59211335            0     59212023    12.683268    22.437795     14.76614    19.729226    36.010998    67.355177    12.612127     22.30075    14.235163 
  424200    239.46742     59211118            0     59212050    12.683263    22.437764    14.766111    19.728702    36.007928    67.352215    12.612127     22.30075    14.235163 
  424400    297.91146     59212646            0     59213805    12.683321    22.437797    14.766256    19.734562    36.011177    67.366757    12.612127     22.30075    14.235163 
  424600    208.17059     59211323            0     59212134    12.683305    22.437782    14.766416    19.732993    36.009727     67.38274    12.612127     22.30075    14.235163 
  424800    269.05828     59212225            0     59213272    12.683289    22.437755    14.766419    19.731383    36.007036    67.383046    12.612127     22.30075    14.235163 
  425000    155.56903     59212310            0     59212916    12.683285    22.437746    14.766033    19.730962    36.006148    67.344414    12.612127     22.30075    14.235163 
  425200    275.63078     59210859            0     59211932    12.683311     22.43776    14.766123    19.733591    36.007476    67.353418    12.612127     22.30075    14.235163 
  425400    385.91402     59211392            0     59212895    12.683318    22.437756    14.766154    19.734199    36.007131    67.356547    12.612127     22.30075    14.235163 
  425600    280.70941     59212521            0     59213613    12.683349    22.437796    14.766077    19.737381    36.011095    67.348879    12.612127     22.30075    14.235163 
  425800    359.54212     59211872            0     59213272    12.683343    22.437751     14.76641     19.73677    36.006624    67.382171    12.612127     22.30075    14.235163 
  426000    310.37462     59211010            0     59212218    12.683304    22.437776    14.766085    19.732889    36.009153    67.349586    12.612127     22.30075    14.235163 
  426200    190.44726     59212243            0     59212984    12.683316    22.437752     14.76618    19.734032    36.006693    67.359122    12.612127     22.30075    14.235163 
  426400    204.88711     59210496            0     59211294    12.683343    22.437762    14.766172    19.736775    36.007711    67.358335    12.612127     22.30075    14.235163 
  426600    177.32435     59212957            0     59213647    12.683317    22.437762    14.765726    19.734124    36.007694    67.313713    12.612127     22.30075    14.235163 
  426800    251.22139     59212803            0     59213781    12.683357    22.437766    14.765972     19.73813    36.008063    67.338321    12.612127     22.30075    14.235163 
  427000    269.81466     59212532            0     59213582    12.683347    22.437756    14.766068    19.737141    36.007119     67.34798    12.612127     22.30075    14.235163 
  427200    171.19536     59211609            0     59212276    12.683288     22.43778    14.766038    19.731264    36.009488    67.344918    12.612127     22.30075    14.235163 
  427400    225.99943     59211326            0     59212205    12.683305    22.437753     14.76607    19.732936    36.006829    67.348114    12.612127     22.30075    14.235163 
  427600    168.54564     59210619            0     59211276    12.683316    22.437758    14.766091    19.734072    36.007285    67.350201    12.612127     22.30075    14.235163 
  427800    250.47981     59211609            0     59212585    12.683312    22.437782    14.766276    19.733696    36.009721    67.368779    12.612127     22.30075    14.235163 
  428000    149.45319     59211548            0     59212130    12.683327    22.437754    14.765733    19.735172    36.006889    67.314468    12.612127     22.30075    14.235163 
  428200    145.88049     59210667            0     59211235    12.683344    22.437714    14.766275    19.736878    36.002867    67.368623    12.612127     22.30075    14.235163 
  428400    252.37087     59212011            0     59212994    12.683329    22.437798    14.766276    19.735367    36.011326    67.368755    12.612127     22.30075    14.235163 
  428600    221.78034     59211937            0     59212800    12.683296    22.437763    14.766728    19.732006    36.007777    67.413933    12.612127     22.30075    14.235163 
  428800    240.76209     59213110            0     59214047    12.683308    22.437761    14.767087    19.733232    36.007584    67.449907    12.612127     22.30075    14.235163 
  429000    334.38394     59212547            0     59213849    12.683318    22.437757    14.766783    19.734221    36.007221    67.419493    12.612127     22.30075    14.235163 
  429200    297.97433     59212763            0     59213923    12.683322    22.437743    14.766148     19.73466    36.005858    67.355953    12.612127     22.30075    14.235163 
  429400    223.91184     59211415            0     59212286    12.683307    22.437761    14.765968    19.733183    36.007572    67.337974    12.612127     22.30075    14.235163 
  429600    357.14378     59213193            0     59214583    12.683331    22.437695    14.766395    19.735541    36.001053    67.380643    12.612127     22.30075    14.235163 
  429800    269.64476     59211227            0     59212277    12.683313    22.437737    14.766518    19.733732    36.005226    67.392999    12.612127     22.30075    14.235163 
  430000    158.62808     59211376            0     59211994    12.683276    22.437741    14.766338    19.730035    36.005649    67.374896    12.612127     22.30075    14.235163 
  430200    137.41733     59212271            0     59212806    12.683371     22.43781    14.766849    19.739593    36.012504    67.426105    12.612127     22.30075    14.235163 
  430400    206.31322     59211204            0     59212007    12.683333    22.437767    14.766379    19.735796    36.008178    67.379073    12.612127     22.30075    14.235163 
  430600    194.75991     59211610            0     59212368    12.683302    22.437767    14.766322    19.732649     36.00821    67.373347    12.612127     22.30075    14.235163 
  430800    150.00304     59212770            0     59213354    12.683307    22.437742    14.766432    19.733161    36.005684    67.384327    12.612127     22.30075    14.235163 
  431000    233.63919     59210903            0     59211813    12.683348     22.43776    14.766161    19.737213    36.007536    67.357224    12.612127     22.30075    14.235163 
  431200    252.66503     59210308            0     59211291    12.683325    22.437788    14.766026    19.734974    36.010327    67.343721    12.612127     22.30075    14.235163 
  431400    272.31531     59210597            0     59211657    12.683317    22.437751    14.766025    19.734159    36.006604    67.343613    12.612127     22.30075    14.235163 
  431600    192.11516     59212241            0     59212988    12.683331    22.437745    14.766153    19.735509     36.00599    67.356397    12.612127     22.30075    14.235163 
  431800    558.06454     59209986            0     59212158    12.683323    22.437758    14.766098    19.734699    36.007308    67.350922    12.612127     22.30075    14.235163 
  432000     292.3666     59211054            0     59212192     12.68329    22.437781    14.766121    19.731477    36.009632    67.353267    12.612127     22.30075    14.235163 
  432200    250.51938     59210532            0     59211507    12.683306    22.437775    14.766348    19.733055    36.009041    67.375958    12.612127     22.30075    14.235163 
  432400    327.40036     59211563            0     59212837    12.683349    22.437755    14.766348    19.737397    36.007053     67.37598    12.612127     22.30075    14.235163 
  432600    194.13454     59212655            0     59213411    12.683331    22.437732    14.765724    19.735582    36.004671    67.313478    12.612127     22.30075    14.235163 
  432800    360.07702     59212968            0     59214370    12.683298    22.437796    14.765991    19.732233    36.011136    67.340232    12.612127     22.30075    14.235163 
  433000    169.64009     59212384            0     59213045    12.683356    22.437759    14.766099    19.738001    36.007419    67.350987    12.612127     22.30075    14.235163 
  433200     72.08289     59213330            0     59213611     12.68335    22.437768    14.765735     19.73744     36.00835    67.314568    12.612127     22.30075    14.235163 
  433400    244.18956     59212331            0     59213282    12.683276    22.437674    14.766075    19.730027    35.998881    67.348595    12.612127     22.30075    14.235163 
  433600    197.43346     59212257            0     59213025    12.683324    22.437774    14.766542    19.734869    36.008933    67.395311    12.612127     22.30075    14.235163 
  433800    161.61303     59214168            0     59214797    12.683311    22.437745    14.766517    19.733542    36.006001    67.392879    12.612127     22.30075    14.235163 
  434000    212.93951     59212287            0     59213116    12.683296    22.437743    14.766625    19.732028    36.005825    67.403656    12.612127     22.30075    14.235163 
  434200    258.63354     59212232            0     59213239    12.683342    22.437731    14.766683    19.736668     36.00458    67.409428    12.612127     22.30075    14.235163 
  434400     249.2876     59212233            0     59213204    12.683328    22.437764    14.766484    19.735273    36.007902    67.389577    12.612127     22.30075    14.235163 
  434600    299.61496     59210643            0     59211810    12.683294     22.43772    14.766295    19.731845    36.003507    67.370598    12.612127     22.30075    14.235163 
  434800    123.45401     59211667            0     59212147    12.683294    22.437746    14.766104    19.731807    36.006064    67.351564    12.612127     22.30075    14.235163 
  435000    331.43065     59211475            0     59212765    12.683317    22.437759     14.76608    19.734107    36.007392    67.349111    12.612127     22.30075    14.235163 
  435200    269.95208     59211286            0     59212337    12.683354    22.437761    14.766295    19.737834    36.007637    67.370671    12.612127     22.30075    14.235163 
  435400    240.23832     59213766            0     59214702    12.683326    22.437766    14.766914    19.735027    36.008082    67.432552    12.612127     22.30075    14.235163 
  435600     143.9347     59213185            0     59213745    12.683284    22.437795    14.766768    19.730807    36.010996    67.417953    12.612127     22.30075    14.235163 
  435800    196.86106     59213939            0     59214706    12.683304    22.437786    14.766402    19.732839    36.010119    67.381393    12.612127     22.30075    14.235163 
  436000    160.10415     59214722            0     59215345    12.683383    22.437747    14.767123     19.74073    36.006206    67.453454    12.612127     22.30075    14.235163 
  436200    252.56963     59213121            0     59214105    12.683303    22.437762    14.766468    19.732704    36.007695    67.387906    12.612127     22.30075    14.235163 
  436400    361.95164     59212699            0     59214109    12.683298    22.437733    14.766082    19.732246    36.004794    67.349311    12.612127     22.30075    14.235163 
  436600    267.33579     59214280            0     59215321    12.683327    22.437768    14.766322     19.73511    36.008274     67.37336    12.612127     22.30075    14.235163 
  436800    276.77295     59213388            0     59214466     12.68328    22.437723    14.766507    19.730401    36.003799    67.391844    12.612127     22.30075    14.235163 
  437000    97.221224     59212979            0     59213358    12.683378    22.437715    14.766763    19.740239    36.003006    67.417438    12.612127     22.30075    14.235163 
  437200    237.82251     59211133            0     59212059    12.683322    22.437741    14.766303    19.734651    36.005613    67.371456    12.612127     22.30075    14.235163 
  437400    61.286086     59212861            0     59213099    12.683277    22.437755     14.76636    19.730137    36.007038    67.377167    12.612127     22.30075    14.235163 
  437600     163.5253     59211768            0     59212405    12.683341    22.437783    14.766542    19.736548    36.009781    67.395346    12.612127     22.30075    14.235163 
  437800    303.41662     59214359            0     59215540    12.683285    22.437738    14.766413    19.730925    36.005289    67.382437    12.612127     22.30075    14.235163 
  438000    391.65559     59212735            0     59214259     12.68334    22.437746    14.765669    19.736422     36.00609    67.308036    12.612127     22.30075    14.235163 
  438200    172.00691     59211451            0     59212120    12.683296    22.437762    14.766443    19.732018    36.007661    67.385446    12.612127     22.30075    14.235163 
  438400    140.94896     59211248            0     59211796    12.683311    22.437752    14.766207    19.733516    36.006716    67.361811    12.612127     22.30075    14.235163 
  438600    180.65554     59211402            0     59212105    12.683345    22.437733    14.765931    19.736992    36.004768    67.334184    12.612127     22.30075    14.235163 
  438800    236.37733     59210954            0     59211874    12.683339    22.437753    14.766101    19.736305    36.006763    67.351268    12.612127     22.30075    14.235163 
  439000    160.08658     59211282            0     59211905    12.683312    22.437749    14.766153    19.733605    36.006406    67.356424    12.612127     22.30075    14.235163 
  439200    240.32106     59211059            0     59211994    12.683332    22.437797    14.766079    19.735628    36.011194    67.349054    12.612127     22.30075    14.235163 
  439400    99.608655     59210919            0     59211307    12.683326    22.437757    14.766014    19.735032    36.007247    67.342575    12.612127     22.30075    14.235163 
  439600    103.98718     59212457            0     59212862    12.683306    22.437804    14.766518     19.73306     36.01188    67.392954    12.612127     22.30075    14.235163 
  439800    284.18885     59211764            0     59212870    12.683315    22.437754    14.766111    19.733984    36.006862    67.352197    12.612127     22.30075    14.235163 
  440000    278.95529     59211057            0     59212143    12.683365    22.437724    14.766086    19.738905    36.003933    67.349747    12.612127     22.30075    14.235163 
  440200    272.36272     59210810            0     59211870    12.683314    22.437749    14.766229     19.73386    36.006361    67.363993    12.612127     22.30075    14.235163 
  440400     363.5217     59211631            0     59213046    12.683304    22.437751    14.765941    19.732853    36.006646    67.335203    12.612127     22.30075    14.235163 
  440600    285.59172     59210973            0     59212085    12.683316    22.437754    14.766113    19.734001    36.006869    67.352445    12.612127     22.30075    14.235163 
  440800     381.8768     59212355            0     59213842    12.683324    22.437725    14.765741    19.734869    36.004057     67.31522    12.612127     22.30075    14.235163 
  441000    425.10833     59211817            0     59213472    12.683307    22.437716    14.766028    19.733146    36.003148    67.343977    12.612127     22.30075    14.235163 
  441200    183.63522     59210762            0     59211477    12.683346     22.43773    14.766095    19.737016    36.004535    67.350594    12.612127     22.30075    14.235163 
  441400    179.50239     59210116            0     59210815    12.683301     22.43778    14.766092    19.732562    36.009506    67.350359    12.612127     22.30075    14.235163 
  441600    221.47648     59212333            0     59213196    12.683343    22.437721    14.765896    19.736793     36.00359    67.330763    12.612127     22.30075    14.235163 
  441800    171.32831     59211705            0     59212372    12.683295    22.437717    14.766122    19.731921    36.003176    67.353286    12.612127     22.30075    14.235163 
  442000    334.43659     59212394            0     59213696    12.683309    22.437765    14.766042     19.73336    36.007993    67.345297    12.612127     22.30075    14.235163 
  442200    168.33932     59210897            0     59211552     12.68333    22.437745    14.766191    19.735414    36.006034    67.360276    12.612127     22.30075    14.235163 
  442400     237.6616     59209960            0     59210885    12.683319    22.437777    14.766264    19.734306    36.009211     67.36757    12.612127     22.30075    14.235163 
  442600    210.27989     59211949            0     59212767    12.683312    22.437749    14.766412    19.733672    36.006375    67.382355    12.612127     22.30075    14.235163 
  442800    129.28304     59210850            0     59211353    12.683329    22.437746    14.766121    19.735372    36.006063    67.353232    12.612127     22.30075    14.235163 
  443000    260.72697     59212999            0     59214014     12.68332    22.437791    14.766531    19.734496    36.010636    67.394235    12.612127     22.30075    14.235163 
  443200    184.29689     59211109            0     59211827    12.683346    22.437754     14.76645    19.737013    36.006955    67.386176    12.612127     22.30075    14.235163 
  443400    141.48114     59212394            0     59212945    12.683319    22.437762     14.76584    19.734375    36.007664    67.325093    12.612127     22.30075    14.235163 
  443600     163.5698     59213227            0     59213864    12.683308    22.437772     14.76617    19.733278    36.008686    67.358103    12.612127     22.30075    14.235163 
  443800    317.14647     59213639            0     59214874    12.683307    22.437788    14.766649    19.733153    36.010306     67.40604    12.612127     22.30075    14.235163 
  444000    200.62322     59211516            0     59212297    12.683304    22.437783    14.766788    19.732833    36.009838    67.419963    12.612127     22.30075    14.235163 
  444200    240.66224     59211563            0     59212499    12.683303    22.437756    14.766567    19.732775    36.007084    67.397815    12.612127     22.30075    14.235163 
  444400    137.70411     59212047            0     59212583    12.683297    22.437715    14.766119    19.732174    36.003048    67.353049    12.612127     22.30075    14.235163 
  444600    300.48582     59211194            0     59212364    12.683325     22.43774    14.766289     19.73498    36.005506    67.369995    12.612127     22.30075    14.235163 
  444800    269.57289     59212627            0     59213677    12.683274     22.43777    14.766822    19.729879    36.008474    67.423341    12.612127     22.30075    14.235163 
  445000    116.43854     59212376            0     59212830    12.683317    22.437741    14.766503    19.734099    36.005608    67.391458    12.612127     22.30075    14.235163 
  445200    234.97303     59212207            0     59213122    12.683304    22.437713    14.766519    19.732856    36.002834    67.393058    12.612127     22.30075    14.235163 
  445400    266.44549     59211940            0     59212977    12.683332    22.437769    14.766656    19.735638    36.008388    67.406786    12.612127     22.30075    14.235163 
  445600    295.86524     59212184            0     59213336    12.683348    22.437792    14.766426    19.737229    36.010718    67.383699    12.612127     22.30075    14.235163 
  445800    278.79371     59212131            0     59213216     12.68332    22.437773    14.766404    19.734454    36.008784    67.381516    12.612127     22.30075    14.235163 
  446000    505.81954     59211612            0     59213581     12.68333    22.437758    14.766085      19.7354     36.00731    67.349606    12.612127     22.30075    14.235163 
  446200    321.14776     59211646            0     59212896    12.683315    22.437793    14.766149    19.733937    36.010823    67.356008    12.612127     22.30075    14.235163 
  446400    87.013143     59213621            0     59213960    12.683349    22.437766    14.766643    19.737354     36.00813    67.405471    12.612127     22.30075    14.235163 
  446600    243.04052     59211054            0     59212000     12.68332    22.437739    14.766339    19.734474    36.005407    67.375002    12.612127     22.30075    14.235163 
  446800    241.29505     59211666            0     59212606    12.683298    22.437772      14.7661      19.7322    36.008717    67.351155    12.612127     22.30075    14.235163 
  447000    402.68098     59212048            0     59213615    12.683312    22.437741    14.765986    19.733659    36.005655    67.339754    12.612127     22.30075    14.235163 
  447200    309.91719     59211016            0     59212223    12.683334    22.437753    14.766157    19.735828    36.006774    67.356862    12.612127     22.30075    14.235163 
  447400    306.73084     59211480            0     59212674    12.683307    22.437728    14.766163    19.733179    36.004276    67.357452    12.612127     22.30075    14.235163 
  447600    263.63412     59210347            0     59211373    12.683314    22.437754    14.766106    19.733867    36.006863    67.351763    12.612127     22.30075    14.235163 
  447800    209.97463     59212054            0     59212872    12.683322    22.437719    14.766177    19.734673    36.003448    67.358826    12.612127     22.30075    14.235163 
  448000     251.6974     59212261            0     59213241    12.683308    22.437781    14.766192    19.733213     36.00965    67.360302    12.612127     22.30075    14.235163 
  448200    194.85308     59211333            0     59212092    12.683352    22.437756    14.766258    19.737607     36.00707    67.366896    12.612127     22.30075    14.235163 
  448400    347.88125     59211718            0     59213072    12.683313    22.437759    14.766128    19.733746    36.007436    67.353885    12.612127     22.30075    14.235163 
  448600    183.57698     59211329            0     59212043    12.683329    22.437753    14.766213    19.735356    36.006803    67.362478    12.612127     22.30075    14.235163 
  448800    153.52024     59212892            0     59213489    12.683288    22.437778    14.766478    19.731233    36.009358    67.388953    12.612127     22.30075    14.235163 
  449000    176.09728     59211735            0     59212420    12.683315    22.437752    14.766356    19.733968    36.006757    67.376782    12.612127     22.30075    14.235163 
  449200    215.88826     59211583            0     59212424    12.683315    22.437754    14.766524    19.733991    36.006879     67.39353    12.612127     22.30075    14.235163 
  449400    265.39121     59212053            0     59213087    12.683294    22.437756    14.766331    19.731802    36.007065    67.374269    12.612127     22.30075    14.235163 
  449600    331.54823     59211632            0     59212923    12.683335    22.437747    14.766344    19.735922    36.006163    67.375562    12.612127     22.30075    14.235163 
  449800    371.32662     59211193            0     59212639    12.683312    22.437747    14.766387    19.733696    36.006235     67.37985    12.612127     22.30075    14.235163 
  450000    175.40267     59210834            0     59211517     12.68329    22.437755    14.766181    19.731426    36.007025    67.359237    12.612127     22.30075    14.235163 
  450200    234.72862     59211305            0     59212219    12.683311    22.437759     14.76614     19.73351    36.007399    67.355172    12.612127     22.30075    14.235163 
  450400    304.81544     59210463            0     59211650    12.683342    22.437756    14.766077    19.736688    36.007091    67.348874    12.612127     22.30075    14.235163 
  450600    250.49704     59211313            0     59212288    12.683315    22.437754    14.766152    19.733996    36.006878    67.356331    12.612127     22.30075    14.235163 
  450800    167.45458     59210225            0     59210877    12.683305    22.437754    14.766149    19.732929    36.006945    67.356077    12.612127     22.30075    14.235163 
  451000    313.71926     59212548            0     59213769    12.683286    22.437776    14.766405    19.731021    36.009098    67.381672    12.612127     22.30075    14.235163 
  451200    338.65483     59212195            0     59213513    12.683335    22.437755    14.766186    19.735951     36.00698    67.359706    12.612127     22.30075    14.235163 
  451400    337.80903     59212000            0     59213315    12.683315    22.437754    14.766211    19.733975    36.006879    67.362284    12.612127     22.30075    14.235163 
  451600    343.42969     59210054            0     59211391    12.683351    22.437754    14.766193    19.737567     36.00695    67.360434    12.612127     22.30075    14.235163 
  451800    173.22862     59211040            0     59211715     12.68333     22.43773    14.766114    19.735432    36.004469    67.352521    12.612127     22.30075    14.235163 
  452000    491.87203     59211955            0     59213870    12.683327    22.437733    14.766354    19.735153    36.004792    67.376563    12.612127     22.30075    14.235163 
  452200    233.51353     59212474            0     59213383    12.683313     22.43775    14.766674    19.733705    36.006542    67.408593    12.612127     22.30075    14.235163 
  452400    375.13766     59210643            0     59212103    12.683305    22.437756    14.766294    19.732933    36.007105    67.370536    12.612127     22.30075    14.235163 
  452600    328.39865     59211388            0     59212667    12.683332    22.437721    14.766003    19.735681    36.003566    67.341454    12.612127     22.30075    14.235163 
  452800    441.15858     59211074            0     59212792    12.683311    22.437746    14.766262    19.733518    36.006103    67.367309    12.612127     22.30075    14.235163 
  453000    338.27079     59210986            0     59212303    12.683315    22.437749    14.766015    19.733914    36.006365    67.342661    12.612127     22.30075    14.235163 
  453200    218.72285     59210779            0     59211630    12.683314    22.437753    14.766005    19.733882    36.006772    67.341585    12.612127     22.30075    14.235163 
  453400    245.93664     59211354            0     59212312    12.683304    22.437749    14.766079    19.732808     36.00642     67.34899    12.612127     22.30075    14.235163 
  453600    233.59663     59212372            0     59213281      12.6833    22.437756    14.766278    19.732447    36.007159    67.368967    12.612127     22.30075    14.235163 
  453800    207.01736     59213417            0     59214222    12.683288    22.437755    14.766756    19.731218    36.006982    67.416808    12.612127     22.30075    14.235163 
  454000     258.1919     59213772            0     59214777    12.683394    22.437769    14.766631    19.741843    36.008426    67.404247    12.612127     22.30075    14.235163 
  454200    236.99578     59212461            0     59213384    12.683283    22.437747    14.766351    19.730708    36.006204    67.376217    12.612127     22.30075    14.235163 
  454400    232.13268     59211456            0     59212360    12.683294    22.437751    14.765994    19.731877    36.006603    67.340483    12.612127     22.30075    14.235163 
  454600    357.84241     59210526            0     59211919    12.683304    22.437722    14.766044    19.732815    36.003716    67.345571    12.612127     22.30075    14.235163 
  454800    301.53914     59211483            0     59212657    12.683322     22.43774    14.766234    19.734638    36.005525    67.364533    12.612127     22.30075    14.235163 
  455000    152.10156     59211877            0     59212469    12.683298    22.437758    14.766434    19.732209    36.007267    67.384508    12.612127     22.30075    14.235163 
  455200    419.00279     59211865            0     59213496    12.683327    22.437771    14.766045    19.735104    36.008603    67.345623    12.612127     22.30075    14.235163 
  455400    334.30594     59211816            0     59213117    12.683289    22.437749    14.766314    19.731328    36.006391    67.372497    12.612127     22.30075    14.235163 
  455600    176.79202     59213086            0     59213775    12.683294    22.437817    14.766379    19.731833    36.013181    67.379061    12.612127     22.30075    14.235163 
  455800    100.37641     59212928            0     59213318    12.683297    22.437788    14.766067    19.732129    36.010265     67.34787    12.612127     22.30075    14.235163 
  456000    332.42282     59213009            0     59214303    12.683315    22.437796     14.76595    19.733912    36.011069    67.336077    12.612127     22.30075    14.235163 
  456200    253.13316     59212411            0     59213396    12.683325    22.437738    14.766286    19.734932    36.005357    67.369738    12.612127     22.30075    14.235163 
  456400     182.8874     59211152            0     59211864    12.683297    22.437757    14.766449    19.732123    36.007204    67.386019    12.612127     22.30075    14.235163 
  456600     317.5185     59211278            0     59212515    12.683295    22.437724    14.766131    19.731915    36.003891    67.354189    12.612127     22.30075    14.235163 
  456800    294.71197     59212098            0     59213245    12.683289    22.437756    14.766134    19.731332    36.007136    67.354575    12.612127     22.30075    14.235163 
  457000    329.41269     59211939            0     59213221    12.683321    22.437743    14.766331    19.734519    36.005804    67.374293    12.612127     22.30075    14.235163 
  457200    359.03655     59211145            0     59212543    12.683316    22.437753    14.765918    19.734004    36.006849    67.332877    12.612127     22.30075    14.235163 
  457400    268.47023     59210798            0     59211843    12.683333    22.437779    14.766225    19.735705    36.009431    67.363662    12.612127     22.30075    14.235163 
  457600    182.30541     59212306            0     59213016    12.683298    22.437738    14.766175    19.732292    36.005328    67.358678    12.612127     22.30075    14.235163 
  457800    190.66965     59212087            0     59212830    12.683292    22.437751    14.766054    19.731639    36.006563      67.3465    12.612127     22.30075    14.235163 
  458000     250.4751     59210810            0     59211785     12.68334    22.437724    14.766172    19.736484    36.003896    67.358382    12.612127     22.30075    14.235163 
  458200    134.82294     59211664            0     59212189    12.683326    22.437758    14.766217    19.735018    36.007287    67.362856    12.612127     22.30075    14.235163 
  458400    323.16047     59210511            0     59211769    12.683341    22.437726    14.766123    19.736581    36.004086     67.35341    12.612127     22.30075    14.235163 
  458600     144.9058     59213359            0     59213923    12.683307    22.437754    14.766449    19.733122    36.006927    67.386061    12.612127     22.30075    14.235163 
  458800    390.82217     59210948            0     59212470    12.683282    22.437751      14.7663    19.730666    36.006578    67.371121    12.612127     22.30075    14.235163 
  459000    406.02844     59210638            0     59212218    12.683315    22.437754    14.766095    19.733928    36.006864     67.35066    12.612127     22.30075    14.235163 
  459200    212.03683     59211640            0     59212466    12.683319    22.437768    14.766268    19.734304    36.008274    67.367894    12.612127     22.30075    14.235163 
  459400    200.46524     59211327            0     59212107    12.683306    22.437775    14.766192    19.733097    36.009028    67.360364    12.612127     22.30075    14.235163 
  459600    346.58089     59210452            0     59211801    12.683266    22.437755    14.766171    19.729019    36.007004    67.358263    12.612127     22.30075    14.235163 
  459800    110.53852     59212992            0     59213422    12.683321     22.43776    14.765857     19.73451    36.007486    67.326819    12.612127     22.30075    14.235163 
  460000    292.40514     59211886            0     59213024    12.683314    22.437762    14.766287    19.733846    36.007678    67.369862    12.612127     22.30075    14.235163 
  460200    140.28972     59212897            0     59213444    12.683325    22.437766    14.766715    19.734902    36.008137    67.412658    12.612127     22.30075    14.235163 
  460400    282.03112     59211336            0     59212434    12.683335    22.437753    14.766691    19.735938    36.006787    67.410298    12.612127     22.30075    14.235163 
  460600    106.04325     59211541            0     59211954    12.683338    22.437753    14.766193     19.73623    36.006796     67.36042    12.612127     22.30075    14.235163 
  460800    237.44443     59211256            0     59212180    12.683351     22.43775    14.765989    19.737509    36.006542    67.339979    12.612127     22.30075    14.235163 
  461000    390.42548     59212125            0     59213645    12.683236    22.437719    14.766271    19.726002    36.003448    67.368203    12.612127     22.30075    14.235163 
  461200    314.44358     59210752            0     59211976    12.683338    22.437745    14.766311    19.736293    36.005978    67.372263    12.612127     22.30075    14.235163 
  461400    403.72203     59210835            0     59212407    12.683361    22.437757    14.765982    19.738568    36.007196    67.339355    12.612127     22.30075    14.235163 
  461600    355.55635     59210038            0     59211422    12.683294    22.437726    14.766046    19.731858    36.004102    67.345685    12.612127     22.30075    14.235163 
  461800    172.43253     59209963            0     59210634    12.683309    22.437755    14.766072     19.73336    36.006998     67.34835    12.612127     22.30075    14.235163 
  462000    226.97276     59211752            0     59212636    12.683258    22.437749      14.7664    19.728215    36.006403    67.381171    12.612127     22.30075    14.235163 
  462200    201.62575     59211254            0     59212039    12.683316    22.437752    14.766501    19.733998    36.006745    67.391227    12.612127     22.30075    14.235163 
  462400    150.25318     59212043            0     59212628    12.683314     22.43776     14.76618    19.733819    36.007555    67.359135    12.612127     22.30075    14.235163 
  462600    282.53283     59210823            0     59211923    12.683312    22.437734    14.766001     19.73369    36.004922    67.341216    12.612127     22.30075    14.235163 
  462800    235.79134     59211458            0     59212376    12.683314    22.437753    14.766293    19.733815    36.006822    67.370466    12.612127     22.30075    14.235163 
  463000    254.90966     59210807            0     59211799    12.683294    22.437741    14.766116    19.731856    36.005652    67.352694    12.612127     22.30075    14.235163 
  463200     131.1196     59210838            0     59211349    12.683377    22.437705    14.766214    19.740146    36.001986    67.362535    12.612127     22.30075    14.235163 
  463400      225.277     59210498            0     59211375    12.683318    22.437753    14.766144    19.734246    36.006805    67.355563    12.612127     22.30075    14.235163 
  463600    301.33439     59211510            0     59212683    12.683333    22.437757    14.766239    19.735755    36.007241    67.365083    12.612127     22.30075    14.235163 
  463800    155.51906     59211134            0     59211740    12.683315    22.437754    14.766213    19.733989    36.006878     67.36247    12.612127     22.30075    14.235163 
  464000    258.04135     59211968            0     59212972    12.683315    22.437752     14.76675    19.733996    36.006735    67.416178    12.612127     22.30075    14.235163 
  464200    71.470663     59210768            0     59211046    12.683348    22.437744    14.766047    19.737217    36.005934    67.345816    12.612127     22.30075    14.235163 
  464400    203.43722     59211662            0     59212454    12.683338    22.437735    14.765821    19.736213    36.004972    67.323199    12.612127     22.30075    14.235163 
  464600    264.48566     59211515            0     59212545    12.683291    22.437781    14.766011    19.731523    36.009578    67.342199    12.612127     22.30075    14.235163 
  464800    190.30592     59211128            0     59211868    12.683305    22.437738    14.766384    19.732926    36.005307    67.379536    12.612127     22.30075    14.235163 
  465000    160.58915     59211025            0     59211650     12.68332    22.437753    14.766358    19.734496    36.006849    67.376944    12.612127     22.30075    14.235163 
  465200    273.95527     59211554            0     59212621    12.683376    22.437716    14.766074    19.740083    36.003095    67.348524    12.612127     22.30075    14.235163 
  465400     217.7952     59211785            0     59212633    12.683336     22.43774    14.766024    19.736026    36.005504    67.343483    12.612127     22.30075    14.235163 
  465600    241.00121     59211864            0     59212802    12.683314    22.437756    14.766201    19.733882    36.007062    67.361218    12.612127     22.30075    14.235163 
  465800    372.47797     59211002            0     59212452    12.683315    22.437754    14.766326    19.733974    36.006877    67.373719    12.612127     22.30075    14.235163 
  466000    240.73055     59211192            0     59212130    12.683353    22.437772    14.765916    19.737753    36.008751    67.332681    12.612127     22.30075    14.235163 
  466200    304.26452     59211131            0     59212316    12.683333    22.437759    14.766249    19.735731    36.007419    67.366057    12.612127     22.30075    14.235163 
  466400    174.60267     59212405            0     59213084    12.683327    22.437784    14.766335    19.735128    36.009901    67.374597    12.612127     22.30075    14.235163 
  466600    162.31786     59211393            0     59212025    12.683326    22.437758    14.766125    19.735006    36.007276    67.353587    12.612127     22.30075    14.235163 
  466800    359.70798     59211561            0     59212961    12.683307    22.437769    14.766132    19.733192    36.008424    67.354289    12.612127     22.30075    14.235163 
  467000    154.14277     59210846            0     59211446     12.68332    22.437746    14.766005    19.734457    36.006094    67.341676    12.612127     22.30075    14.235163 
  467200    371.80421     59210723            0     59212170    12.683307     22.43776    14.766145    19.733137    36.007533    67.355589    12.612127     22.30075    14.235163 
  467400    203.88004     59211159            0     59211952    12.683315    22.437753    14.766002    19.733964    36.006849    67.341348    12.612127     22.30075    14.235163 
  467600    270.63595     59210919            0     59211973    12.683291    22.437755    14.765974     19.73158    36.007012    67.338541    12.612127     22.30075    14.235163 
  467800    225.62922     59211423            0     59212302    12.683305    22.437763    14.766208    19.732984    36.007782     67.36191    12.612127     22.30075    14.235163 
  468000    194.52693     59211277            0     59212034    12.683298    22.437733    14.766088    19.732222    36.004799    67.349915    12.612127     22.30075    14.235163 
  468200    162.74135     59210577            0     59211211    12.683299    22.437729    14.766026    19.732393    36.004454    67.343728    12.612127     22.30075    14.235163 
  468400    185.79491     59210729            0     59211452    12.683308    22.437764    14.766298    19.733252     36.00787    67.370943    12.612127     22.30075    14.235163 
  468600    160.33479     59210379            0     59211004    12.683322    22.437735    14.766117    19.734649    36.004989    67.352877    12.612127     22.30075    14.235163 
  468800    322.91773     59211186            0     59212443    12.683343    22.437703    14.766068    19.736712    36.001836     67.34798    12.612127     22.30075    14.235163 
  469000    175.00656     59211549            0     59212230    12.683331    22.437801     14.76617      19.7355     36.01158    67.358147    12.612127     22.30075    14.235163 
  469200    403.31155     59211488            0     59213059    12.683284    22.437722    14.766216    19.730846    36.003728    67.362752    12.612127     22.30075    14.235163 
  469400    408.04672     59211439            0     59213028    12.683334    22.437751    14.766212     19.73588    36.006568    67.362289    12.612127     22.30075    14.235163 
  469600    387.81571     59211179            0     59212688    12.683321    22.437772    14.766124    19.734517    36.008704    67.353559    12.612127     22.30075    14.235163 
  469800    411.83413     59211067            0     59212671    12.683293     22.43774    14.766332    19.731725    36.005483    67.374386    12.612127     22.30075    14.235163 
  470000      199.652     59211252            0     59212029    12.683282    22.437715    14.766356    19.730613     36.00297    67.376714    12.612127     22.30075    14.235163 
  470200    229.18071     59212805            0     59213697    12.683336    22.437764    14.766143    19.736065     36.00787    67.355394    12.612127     22.30075    14.235163 
  470400    219.05418     59210646            0     59211499    12.683317    22.437749    14.766166    19.734135    36.006362    67.357708    12.612127     22.30075    14.235163 
  470600    145.47596     59210326            0     59210892    12.683283    22.437781    14.766208    19.730725    36.009659    67.361985    12.612127     22.30075    14.235163 
  470800    216.67653     59212159            0     59213002    12.683322    22.437755    14.766491    19.734612    36.006978    67.390299    12.612127     22.30075    14.235163 
  471000    245.13673     59211629            0     59212583    12.683319     22.43775    14.766184    19.734367    36.006554    67.359533    12.612127     22.30075    14.235163 
  471200    316.47241     59211068            0     59212300    12.683312    22.437733    14.766146    19.733665    36.004813    67.355763    12.612127     22.30075    14.235163 
  471400    197.24071     59210691            0     59211459    12.683313    22.437687     14.76617    19.733738    36.000208    67.358161    12.612127     22.30075    14.235163 
  471600    329.00144     59210631            0     59211912     12.68334    22.437743    14.766312     19.73645    36.005801    67.372305    12.612127     22.30075    14.235163 
  471800    334.08496     59209995            0     59211296    12.683342    22.437774     14.76617    19.736661    36.008865    67.358102    12.612127     22.30075    14.235163 
  472000    169.73253     59211618            0     59212279     12.68331    22.437759    14.766075    19.733427    36.007444    67.348677    12.612127     22.30075    14.235163 
  472200    248.12187     59211276            0     59212242    12.683332    22.437731    14.765912    19.735695    36.004617    67.332294    12.612127     22.30075    14.235163 
  472400    302.95306     59211474            0     59212653    12.683306    22.437751    14.766045    19.732998    36.006598    67.345621    12.612127     22.30075    14.235163 
  472600    171.03985     59211168            0     59211833    12.683298     22.43775    14.766077    19.732273    36.006534    67.348839    12.612127     22.30075    14.235163 
  472800    210.88318     59211284            0     59212105     12.68332    22.437751    14.766201    19.734459    36.006591    67.361229    12.612127     22.30075    14.235163 
  473000    136.62004     59211728            0     59212259    12.683338    22.437776    14.766084    19.736199      36.0091    67.349559    12.612127     22.30075    14.235163 
  473200    358.37479     59211902            0     59213297    12.683322    22.437778    14.765855    19.734666    36.009275    67.326599    12.612127     22.30075    14.235163 
  473400    315.11828     59211089            0     59212316    12.683337    22.437777    14.765789    19.736116    36.009209    67.320045    12.612127     22.30075    14.235163 
  473600    268.60697     59212933            0     59213979     12.68334    22.437754     14.76576     19.73641    36.006923    67.317126    12.612127     22.30075    14.235163 
  473800    210.95985     59210492            0     59211313     12.68332    22.437744    14.766032    19.734443    36.005902    67.344341    12.612127     22.30075    14.235163 
  474000    138.89756     59210476            0     59211017    12.683286    22.437785    14.766208    19.731016    36.010061    67.361952    12.612127     22.30075    14.235163 
  474200    205.56159     59210913            0     59211714    12.683315    22.437754    14.766085    19.733976    36.006879    67.349642    12.612127     22.30075    14.235163 
  474400    391.62359     59211652            0     59213176    12.683327    22.437771    14.766034    19.735101    36.008625     67.34454    12.612127     22.30075    14.235163 
  474600    107.81747     59210553            0     59210973    12.683284    22.437749    14.766125    19.730837    36.006419    67.353604    12.612127     22.30075    14.235163 
  474800    413.47545     59212201            0     59213810    12.683305    22.437739     14.76635    19.732988    36.005378    67.376108    12.612127     22.30075    14.235163 
  475000    281.75986     59211521            0     59212618    12.683336     22.43772    14.766039     19.73602    36.003466    67.345078    12.612127     22.30075    14.235163 
  475200    291.04491     59210681            0     59211814    12.683303    22.437772     14.76627    19.732747    36.008752    67.368175    12.612127     22.30075    14.235163 
  475400    214.63063     59212383            0     59213218    12.683333    22.437736    14.765821    19.735762    36.005121     67.32323    12.612127     22.30075    14.235163 
  475600     161.5086     59212845            0     59213474    12.683264    22.437757    14.766053    19.728802    36.007257    67.346447    12.612127     22.30075    14.235163 
  475800    181.71326     59212953            0     59213661    12.683307    22.437719    14.766365    19.733192    36.003446    67.377599    12.612127     22.30075    14.235163 
  476000    334.25286     59212734            0     59214035    12.683274    22.437728    14.766159    19.729828     36.00429    67.357008    12.612127     22.30075    14.235163 
  476200    224.58712     59211559            0     59212433    12.683321    22.437741    14.766277    19.734591    36.005576     67.36885    12.612127     22.30075    14.235163 
  476400    372.92997     59210235            0     59211686    12.683288    22.437757    14.766053    19.731227    36.007167    67.346385    12.612127     22.30075    14.235163 
  476600    170.66308     59211280            0     59211945    12.683293    22.437754    14.766511    19.731747    36.006958    67.392235    12.612127     22.30075    14.235163 
  476800    209.19562     59212415            0     59213230    12.683355    22.437751    14.766257    19.737931    36.006655     67.36684    12.612127     22.30075    14.235163 
  477000    288.16737     59212478            0     59213600    12.683323    22.437742    14.766297    19.734762    36.005746    67.370875    12.612127     22.30075    14.235163 
  477200    129.75719     59211141            0     59211646    12.683311    22.437765    14.766132    19.733552    36.007974    67.354296    12.612127     22.30075    14.235163 
  477400    162.21104     59210608            0     59211240    12.683285    22.437754     14.76624    19.730909    36.006869    67.365136    12.612127     22.30075    14.235163 
  477600    382.59284     59211293            0     59212782    12.683308    22.437746    14.766288    19.733282    36.006111    67.369891    12.612127     22.30075    14.235163 
  477800    132.01844     59212008            0     59212522    12.683294    22.437742    14.766157    19.731891    36.005712    67.356789    12.612127     22.30075    14.235163 
  478000    122.60843     59211858            0     59212335    12.683304    22.437754    14.766132    19.732869    36.006943    67.354333    12.612127     22.30075    14.235163 
  478200    472.20428     59210292            0     59212130    12.683327    22.437745    14.766026    19.735098    36.006041    67.343774    12.612127     22.30075    14.235163 
  478400     196.4028     59212400            0     59213165    12.683272    22.437731    14.766516    19.729644    36.004616    67.392787    12.612127     22.30075    14.235163 
  478600    108.53393     59210813            0     59211236     12.68337    22.437702    14.766472    19.739468    36.001725     67.38836    12.612127     22.30075    14.235163 
  478800    230.91426     59211788            0     59212687    12.683305    22.437766    14.766277    19.732992    36.008062    67.368809    12.612127     22.30075    14.235163 
  479000     407.9609     59211294            0     59212882     12.68332    22.437745     14.76634    19.734443    36.006029    67.375182    12.612127     22.30075    14.235163 
  479200    157.17235     59212454            0     59213066     12.68328    22.437768    14.766326    19.730416    36.008288    67.373716    12.612127     22.30075    14.235163 
  479400    344.50626     59210726            0     59212067    12.683321    22.437767    14.766024    19.734597    36.008226    67.343563    12.612127     22.30075    14.235163 
  479600    297.68695     59211057            0     59212216    12.683333    22.437752    14.766056    19.735745    36.006718    67.346704    12.612127     22.30075    14.235163 
  479800    265.10544     59211966            0     59212998    12.683306    22.437722    14.765959    19.733061    36.003663    67.337062    12.612127     22.30075    14.235163 
  480000    325.04624     59211653            0     59212919     12.68332    22.437745    14.766405    19.734441    36.006024    67.381685    12.612127     22.30075    14.235163 
  480200    370.06022     59210789            0     59212229    12.683316    22.437754    14.766055    19.734012    36.006877    67.346654    12.612127     22.30075    14.235163 
  480400    194.28168     59212195            0     59212951    12.683307    22.437761    14.766194    19.733182    36.007611    67.360564    12.612127     22.30075    14.235163 
  480600    162.08052     59214155            0     59214786    12.683316    22.437783     14.76648    19.734093    36.009776    67.389185    12.612127     22.30075    14.235163 
  480800    116.53254     59211593            0     59212046    12.683332    22.437721    14.766718    19.735599    36.003572    67.412963    12.612127     22.30075    14.235163 
  481000    312.47272     59212795            0     59214011    12.683316    22.437754    14.766135    19.734003      36.0069     67.35467    12.612127     22.30075    14.235163 
  481200    139.67138     59209896            0     59210440    12.683331    22.437755    14.766071    19.735574    36.007052    67.348215    12.612127     22.30075    14.235163 
  481400    201.11824     59210836            0     59211619    12.683299    22.437744    14.766352    19.732359    36.005922    67.376339    12.612127     22.30075    14.235163 
  481600    395.23396     59212527            0     59214065    12.683311    22.437739    14.766179    19.733573    36.005375    67.359063    12.612127     22.30075    14.235163 
  481800     311.2344     59211740            0     59212951     12.68338    22.437748    14.766044    19.740446    36.006322    67.345559    12.612127     22.30075    14.235163 
  482000    162.84012     59210040            0     59210674    12.683313     22.43773    14.766244    19.733728    36.004491    67.365531    12.612127     22.30075    14.235163 
  482200    395.07089     59211585            0     59213123    12.683303    22.437755    14.766329    19.732786    36.006965    67.374056    12.612127     22.30075    14.235163 
  482400    89.478073     59212810            0     59213158    12.683343    22.437765    14.766539     19.73679    36.008042    67.395024    12.612127     22.30075    14.235163 
  482600    297.70627     59211354            0     59212512    12.683315    22.437754    14.766339    19.733965    36.006873    67.375021    12.612127     22.30075    14.235163 
  482800    169.28534     59210869            0     59211528    12.683351    22.437781    14.766205    19.737552    36.009579    67.361685    12.612127     22.30075    14.235163 
  483000    162.05732     59210528            0     59211159     12.68334    22.437779    14.766061    19.736438    36.009449    67.347208    12.612127     22.30075    14.235163 
  483200    371.21954     59211860            0     59213305     12.68334     22.43774    14.766382    19.736477    36.005532    67.379319    12.612127     22.30075    14.235163 
  483400    216.01962     59210265            0     59211105    12.683319    22.437753    14.765989     19.73439    36.006858    67.340037    12.612127     22.30075    14.235163 
  483600    226.12858     59211042            0     59211922    12.683269    22.437758    14.766323    19.729318    36.007278    67.373486    12.612127     22.30075    14.235163 
  483800    264.91487     59211900            0     59212932    12.683289    22.437774    14.765938    19.731324     36.00896    67.334921    12.612127     22.30075    14.235163 
  484000    180.29652     59210264            0     59210966    12.683312     22.43776    14.766109    19.733668    36.007488    67.351989    12.612127     22.30075    14.235163 
  484200    315.15544     59211117            0     59212344    12.683315    22.437754     14.76628    19.733977    36.006879     67.36911    12.612127     22.30075    14.235163 
  484400    372.70979     59212062            0     59213513    12.683342    22.437738    14.766335    19.736671     36.00529    67.374682    12.612127     22.30075    14.235163 
  484600     301.2165     59212872            0     59214045    12.683295    22.437772    14.765591    19.731948    36.008696    67.300235    12.612127     22.30075    14.235163 
  484800    312.81358     59212639            0     59213857    12.683311    22.437754    14.766051    19.733593    36.006904    67.346223    12.612127     22.30075    14.235163 
  485000    171.38062     59211521            0     59212189    12.683312    22.437748     14.76592    19.733613    36.006304    67.333158    12.612127     22.30075    14.235163 
  485200     216.0059     59211415            0     59212256    12.683326    22.437732    14.765963    19.735046    36.004693    67.337438    12.612127     22.30075    14.235163 
  485400    411.39457     59211644            0     59213246     12.68331    22.437744    14.766333    19.733481    36.005938     67.37442    12.612127     22.30075    14.235163 
  485600    249.47936     59212097            0     59213068    12.683297     22.43775    14.765997    19.732144     36.00649    67.340865    12.612127     22.30075    14.235163 
  485800    204.10752     59211495            0     59212290    12.683333    22.437763    14.766341    19.735758    36.007858    67.375256    12.612127     22.30075    14.235163 
  486000    328.10973     59209756            0     59211033    12.683338    22.437757    14.766209    19.736203    36.007236    67.362001    12.612127     22.30075    14.235163 
  486200    197.93787     59213069            0     59213840    12.683315    22.437754    14.766199    19.733975    36.006879    67.361061    12.612127     22.30075    14.235163 
  486400    216.18553     59212034            0     59212876    12.683298    22.437766    14.766163    19.732245    36.008078     67.35743    12.612127     22.30075    14.235163 
  486600    349.60475     59210652            0     59212013     12.68332    22.437764     14.76614    19.734398    36.007954    67.355101    12.612127     22.30075    14.235163 
  486800    366.25907     59209890            0     59211316    12.683312    22.437787    14.766107    19.733674    36.010165    67.351859    12.612127     22.30075    14.235163 
  487000    130.51813     59210497            0     59211005    12.683263     22.43776    14.766185    19.728772    36.007472    67.359681    12.612127     22.30075    14.235163 
  487200    136.96624     59211141            0     59211674    12.683329    22.437752    14.766263    19.735355    36.006739    67.367467    12.612127     22.30075    14.235163 
  487400    421.21215     59212292            0     59213932    12.683315    22.437754    14.766241    19.733976    36.006879    67.365278    12.612127     22.30075    14.235163 
  487600    256.17802     59211261            0     59212258    12.683279    22.437756    14.765877    19.730308    36.007107    67.328835    12.612127     22.30075    14.235163 
  487800    267.66494     59212829            0     59213871    12.683329    22.437791    14.766624    19.735317    36.010638    67.403598    12.612127     22.30075    14.235163 
  488000    307.67455     59210573            0     59211771    12.683345    22.437756    14.766053    19.736923    36.007106    67.346396    12.612127     22.30075    14.235163 
  488200    173.48904     59211390            0     59212065    12.683291    22.437713    14.766379    19.731565    36.002778    67.378998    12.612127     22.30075    14.235163 
  488400    293.96316     59211404            0     59212548    12.683299    22.437762    14.766221    19.732329    36.007704    67.363256    12.612127     22.30075    14.235163 
  488600    291.05721     59211331            0     59212464    12.683318    22.437762    14.766309    19.734241    36.007726    67.372057    12.612127     22.30075    14.235163 
  488800    200.69054     59211498            0     59212279    12.683315    22.437754    14.766161     19.73398    36.006892    67.357191    12.612127     22.30075    14.235163 
  489000    275.20975     59212287            0     59213359    12.683297    22.437753    14.765987    19.732104    36.006844    67.339875    12.612127     22.30075    14.235163 
  489200    161.29303     59212057            0     59212685    12.683275    22.437756    14.766296    19.729945      36.0071    67.370776    12.612127     22.30075    14.235163 
  489400    317.56752     59211616            0     59212853    12.683291    22.437778    14.766241      19.7315    36.009303    67.365215    12.612127     22.30075    14.235163 
  489600    279.54924     59210846            0     59211934     12.68331    22.437762    14.766068     19.73346    36.007678    67.347924    12.612127     22.30075    14.235163 
  489800    389.90705     59210191            0     59211709    12.683289    22.437754    14.766134     19.73138    36.006922    67.354556    12.612127     22.30075    14.235163 
  490000    136.82869     59210315            0     59210848    12.683352    22.437735    14.766311    19.737627    36.005044    67.372238    12.612127     22.30075    14.235163 
  490200    317.82123     59211848            0     59213085    12.683313    22.437742    14.766233    19.733757    36.005684    67.364431    12.612127     22.30075    14.235163 
  490400    295.40007     59212485            0     59213635    12.683312    22.437749    14.766233    19.733652     36.00637    67.364485    12.612127     22.30075    14.235163 
  490600    433.70023     59213286            0     59214974    12.683315    22.437754    14.765862    19.733978     36.00688      67.3273    12.612127     22.30075    14.235163 
  490800    226.30751     59210569            0     59211450    12.683308    22.437769    14.765967    19.733206    36.008401    67.337789    12.612127     22.30075    14.235163 
  491000    110.43661     59211015            0     59211444    12.683336    22.437753     14.76633    19.736009    36.006774    67.374171    12.612127     22.30075    14.235163 
  491200    302.21686     59211952            0     59213129    12.683301    22.437714    14.766291    19.732566    36.002858    67.370288    12.612127     22.30075    14.235163 
  491400    237.47687     59212410            0     59213335    12.683345    22.437732    14.765926    19.736943     36.00471    67.333718    12.612127     22.30075    14.235163 
  491600    91.742352     59211496            0     59211853    12.683334    22.437772    14.765826    19.735882    36.008718    67.323753    12.612127     22.30075    14.235163 
  491800    407.93809     59211262            0     59212850    12.683298    22.437756    14.766178    19.732272    36.007101    67.358904    12.612127     22.30075    14.235163 
  492000    157.58786     59211487            0     59212100    12.683324    22.437753    14.766319    19.734831    36.006858    67.373046    12.612127     22.30075    14.235163 
  492200    326.34855     59211760            0     59213030    12.683317    22.437757    14.766014    19.734113    36.007211    67.342488    12.612127     22.30075    14.235163 
  492400    333.14472     59210576            0     59211873    12.683329     22.43776    14.766076    19.735314    36.007506     67.34869    12.612127     22.30075    14.235163 
  492600    54.102499     59212041            0     59212251    12.683296    22.437764    14.766331    19.732093    36.007887    67.374252    12.612127     22.30075    14.235163 
  492800     250.3947     59211922            0     59212897    12.683305    22.437734     14.76669    19.732952    36.004884     67.41016    12.612127     22.30075    14.235163 
  493000    239.67191     59211427            0     59212360    12.683314    22.437754    14.766633    19.733826    36.006874     67.40442    12.612127     22.30075    14.235163 
  493200    386.77962     59212429            0     59213935    12.683321    22.437782    14.766607    19.734546    36.009678    67.401865    12.612127     22.30075    14.235163 
  493400    125.05813     59212120            0     59212607    12.683338    22.437722      14.7662    19.736269    36.003676     67.36117    12.612127     22.30075    14.235163 
  493600    246.00479     59212185            0     59213142    12.683295    22.437712    14.765862    19.731902    36.002756    67.327329    12.612127     22.30075    14.235163 
  493800    168.99995     59212190            0     59212848    12.683333    22.437787    14.765696    19.735732    36.010197    67.310741    12.612127     22.30075    14.235163 
  494000    202.06485     59211463            0     59212249    12.683271    22.437771    14.765878    19.729521    36.008566    67.328968    12.612127     22.30075    14.235163 
  494200    160.71319     59212303            0     59212929    12.683329    22.437714     14.76562    19.735371    36.002943    67.303147    12.612127     22.30075    14.235163 
  494400    233.72076     59212333            0     59213242    12.683358     22.43779    14.766131    19.738281    36.010508    67.354244    12.612127     22.30075    14.235163 
  494600    357.79551     59211313            0     59212706    12.683322    22.437745    14.766097    19.734665    36.006024    67.350861    12.612127     22.30075    14.235163 
  494800    240.64247     59210757            0     59211694    12.683368    22.437689    14.766225     19.73923    36.000428    67.363637    12.612127     22.30075    14.235163 
  495000    333.14325     59211296            0     59212593    12.683315    22.437754    14.766134    19.733975    36.006879    67.354566    12.612127     22.30075    14.235163 
  495200    108.04874     59212060            0     59212480    12.683295    22.437768    14.766226     19.73194    36.008306    67.363718    12.612127     22.30075    14.235163 
  495400     229.1794     59213047            0     59213940    12.683315    22.437754    14.766557    19.733909    36.006882    67.396886    12.612127     22.30075    14.235163 
  495600    125.74192     59211946            0     59212435     12.68327    22.437756    14.766702    19.729411    36.007135    67.411397    12.612127     22.30075    14.235163 
  495800    329.54543     59213207            0     59214490    12.683352    22.437808    14.766789    19.737646    36.012314    67.420104    12.612127     22.30075    14.235163 
  496000    235.87298     59212587            0     59213505    12.683298    22.437752    14.766443    19.732294    36.006717    67.385422    12.612127     22.30075    14.235163 
  496200    199.53523     59214050            0     59214827    12.683348    22.437774    14.766652    19.737297    36.008909    67.406402    12.612127     22.30075    14.235163 
  496400    244.41826     59213359            0     59214310    12.683308    22.437762    14.766106    19.733271    36.007707    67.351715    12.612127     22.30075    14.235163 
  496600     175.6082     59213104            0     59213788    12.683332    22.437755    14.766265    19.735686    36.007028    67.367597    12.612127     22.30075    14.235163 
  496800    161.61925     59212662            0     59213291    12.683304    22.437756    14.766399    19.732829    36.007116    67.381023    12.612127     22.30075    14.235163 
  497000    225.53274     59212843            0     59213721    12.683311    22.437771    14.766344    19.733552    36.008609    67.375495    12.612127     22.30075    14.235163 
  497200    232.40413     59211922            0     59212827    12.683312    22.437754    14.765693    19.733677     36.00689     67.31041    12.612127     22.30075    14.235163 
  497400     237.2412     59211214            0     59212138    12.683333    22.437768    14.766047    19.735767    36.008264    67.345831    12.612127     22.30075    14.235163 
  497600     447.8032     59210465            0     59212208    12.683316    22.437754    14.766259    19.734016    36.006947    67.367011    12.612127     22.30075    14.235163 
  497800    260.12912     59211284            0     59212296    12.683333    22.437735    14.766027    19.735711     36.00498     67.34383    12.612127     22.30075    14.235163 
  498000    424.68143     59212709            0     59214363    12.683342    22.437753    14.766591    19.736669    36.006841    67.400255    12.612127     22.30075    14.235163 
  498200    333.51016     59212644            0     59213942    12.683311    22.437754    14.766658    19.733526    36.006883    67.406921    12.612127     22.30075    14.235163 
  498400    313.28658     59211576            0     59212795    12.683304    22.437775    14.766412    19.732828    36.008972    67.382368    12.612127     22.30075    14.235163 
  498600    295.86906     59212738            0     59213890    12.683313    22.437761    14.765915    19.733762    36.007604    67.332612    12.612127     22.30075    14.235163 
  498800    340.81332     59212733            0     59214060    12.683302    22.437777    14.765916     19.73269    36.009245    67.332677    12.612127     22.30075    14.235163 
  499000    325.06726     59211225            0     59212491    12.683307     22.43777    14.766029     19.73313    36.008538    67.343989    12.612127     22.30075    14.235163 
  499200    193.76472     59211335            0     59212089    12.683312    22.437783    14.766008     19.73369    36.009802    67.341936    12.612127     22.30075    14.235163 
  499400    249.04382     59212899            0     59213869    12.683333    22.437743    14.766159    19.735719    36.005823    67.357013    12.612127     22.30075    14.235163 
  499600    287.72159     59210833            0     59211953    12.683302    22.437751    14.766324    19.732675    36.006624    67.373548    12.612127     22.30075    14.235163 
  499800     200.2026     59211535            0     59212315    12.683317    22.437752     14.76633    19.734126     36.00667    67.374172    12.612127     22.30075    14.235163 
  500000    164.32303     59211630            0     59212270     12.68333    22.437746    14.766061    19.735432    36.006125    67.347226    12.612127     22.30075    14.235163 
  500200    183.28203     59211913            0     59212626    12.683311    22.437737    14.766003    19.733525    36.005241    67.341479    12.612127     22.30075    14.235163 
  500400    117.33419     59211222            0     59211679     12.68333     22.43775    14.766177    19.735411    36.006518    67.358884    12.612127     22.30075    14.235163 
  500600    234.83521     59211911            0     59212825    12.683313    22.437747    14.765985    19.733779    36.006182    67.339674    12.612127     22.30075    14.235163 
  500800    182.86172     59210449            0     59211160     12.68333    22.437752    14.766226    19.735433    36.006668    67.363715    12.612127     22.30075    14.235163 
  501000    133.84522     59211814            0     59212335    12.683338    22.437757    14.766094    19.736292    36.007242    67.350552    12.612127     22.30075    14.235163 
  501200     466.3749     59211305            0     59213121    12.683319     22.43774    14.766289    19.734365     36.00553    67.370074    12.612127     22.30075    14.235163 
  501400    158.06849     59212199            0     59212814    12.683379    22.437774    14.766243     19.74034    36.008867    67.365407    12.612127     22.30075    14.235163 
  501600    449.54672     59210230            0     59211980    12.683334    22.437764    14.766164    19.735881    36.007951    67.357553    12.612127     22.30075    14.235163 
  501800    312.76228     59211404            0     59212622    12.683321    22.437755    14.766451    19.734543    36.007013    67.386294    12.612127     22.30075    14.235163 
  502000    209.19043     59210768            0     59211582    12.683328    22.437768    14.766119    19.735223    36.008322    67.353062    12.612127     22.30075    14.235163 
  502200    357.75523     59210908            0     59212301    12.683348    22.437757     14.76609    19.737258    36.007214    67.350143    12.612127     22.30075    14.235163 
  502400    328.04824     59211926            0     59213203    12.683302    22.437742    14.765886    19.732655     36.00572    67.329734    12.612127     22.30075    14.235163 
  502600    209.60381     59212508            0     59213324    12.683307    22.437754    14.766305    19.733171    36.006898    67.371603    12.612127     22.30075    14.235163 
  502800     124.7996     59211096            0     59211582    12.683321    22.437763    14.766217    19.734591    36.007806    67.362805    12.612127     22.30075    14.235163 
  503000    385.08659     59210911            0     59212410    12.683315    22.437754    14.766307    19.733976     36.00688    67.371803    12.612127     22.30075    14.235163 
  503200    241.00749     59210289            0     59211227    12.683318    22.437765    14.766204    19.734231    36.007992    67.361542    12.612127     22.30075    14.235163 
  503400    76.495536     59210603            0     59210901    12.683289    22.437745    14.766261    19.731385    36.005962    67.367268    12.612127     22.30075    14.235163 
  503600     300.3855     59211284            0     59212453    12.683324    22.437763     14.76606    19.734862    36.007821    67.347148    12.612127     22.30075    14.235163 
  503800    373.89223     59211589            0     59213045    12.683315    22.437754    14.766226    19.733976    36.006879    67.363699    12.612127     22.30075    14.235163 
  504000    115.33273     59211872            0     59212321    12.683298    22.437755    14.766467    19.732276    36.006975    67.387897    12.612127     22.30075    14.235163 
  504200    166.43176     59211438            0     59212086    12.683318    22.437753    14.766497    19.734243    36.006858    67.390816    12.612127     22.30075    14.235163 
  504400    394.39917     59211714            0     59213249    12.683261    22.437801    14.766553    19.728538    36.011628     67.39644    12.612127     22.30075    14.235163 
  504600    323.40866     59212193            0     59213452      12.6833    22.437758    14.766268    19.732493    36.007294    67.367977    12.612127     22.30075    14.235163 
  504800    84.029913     59211437            0     59211764     12.68334    22.437724    14.765955    19.736471    36.003901    67.336578    12.612127     22.30075    14.235163 
  505000    175.89381     59213050            0     59213735    12.683314    22.437749    14.766547    19.733873    36.006429    67.395807    12.612127     22.30075    14.235163 
  505200     199.3216     59211836            0     59212612    12.683291    22.437716    14.766024    19.731512    36.003107    67.343525    12.612127     22.30075    14.235163 
  505400    246.76858     59212238            0     59213198     12.68331    22.437774    14.765989    19.733454    36.008921    67.340058    12.612127     22.30075    14.235163 
  505600    194.97428     59210950            0     59211709    12.683324    22.437758    14.766129    19.734859    36.007285    67.353985    12.612127     22.30075    14.235163 
  505800    517.83603     59210331            0     59212347    12.683316    22.437754    14.766265    19.734082    36.006872    67.367636    12.612127     22.30075    14.235163 
  506000    273.42896     59210173            0     59211238    12.683341    22.437766    14.766119    19.736548    36.008061    67.353041    12.612127     22.30075    14.235163 
  506200    223.60061     59211716            0     59212586     12.68339    22.437714     14.76637     19.74147    36.002876    67.378175    12.612127     22.30075    14.235163 
  506400    293.69466     59212244            0     59213388    12.683361    22.437777    14.766414    19.738505    36.009218    67.382502    12.612127     22.30075    14.235163 
  506600    191.25749     59212138            0     59212883    12.683312    22.437727    14.766491    19.733607    36.004223    67.390247    12.612127     22.30075    14.235163 
  506800    232.69083     59210515            0     59211421    12.683381     22.43775    14.766338    19.740536    36.006514    67.374951    12.612127     22.30075    14.235163 
  507000    352.37479     59210536            0     59211908    12.683308    22.437758    14.766278    19.733292    36.007295     67.36894    12.612127     22.30075    14.235163 
  507200    296.60156     59212918            0     59214073    12.683315    22.437754    14.765937    19.733916     36.00688    67.334782    12.612127     22.30075    14.235163 
  507400    255.83342     59212612            0     59213608    12.683294    22.437744    14.765573    19.731888    36.005913    67.298401    12.612127     22.30075    14.235163 
  507600    230.68952     59212341            0     59213239    12.683308    22.437786    14.765603    19.733289    36.010139    67.301441    12.612127     22.30075    14.235163 
  507800    203.18345     59212592            0     59213383     12.68335    22.437754     14.76576    19.737415    36.006939    67.317127    12.612127     22.30075    14.235163 
  508000    251.31266     59211956            0     59212934    12.683295    22.437736    14.765863    19.731936    36.005127    67.327401    12.612127     22.30075    14.235163 
  508200    240.37293     59211175            0     59212111    12.683346    22.437752    14.766123    19.737014    36.006721    67.353454    12.612127     22.30075    14.235163 
  508400    250.29261     59211186            0     59212160    12.683308    22.437747    14.766054    19.733245    36.006251    67.346559    12.612127     22.30075    14.235163 
  508600    243.68871     59211043            0     59211992    12.683336    22.437744    14.766174    19.736006    36.005949    67.358528    12.612127     22.30075    14.235163 
  508800    250.25871     59211607            0     59212581    12.683306    22.437774    14.766139    19.733029    36.008863    67.355027    12.612127     22.30075    14.235163 
  509000    207.49813     59211228            0     59212036    12.683308    22.437751     14.76621    19.733263    36.006561    67.362104    12.612127     22.30075    14.235163 
  509200    280.40161     59212428            0     59213520    12.683315    22.437754    14.766051    19.733901    36.006885    67.346207    12.612127     22.30075    14.235163 
  509400    274.87988     59211240            0     59212310    12.683325    22.437752    14.766013    19.734933    36.006736    67.342425    12.612127     22.30075    14.235163 
  509600    213.43488     59212420            0     59213251    12.683307    22.437759    14.766174    19.733099    36.007451    67.358487    12.612127     22.30075    14.235163 
  509800    306.22624     59211259            0     59212451    12.683317    22.437754    14.766324    19.734153     36.00687    67.373575    12.612127     22.30075    14.235163 
  510000    261.12157     59211271            0     59212288    12.683314    22.437755    14.766145    19.733856    36.007045    67.355681    12.612127     22.30075    14.235163 
  510200    153.71237     59212096            0     59212694    12.683305    22.437808    14.766169    19.732995    36.012331    67.358065    12.612127     22.30075    14.235163 
  510400    180.83854     59211037            0     59211741    12.683341    22.437732    14.766241     19.73657    36.004715    67.365282    12.612127     22.30075    14.235163 
  510600    293.19447     59211194            0     59212336    12.683354     22.43775    14.765968    19.737875    36.006556    67.337955    12.612127     22.30075    14.235163 
  510800    201.88567     59211390            0     59212176     12.68335    22.437781    14.766112    19.737412    36.009609    67.352341    12.612127     22.30075    14.235163 
  511000    400.90773     59211123            0     59212684    12.683353    22.437736    14.766098    19.737725      36.0051    67.350962    12.612127     22.30075    14.235163 
  511200    183.23074     59210623            0     59211336    12.683297    22.437818    14.766083    19.732163     36.01332     67.34946    12.612127     22.30075    14.235163 
  511400    279.39148     59211269            0     59212356    12.683294    22.437755    14.766248    19.731869    36.006999     67.36595    12.612127     22.30075    14.235163 
  511600    275.28239     59211618            0     59212690    12.683311    22.437767    14.766501    19.733535    36.008177    67.391254    12.612127     22.30075    14.235163 
  511800    190.56936     59211203            0     59211945    12.683324    22.437764    14.766261    19.734834    36.007863    67.367191    12.612127     22.30075    14.235163 
  512000    254.58779     59211582            0     59212573    12.683306    22.437741    14.766351    19.733049    36.005615    67.376235    12.612127     22.30075    14.235163 
  512200    261.69118     59210892            0     59211911    12.683321    22.437762    14.766314    19.734516    36.007715    67.372549    12.612127     22.30075    14.235163 
  512400    266.85563     59210616            0     59211655    12.683326    22.437768    14.766384    19.735042     36.00835    67.379554    12.612127     22.30075    14.235163 
  512600    337.15813     59210467            0     59211779     12.68336    22.437771    14.766211    19.738407    36.008591    67.362266    12.612127     22.30075    14.235163 
  512800    313.76818     59211562            0     59212784    12.683315    22.437768    14.766306    19.733925    36.008321    67.371701    12.612127     22.30075    14.235163 
  513000    220.47348     59210565            0     59211423    12.683316    22.437753    14.766166    19.734003    36.006824    67.357764    12.612127     22.30075    14.235163 
  513200    257.67625     59211400            0     59212404    12.683295     22.43774    14.766036    19.731964    36.005527    67.344749    12.612127     22.30075    14.235163 
  513400    169.87265     59211609            0     59212271    12.683307    22.437742    14.766395    19.733108    36.005718    67.380609    12.612127     22.30075    14.235163 
  513600    168.49288     59209922            0     59210578    12.683291    22.437769    14.766176    19.731499    36.008441    67.358733    12.612127     22.30075    14.235163 
  513800    268.44384     59210590            0     59211635     12.68331    22.437762    14.766135     19.73349    36.007723     67.35463    12.612127     22.30075    14.235163 
  514000    263.10231     59211443            0     59212467    12.683328     22.43774    14.765913    19.735236    36.005534    67.332438    12.612127     22.30075    14.235163 
  514200    301.40886     59212236            0     59213409    12.683332    22.437755    14.765856    19.735686    36.007042    67.326766    12.612127     22.30075    14.235163 
  514400    290.69439     59211045            0     59212177    12.683336    22.437732    14.765786    19.736087    36.004735     67.31974    12.612127     22.30075    14.235163 
  514600    335.38172     59210803            0     59212109    12.683321    22.437754    14.766304    19.734574    36.006893    67.371538    12.612127     22.30075    14.235163 
  514800    240.31395     59212148            0     59213084    12.683298    22.437755    14.766158    19.732252    36.007006    67.356953    12.612127     22.30075    14.235163 
  515000    195.06421     59210547            0     59211306    12.683303    22.437785    14.766081    19.732707    36.009968    67.349245    12.612127     22.30075    14.235163 
  515200    166.07246     59210894            0     59211540    12.683297    22.437753    14.766322    19.732117    36.006777    67.373303    12.612127     22.30075    14.235163 
  515400    184.98518     59211936            0     59212656    12.683313    22.437758    14.766213    19.733775    36.007276    67.362481    12.612127     22.30075    14.235163 
  515600    207.95642     59211628            0     59212438    12.683279    22.437755    14.766323    19.730301    36.006977     67.37344    12.612127     22.30075    14.235163 
  515800    222.62143     59211419            0     59212286    12.683322    22.437764    14.766384    19.734672    36.007912    67.379589    12.612127     22.30075    14.235163 
  516000    182.91465     59210640            0     59211352    12.683315    22.437754    14.766276    19.733979    36.006878    67.368694    12.612127     22.30075    14.235163 
  516200    364.65726     59210945            0     59212364    12.683315    22.437754    14.765991    19.733977    36.006879    67.340232    12.612127     22.30075    14.235163 
  516400     383.7696     59211204            0     59212698    12.683315    22.437754    14.766098     19.73398    36.006874    67.350947    12.612127     22.30075    14.235163 
  516600    186.17181     59211466            0     59212191    12.683319    22.437753    14.766103    19.734348    36.006859    67.351475    12.612127     22.30075    14.235163 
  516800    374.03121     59211117            0     59212573    12.683341    22.437752    14.765991    19.736516    36.006754    67.340215    12.612127     22.30075    14.235163 
  517000    311.60169     59210846            0     59212059     12.68328    22.437757    14.766097    19.730447    36.007207    67.350785    12.612127     22.30075    14.235163 
  517200    138.36878     59212032            0     59212571    12.683352    22.437753    14.766143    19.737626    36.006794    67.355423    12.612127     22.30075    14.235163 
  517400    285.90388     59210996            0     59212109    12.683314    22.437756    14.766125    19.733864    36.007116    67.353601    12.612127     22.30075    14.235163 
  517600    407.18459     59211604            0     59213189     12.68334    22.437722    14.766103     19.73643    36.003685    67.351456    12.612127     22.30075    14.235163 
  517800    206.12552     59211779            0     59212582    12.683353    22.437739    14.766298    19.737776    36.005395    67.370941    12.612127     22.30075    14.235163 
  518000    256.56383     59211583            0     59212581    12.683318    22.437757    14.766084    19.734198    36.007258    67.349523    12.612127     22.30075    14.235163 
  518200    266.43339     59210752            0     59211789    12.683308    22.437754    14.766271    19.733294    36.006915    67.368221    12.612127     22.30075    14.235163 
  518400    412.20488     59210780            0     59212385    12.683315    22.437753    14.765926    19.733982    36.006799    67.333705    12.612127     22.30075    14.235163 
  518600    204.77472     59212215            0     59213012     12.68332    22.437771    14.766814    19.734436    36.008633    67.422568    12.612127     22.30075    14.235163 
  518800    229.57985     59211652            0     59212546    12.683333    22.437763    14.766384     19.73571    36.007784    67.379588    12.612127     22.30075    14.235163 
  519000    211.82707     59211501            0     59212325    12.683347    22.437705    14.766421    19.737107    36.002021    67.383272    12.612127     22.30075    14.235163 
  519200    289.52261     59210812            0     59211939    12.683315    22.437754    14.766273    19.733984      36.0069    67.368409    12.612127     22.30075    14.235163 
  519400    260.29872     59210574            0     59211587    12.683332    22.437753    14.766225    19.735653    36.006784    67.363685    12.612127     22.30075    14.235163 
  519600    291.79993     59211169            0     59212305    12.683316    22.437738    14.766186     19.73407    36.005316    67.359744    12.612127     22.30075    14.235163 
  519800    233.93689     59210673            0     59211583    12.683311    22.437746    14.766184    19.733557    36.006093    67.359585    12.612127     22.30075    14.235163 
  520000    283.27786     59211612            0     59212715    12.683306    22.437739     14.76639    19.733006    36.005395    67.380164    12.612127     22.30075    14.235163 
  520200    241.72127     59212725            0     59213666    12.683316    22.437754    14.766293    19.734095    36.006891     67.37049    12.612127     22.30075    14.235163 
  520400    172.75759     59210695            0     59211367    12.683275    22.437769    14.766131    19.729928    36.008394    67.354193    12.612127     22.30075    14.235163 
  520600    215.59603     59210795            0     59211634    12.683331    22.437758    14.765906    19.735519    36.007318    67.331687    12.612127     22.30075    14.235163 
  520800    147.53211     59210639            0     59211213      12.6833     22.43779    14.766332    19.732407    36.010557    67.374315    12.612127     22.30075    14.235163 
  521000    294.82945     59211041            0     59212189    12.683304    22.437754    14.766285    19.732829    36.006944    67.369648    12.612127     22.30075    14.235163 
  521200    469.39588     59210842            0     59212669    12.683315    22.437754    14.766192    19.733977    36.006879    67.360363    12.612127     22.30075    14.235163 
  521400    191.82653     59210616            0     59211363    12.683305    22.437766    14.766266     19.73295    36.008152    67.367702    12.612127     22.30075    14.235163 
  521600    189.83929     59211933            0     59212672    12.683322    22.437755    14.766386    19.734646    36.007007    67.379777    12.612127     22.30075    14.235163 
  521800    202.24544     59210907            0     59211694    12.683323    22.437751    14.766298    19.734753    36.006579    67.370916    12.612127     22.30075    14.235163 
  522000    273.72545     59211321            0     59212386    12.683292    22.437791    14.766067     19.73169    36.010631    67.347833    12.612127     22.30075    14.235163 
  522200    265.24147     59211668            0     59212701    12.683365    22.437711    14.766281    19.738952     36.00264    67.369203    12.612127     22.30075    14.235163 
  522400    195.24626     59212480            0     59213240    12.683322    22.437767     14.76603    19.734667     36.00825     67.34412    12.612127     22.30075    14.235163 
  522600    155.06188     59210623            0     59211226     12.68333    22.437771    14.766353    19.735431    36.008591      67.3764    12.612127     22.30075    14.235163 
  522800    191.51699     59211137            0     59211882     12.68335    22.437795    14.766145    19.737471    36.011057    67.355621    12.612127     22.30075    14.235163 
  523000    386.62954     59212440            0     59213945    12.683315    22.437754    14.765958    19.733976    36.006879    67.336949    12.612127     22.30075    14.235163 
  523200    344.93783     59211333            0     59212676    12.683316    22.437754    14.766207    19.734027     36.00688    67.361878    12.612127     22.30075    14.235163 
  523400    219.63479     59213435            0     59214290    12.683341    22.437761    14.766283    19.736557    36.007572     67.36946    12.612127     22.30075    14.235163 
  523600    294.55772     59211001            0     59212147    12.683322     22.43774    14.766179    19.734673    36.005462    67.359004    12.612127     22.30075    14.235163 
  523800    179.06493     59211386            0     59212083      12.6833     22.43776    14.766211    19.732434    36.007469    67.362257    12.612127     22.30075    14.235163 
  524000    353.08187     59211591            0     59212966     12.68332    22.437703    14.766238    19.734464    36.001852    67.364971    12.612127     22.30075    14.235163 
  524200    232.82245     59210970            0     59211876    12.683339    22.437754    14.766207    19.736367    36.006946    67.361813    12.612127     22.30075    14.235163 
  524400    142.40978     59210398            0     59210952    12.683303    22.437754    14.766148    19.732776    36.006949    67.355915    12.612127     22.30075    14.235163 
  524600    210.39236     59211103            0     59211922    12.683336    22.437743    14.766198    19.736041    36.005803    67.360908    12.612127     22.30075    14.235163 
  524800    233.18592     59210484            0     59211392    12.683298     22.43772      14.7662    19.732245    36.003492    67.361129    12.612127     22.30075    14.235163 
  525000    200.41495     59210552            0     59211332    12.683294    22.437744     14.76622    19.731844    36.005877    67.363108    12.612127     22.30075    14.235163 
  525200    142.83389     59210974            0     59211530    12.683344    22.437753    14.766202    19.736825    36.006762    67.361339    12.612127     22.30075    14.235163 
  525400    114.92578     59212497            0     59212945    12.683345     22.43779    14.766127     19.73696    36.010504    67.353879    12.612127     22.30075    14.235163 
  525600    199.18648     59210845            0     59211620    12.683267    22.437772    14.766089    19.729154    36.008683    67.350004    12.612127     22.30075    14.235163 
  525800    266.98266     59211016            0     59212056    12.683331    22.437746    14.766144    19.735579    36.006099    67.355513    12.612127     22.30075    14.235163 
  526000    199.64099     59211129            0     59211906    12.683292    22.437743    14.766296    19.731652    36.005787    67.370722    12.612127     22.30075    14.235163 
  526200    287.02827     59211421            0     59212539    12.683323    22.437763    14.766229    19.734713    36.007838    67.364009    12.612127     22.30075    14.235163 
  526400    286.70334     59211022            0     59212138    12.683274    22.437801    14.766041    19.729862    36.011597    67.345243    12.612127     22.30075    14.235163 
  526600    229.02843     59211246            0     59212138    12.683345     22.43775    14.766077    19.736998    36.006462    67.348843    12.612127     22.30075    14.235163 
  526800    507.71642     59210620            0     59212597    12.683311    22.437742    14.766152    19.733544    36.005688    67.356382    12.612127     22.30075    14.235163 
  527000    395.02072     59210942            0     59212480    12.683309    22.437756     14.76614    19.733369    36.007069    67.355184    12.612127     22.30075    14.235163 
  527200     111.9869     59211295            0     59211731    12.683308     22.43777    14.766073    19.733218    36.008524    67.348405    12.612127     22.30075    14.235163 
  527400    278.15911     59211217            0     59212300    12.683264    22.437751    14.765995    19.728877    36.006601    67.340623    12.612127     22.30075    14.235163 
  527600    136.09115     59211508            0     59212038     12.68334     22.43777     14.76637     19.73649    36.008522    67.378159    12.612127     22.30075    14.235163 
  527800    160.25475     59210081            0     59210705    12.683299     22.43774    14.766286    19.732369    36.005553    67.369774    12.612127     22.30075    14.235163 
  528000    307.36452     59211057            0     59212254    12.683314    22.437752    14.766168    19.733875    36.006671    67.357902    12.612127     22.30075    14.235163 
  528200    175.82921     59212531            0     59213216    12.683305    22.437796    14.766238    19.732919    36.011107    67.364891    12.612127     22.30075    14.235163 
  528400    277.93197     59211571            0     59212653    12.683307    22.437789    14.766202    19.733128     36.01039    67.361384    12.612127     22.30075    14.235163 
  528600    265.96516     59213957            0     59214993    12.683317    22.437741     14.76636     19.73416    36.005614    67.377117    12.612127     22.30075    14.235163 
  528800    320.26666     59211194            0     59212441    12.683346    22.437728    14.766348    19.737026    36.004323    67.375988    12.612127     22.30075    14.235163 
  529000    257.84896     59210941            0     59211945    12.683321    22.437768    14.766238    19.734512    36.008262    67.364937    12.612127     22.30075    14.235163 
  529200    153.35174     59211408            0     59212005    12.683322     22.43771    14.766316    19.734657    36.002515    67.372726    12.612127     22.30075    14.235163 
  529400    425.90001     59210651            0     59212309    12.683316    22.437759    14.766025    19.734034    36.007398    67.343615    12.612127     22.30075    14.235163 
  529600    281.67529     59211387            0     59212484    12.683307    22.437768    14.766128    19.733119    36.008287    67.353904    12.612127     22.30075    14.235163 
  529800    228.60096     59212096            0     59212986    12.683352    22.437752    14.766214    19.737602    36.006666    67.362553    12.612127     22.30075    14.235163 
  530000    258.13417     59212123            0     59213128    12.683286    22.437782    14.766173    19.731071     36.00974    67.358401    12.612127     22.30075    14.235163 
  530200     159.6455     59211156            0     59211777    12.683279    22.437761    14.766255    19.730365    36.007562     67.36668    12.612127     22.30075    14.235163 
  530400    204.57348     59210854            0     59211651    12.683311    22.437763    14.766028    19.733509    36.007855    67.343951    12.612127     22.30075    14.235163 
  530600    197.58385     59211534            0     59212303    12.683315    22.437754    14.766512    19.733933    36.006885    67.392315    12.612127     22.30075    14.235163 
  530800    143.33443     59211299            0     59211857    12.683339    22.437786    14.766305    19.736304    36.010141    67.371659    12.612127     22.30075    14.235163 
  531000    233.42056     59210598            0     59211506    12.683343    22.437734    14.766204    19.736726    36.004954    67.361582    12.612127     22.30075    14.235163 
  531200    437.57796     59211308            0     59213012    12.683282     22.43775    14.765801    19.730652    36.006549    67.321241    12.612127     22.30075    14.235163 
  531400    246.57422     59211419            0     59212379    12.683338     22.43777    14.765993    19.736217    36.008537    67.340417    12.612127     22.30075    14.235163 
  531600    167.96715     59212015            0     59212669    12.683319    22.437764    14.765891    19.734382    36.007946    67.330188    12.612127     22.30075    14.235163 
  531800    178.23929     59211183            0     59211877    12.683328    22.437786    14.766362    19.735228      36.0101    67.377304    12.612127     22.30075    14.235163 
  532000    206.59128     59211062            0     59211866    12.683336    22.437768    14.766044    19.736007    36.008306    67.345551    12.612127     22.30075    14.235163 
  532200    235.38754     59210194            0     59211110    12.683315    22.437754    14.766103    19.733975    36.006878     67.35139    12.612127     22.30075    14.235163 
  532400    313.71549     59211774            0     59212996    12.683311    22.437746    14.766494    19.733548    36.006134      67.3905    12.612127     22.30075    14.235163 
  532600    211.17711     59212282            0     59213104    12.683315    22.437754       14.766    19.733965    36.006879    67.341097    12.612127     22.30075    14.235163 
  532800    329.99876     59211377            0     59212661     12.68331    22.437765    14.766394    19.733406    36.007972    67.380591    12.612127     22.30075    14.235163 
  533000    183.20283     59210956            0     59211669    12.683329    22.437728    14.765987    19.735309    36.004277    67.339813    12.612127     22.30075    14.235163 
  533200    300.47939     59211287            0     59212457    12.683286    22.437778    14.766015    19.731007    36.009353    67.342626    12.612127     22.30075    14.235163 
  533400    224.95226     59212825            0     59213701    12.683323    22.437752    14.766315    19.734783    36.006745    67.372656    12.612127     22.30075    14.235163 
  533600     289.3983     59211184            0     59212311    12.683318    22.437748    14.766443    19.734248    36.006338    67.385429    12.612127     22.30075    14.235163 
  533800    272.21715     59213959            0     59215019    12.683317    22.437753    14.766591     19.73415    36.006838     67.40024    12.612127     22.30075    14.235163 
  534000    190.24095     59213000            0     59213741    12.683323    22.437752    14.766002    19.734788    36.006753    67.341341    12.612127     22.30075    14.235163 
  534200    185.67341     59210776            0     59211499    12.683305    22.437743    14.766214    19.732922    36.005781    67.362563    12.612127     22.30075    14.235163 
  534400    214.38075     59211631            0     59212466    12.683301    22.437789    14.766171    19.732531    36.010367    67.358245    12.612127     22.30075    14.235163 
  534600    274.06684     59212790            0     59213857    12.683321    22.437765    14.766069    19.734594     36.00798    67.348072    12.612127     22.30075    14.235163 
  534800    199.28357     59210959            0     59211735    12.683314    22.437754      14.7662    19.733845    36.006886    67.361163    12.612127     22.30075    14.235163 
  535000    113.05054     59210865            0     59211305    12.683371    22.437752    14.766372    19.739538    36.006719    67.378313    12.612127     22.30075    14.235163 
  535200     318.9179     59210705            0     59211947    12.683313     22.43775    14.766383    19.733707    36.006476    67.379402    12.612127     22.30075    14.235163 
  535400     279.1273     59211541            0     59212627     12.68331    22.437746     14.76618     19.73344    36.006061    67.359141    12.612127     22.30075    14.235163 
  535600    249.05307     59212145            0     59213115    12.683304    22.437754    14.766105    19.732869    36.006931    67.351625    12.612127     22.30075    14.235163 
  535800    318.30557     59212452            0     59213691    12.683313    22.437758    14.765771    19.733705    36.007312    67.318267    12.612127     22.30075    14.235163 
  536000    279.09812     59212043            0     59213130    12.683311    22.437737     14.76641    19.733507    36.005228    67.382161    12.612127     22.30075    14.235163 
  536200    322.90843     59213725            0     59214982    12.683315    22.437754    14.765824     19.73398    36.006879    67.323505    12.612127     22.30075    14.235163 
  536400    223.58862     59212161            0     59213032    12.683296    22.437779    14.766446    19.732032    36.009406    67.385752    12.612127     22.30075    14.235163 
  536600    220.95539     59210918            0     59211778    12.683321    22.437775    14.766175    19.734594    36.008993    67.358658    12.612127     22.30075    14.235163 
  536800    267.15482     59212054            0     59213094    12.683312     22.43776    14.766498    19.733695    36.007545    67.390902    12.612127     22.30075    14.235163 
  537000     313.6083     59211493            0     59212713    12.683316    22.437753    14.766265    19.734048    36.006793    67.367639    12.612127     22.30075    14.235163 
  537200    224.15295     59210810            0     59211682    12.683314    22.437745    14.766026    19.733807    36.005969    67.343723    12.612127     22.30075    14.235163 
  537400    387.08824     59210453            0     59211960    12.683311    22.437755    14.766166     19.73351    36.007016    67.357786    12.612127     22.30075    14.235163 
  537600    120.60734     59213052            0     59213521    12.683315    22.437754    14.766052    19.733978    36.006879    67.346304    12.612127     22.30075    14.235163 
  537800    172.42243     59211047            0     59211718    12.683313    22.437754    14.766291    19.733731     36.00694    67.370223    12.612127     22.30075    14.235163 
  538000    324.46759     59211558            0     59212821    12.683325    22.437764    14.766168    19.734984    36.007892    67.357948    12.612127     22.30075    14.235163 
  538200    180.50784     59211942            0     59212645    12.683316    22.437754    14.766489    19.734009    36.006927    67.390055    12.612127     22.30075    14.235163 
  538400    178.41922     59211071            0     59211765    12.683317    22.437751    14.766165    19.734099    36.006643     67.35764    12.612127     22.30075    14.235163 
  538600      373.088     59210908            0     59212360    12.683314    22.437752    14.765995    19.733848    36.006662    67.340651    12.612127     22.30075    14.235163 
  538800    373.94387     59211457            0     59212913    12.683319    22.437751    14.766383    19.734298     36.00665     67.37942    12.612127     22.30075    14.235163 
  539000    264.33897     59211544            0     59212573    12.683393    22.437752    14.766427    19.741761    36.006686    67.383833    12.612127     22.30075    14.235163 
  539200    316.20168     59211720            0     59212951    12.683322    22.437753    14.766173    19.734659    36.006777    67.358474    12.612127     22.30075    14.235163 
  539400     249.6924     59211808            0     59212780    12.683307    22.437706     14.76631    19.733194    36.002061    67.372144    12.612127     22.30075    14.235163 
  539600    203.47529     59212669            0     59213461    12.683351    22.437784    14.766557     19.73754    36.009924    67.396866    12.612127     22.30075    14.235163 
  539800    269.66388     59212209            0     59213258    12.683312    22.437759    14.766111    19.733648    36.007447    67.352188    12.612127     22.30075    14.235163 
  540000    242.05386     59212387            0     59213329    12.683306    22.437746    14.766673    19.733009    36.006144    67.408457    12.612127     22.30075    14.235163 
  540200    161.61678     59212496            0     59213125    12.683304    22.437692    14.766065    19.732814    36.000751    67.347598    12.612127     22.30075    14.235163 
  540400    239.05522     59210964            0     59211895    12.683343    22.437759    14.766063    19.736795    36.007394    67.347441    12.612127     22.30075    14.235163 
  540600    315.06718     59210873            0     59212100    12.683332    22.437786    14.765982     19.73563    36.010097    67.339331    12.612127     22.30075    14.235163 
  540800    315.06253     59212021            0     59213247    12.683342    22.437707    14.766467    19.736694    36.002185    67.387817    12.612127     22.30075    14.235163 
  541000    245.16914     59211969            0     59212923    12.683303    22.437764    14.766163     19.73272    36.007911    67.357392    12.612127     22.30075    14.235163 
  541200    310.59797     59212585            0     59213794    12.683338    22.437737    14.766319    19.736208    36.005163     67.37302    12.612127     22.30075    14.235163 
  541400    274.37488     59211131            0     59212199     12.68331    22.437765    14.766053     19.73345     36.00798     67.34644    12.612127     22.30075    14.235163 
  541600    195.95658     59212153            0     59212916    12.683316    22.437754    14.766018    19.733998    36.006875     67.34298    12.612127     22.30075    14.235163 
  541800    554.27723     59212075            0     59214232    12.683293    22.437754    14.766098    19.731722     36.00695    67.350963    12.612127     22.30075    14.235163 
  542000    301.61455     59210610            0     59211784    12.683333    22.437755    14.766155    19.735712    36.006978    67.356612    12.612127     22.30075    14.235163 
  542200    232.91023     59211507            0     59212414    12.683317    22.437743    14.766029     19.73411    36.005806    67.344051    12.612127     22.30075    14.235163 
  542400    394.17602     59211262            0     59212797    12.683301    22.437747    14.766149    19.732531    36.006177     67.35604    12.612127     22.30075    14.235163 
  542600    223.70309     59210933            0     59211804    12.683302    22.437754    14.766427    19.732694     36.00695    67.383853    12.612127     22.30075    14.235163 
  542800    398.37463     59212319            0     59213870    12.683311    22.437766    14.766127    19.733523    36.008078    67.353796    12.612127     22.30075    14.235163 
  543000    229.21022     59212138            0     59213030    12.683305    22.437717    14.766035    19.732951     36.00317    67.344656    12.612127     22.30075    14.235163 
  543200    245.00864     59211844            0     59212798    12.683315    22.437754    14.766244    19.733978    36.006879    67.365505    12.612127     22.30075    14.235163 
  543400    258.57525     59211829            0     59212835    12.683315    22.437754    14.766594    19.733975    36.006878    67.400515    12.612127     22.30075    14.235163 
  543600    241.00285     59212508            0     59213446    12.683315    22.437736    14.766703     19.73391    36.005105    67.411502    12.612127     22.30075    14.235163 
  543800    258.91086     59212213            0     59213221    12.683301    22.437738    14.766502    19.732568    36.005299    67.391321    12.612127     22.30075    14.235163 
  544000    272.14483     59210722            0     59211781    12.683395    22.437732    14.766356    19.741972    36.004746    67.376732    12.612127     22.30075    14.235163 
  544200    179.36762     59210436            0     59211135    12.683302    22.437777    14.766304    19.732622    36.009185    67.371501    12.612127     22.30075    14.235163 
  544400    388.49455     59210551            0     59212064    12.683321    22.437763    14.766382    19.734592    36.007765    67.379307    12.612127     22.30075    14.235163 
  544600    249.80444     59211372            0     59212344    12.683317    22.437751    14.766223    19.734126    36.006581    67.363399    12.612127     22.30075    14.235163 
  544800    119.71483     59211218            0     59211684    12.683302    22.437708    14.766333    19.732617     36.00233    67.374443    12.612127     22.30075    14.235163 
  545000    415.20053     59211573            0     59213190    12.683298    22.437754    14.766229    19.732279    36.006875    67.364008    12.612127     22.30075    14.235163 
  545200    160.24769     59210864            0     59211487    12.683293    22.437755    14.766212    19.731772    36.007044    67.362387    12.612127     22.30075    14.235163 
  545400    274.18918     59212038            0     59213105    12.683318    22.437777    14.766221    19.734253    36.009205      67.3632    12.612127     22.30075    14.235163 
  545600    229.54592     59210762            0     59211655    12.683319    22.437759     14.76611    19.734302     36.00737    67.352087    12.612127     22.30075    14.235163 
  545800    246.39803     59210548            0     59211507    12.683355    22.437805    14.766054    19.737927     36.01203    67.346541    12.612127     22.30075    14.235163 
  546000    278.68007     59211417            0     59212502     12.68331    22.437743    14.766121     19.73341    36.005827    67.353227    12.612127     22.30075    14.235163 
  546200     280.8225     59211652            0     59212745    12.683307    22.437741    14.765955    19.733119    36.005565    67.336659    12.612127     22.30075    14.235163 
  546400    236.00817     59211998            0     59212916    12.683347    22.437752    14.766483    19.737194    36.006705    67.389457    12.612127     22.30075    14.235163 
  546600    279.22937     59210671            0     59211758    12.683302    22.437787    14.766252    19.732693    36.010202    67.366328    12.612127     22.30075    14.235163 
  546800    441.96312     59212909            0     59214630     12.68332    22.437767    14.766173    19.734407    36.008166    67.358459    12.612127     22.30075    14.235163 
  547000    292.36754     59210672            0     59211810    12.683301    22.437782    14.766039    19.732575    36.009705    67.345078    12.612127     22.30075    14.235163 
  547200    424.09705     59212662            0     59214313    12.683341    22.437744    14.766438    19.736588    36.005887    67.384951    12.612127     22.30075    14.235163 
  547400    351.66616     59212609            0     59213978    12.683315    22.437754     14.76602    19.733979    36.006879    67.343118    12.612127     22.30075    14.235163 
  547600    200.89937     59212283            0     59213065    12.683295    22.437755     14.76599    19.731922    36.007056    67.340082    12.612127     22.30075    14.235163 
  547800    267.49004     59210846            0     59211887    12.683348    22.437716    14.766252    19.737245    36.003122    67.366327    12.612127     22.30075    14.235163 
  548000    197.97784     59211094            0     59211864     12.68332    22.437753    14.766119     19.73443    36.006765    67.352997    12.612127     22.30075    14.235163 
  548200    364.12848     59210755            0     59212172    12.683314    22.437754    14.766355    19.733841    36.006894    67.376637    12.612127     22.30075    14.235163 
  548400    193.21617     59210805            0     59211558    12.683327    22.437778    14.766175    19.735109    36.009351     67.35859    12.612127     22.30075    14.235163 
  548600    196.80748     59211536            0     59212302    12.683277    22.437756    14.765875    19.730128    36.007086    67.328635    12.612127     22.30075    14.235163 
  548800    190.00716     59211576            0     59212315    12.683303    22.437748     14.76619    19.732788     36.00628     67.36017    12.612127     22.30075    14.235163 
  549000    221.23516     59211476            0     59212337    12.683352    22.437766    14.766211    19.737615     36.00808    67.362246    12.612127     22.30075    14.235163 
  549200     159.5624     59212539            0     59213160     12.68331    22.437754    14.766421    19.733442    36.006908    67.383286    12.612127     22.30075    14.235163 
  549400    156.65593     59211293            0     59211903    12.683302    22.437736    14.766281    19.732602    36.005079    67.369285    12.612127     22.30075    14.235163 
  549600    183.93615     59210175            0     59210891    12.683287    22.437726    14.766257    19.731118     36.00412    67.366838    12.612127     22.30075    14.235163 
  549800     130.5715     59209625            0     59210133    12.683298    22.437761     14.76609    19.732215    36.007598    67.350132    12.612127     22.30075    14.235163 
  550000    276.46332     59211556            0     59212632    12.683314    22.437738    14.766346    19.733803    36.005298    67.375761    12.612127     22.30075    14.235163 
  550200    344.67215     59210451            0     59211793    12.683327    22.437753    14.765947     19.73518    36.006801    67.335866    12.612127     22.30075    14.235163 
  550400    204.34243     59212459            0     59213254    12.683315    22.437754    14.766033    19.733955    36.006916     67.34444    12.612127     22.30075    14.235163 
  550600    215.07765     59212163            0     59213001    12.683315    22.437754     14.76642    19.733979    36.006898    67.383133    12.612127     22.30075    14.235163 
  550800    176.82984     59211507            0     59212195    12.683252    22.437756    14.766061    19.727626     36.00714    67.347243    12.612127     22.30075    14.235163 
  551000    151.15112     59211307            0     59211895    12.683325    22.437752    14.766167    19.734997    36.006681    67.357837    12.612127     22.30075    14.235163 
  551200    183.88059     59211756            0     59212472    12.683347    22.437766    14.766183    19.737157    36.008111    67.359476    12.612127     22.30075    14.235163 
  551400      181.874     59211425            0     59212133      12.6833    22.437768    14.766453    19.732409    36.008359    67.386406    12.612127     22.30075    14.235163 
  551600    362.07613     59210917            0     59212327    12.683278    22.437754    14.766338    19.730275    36.006908