LAMMPS (30 Jul 2016)

# ----------------- Init Section -----------------

units real
processors 1 1 1
newton off
atom_style full
atom_modify sort 0 10.0

# ----------------- Atom Definition Section -----------------

read_data "MgMOF74-Pressure50000.data"
  orthogonal box = (0.4447 0.31425 -0.401771) to (26.5587 45.5442 27.2652)
  1 by 1 by 1 MPI processor grid
  reading atoms ...
  1307 atoms
  0 = max # of 1-2 neighbors
  0 = max # of 1-3 neighbors
  0 = max # of 1-4 neighbors
  1 = max # of special neighbors

# ----------------- Settings Section -----------------

#include "MgMOF74-Pressure50000.in.settings"

# ----------------- Run Section -----------------

# define groups
group GUEST type 1
11 atoms in group GUEST
group MOF type 2 3 4 5 6 7 8 9 10
1296 atoms in group MOF

# define computes
compute comT all com
compute comG GUEST com
compute comM MOF com

# settings
timestep           0.1
thermo             200
thermo_style       custom step temp epair emol etotal c_comT[1] c_comT[2] c_comT[3] c_comG[1] c_comG[2] c_comG[3] c_comM[1] c_comM[2] c_comM[3]
restart            2000000 sim.restart

# reset box to start at 0
change_box         all x delta $(-xlo) $(-xlo) y delta $(-ylo) $(-ylo) z delta $(-zlo) $(-zlo) remap units box
change_box         all x delta -0.44469999999999998419 $(-xlo) y delta $(-ylo) $(-ylo) z delta $(-zlo) $(-zlo) remap units box
change_box         all x delta -0.44469999999999998419 -0.44469999999999998419 y delta $(-ylo) $(-ylo) z delta $(-zlo) $(-zlo) remap units box
change_box         all x delta -0.44469999999999998419 -0.44469999999999998419 y delta -0.3142499999999999738 $(-ylo) z delta $(-zlo) $(-zlo) remap units box
change_box         all x delta -0.44469999999999998419 -0.44469999999999998419 y delta -0.3142499999999999738 -0.3142499999999999738 z delta $(-zlo) $(-zlo) remap units box
change_box         all x delta -0.44469999999999998419 -0.44469999999999998419 y delta -0.3142499999999999738 -0.3142499999999999738 z delta 0.40177099999999998925 $(-zlo) remap units box
change_box         all x delta -0.44469999999999998419 -0.44469999999999998419 y delta -0.3142499999999999738 -0.3142499999999999738 z delta 0.40177099999999998925 0.40177099999999998925 remap units box
  orthogonal box = (0 0.31425 -0.401771) to (26.114 45.5442 27.2652)
  orthogonal box = (0 0 -0.401771) to (26.114 45.23 27.2652)
  orthogonal box = (0 0 0) to (26.114 45.23 27.667)
write_data         data_changebox.data

# get rid of overlapping atoms
run                0
WARNING: No fixes defined, atoms won't move (../verlet.cpp:55)
Memory usage per processor = 0.478851 Mbytes
Step Temp E_pair E_mol TotEng comT[1] comT[2] comT[3] comG[1] comG[2] comG[3] comM[1] comM[2] comM[3] 
       0            0            0            0            0    12.683318    22.424053    14.189073    19.734246    34.636249    9.6241346    12.612127     22.30075    14.235163 
Loop time of 0 on 1 procs for 0 steps with 1307 atoms

0.0% CPU use with 1 MPI tasks x no OpenMP threads

MPI task timing breakdown:
Section |  min time  |  avg time  |  max time  |%varavg| %total
---------------------------------------------------------------
Pair    | 0          | 0          | 0          |   0.0 |  0.00
Bond    | 0          | 0          | 0          |   0.0 |  0.00
Neigh   | 0          | 0          | 0          |   0.0 |  0.00
Comm    | 0          | 0          | 0          |   0.0 |  0.00
Output  | 0          | 0          | 0          |   0.0 |  0.00
Modify  | 0          | 0          | 0          |   0.0 |  0.00
Other   |            | 0          |            |       |  0.00

Nlocal:    1307 ave 1307 max 1307 min
Histogram: 1 0 0 0 0 0 0 0 0 0
Nghost:    0 ave 0 max 0 min
Histogram: 1 0 0 0 0 0 0 0 0 0
Neighs:    0 ave 0 max 0 min
Histogram: 1 0 0 0 0 0 0 0 0 0

Total # of neighbors = 0
Ave neighs/atom = 0
Ave special neighs/atom = 0
Neighbor list builds = 0
Dangerous builds = 0
velocity           GUEST create 313.0 1738
fix                1 GUEST nvt temp 313.0 313.0 1.0 tchain 3
compute            allTemp all temp
fix_modify         1 temp allTemp
neigh_modify       exclude molecule MOF
neigh_modify       exclude molecule GUEST
pair_style         soft 5.0
pair_coeff         * * 0.0 5.0
kspace_style       none
variable           prefactor equal ramp(1.0,20.0)
fix                2 all adapt 1 pair soft a * * v_prefactor
dump               1 all custom 500 dump-1.lammpstrj element x y z
dump_modify        1 element 1 2 3 4 5 6 7 8 9 10
run                100000
Neighbor list info ...
  1 neighbor list requests
  update every 1 steps, delay 10 steps, check yes
  max neighbors/atom: 2000, page size: 100000
  master list distance cutoff = 7
  ghost atom cutoff = 7
  binsize = 3.5 -> bins = 8 13 8
Memory usage per processor = 6.73162 Mbytes
Step Temp E_pair E_mol TotEng comT[1] comT[2] comT[3] comG[1] comG[2] comG[3] comM[1] comM[2] comM[3] 
       0    2.3966309    93.323754            0    102.65369    12.683318    22.424053    14.189073    19.734246    34.636249    9.6241346    12.612127     22.30075    14.235163 
     200    338.67136    92.736858            0    1411.1634    12.683318    22.424048    14.189073    19.734282    34.635735    9.6241731    12.612127     22.30075    14.235163 
     400     298.4384    79.494406            0    1241.2966    12.683321    22.424007    14.189078    19.734515    34.631614    9.6246721    12.612127     22.30075    14.235163 
     600    324.19891    71.520393            0    1333.6066    12.683315    22.423918    14.189094    19.733934    34.622686    9.6262571    12.612127     22.30075    14.235163 
     800    303.90116      96.8502            0    1279.9185    12.683305     22.42381    14.189102    19.732921    34.611887    9.6270958    12.612127     22.30075    14.235163 
    1000    320.82876    129.70357            0      1378.67    12.683305    22.423679    14.189085    19.732956    34.598809    9.6253862    12.612127     22.30075    14.235163 
    1200    307.23384    139.63112            0    1335.6734    12.683322     22.42349    14.189039    19.734678    34.579938    9.6207571    12.612127     22.30075    14.235163 
    1400    325.54275    135.67441            0    1402.9921    12.683352    22.423266    14.188964    19.737606    34.557503    9.6133051    12.612127     22.30075    14.235163 
    1600    307.79519    139.65615            0    1337.8837    12.683354    22.423058    14.188867    19.737806    34.536653    9.6035828    12.612127     22.30075    14.235163 
    1800    321.90952    150.38043            0    1403.5542    12.683247    22.422875    14.188757    19.727101    34.518347     9.592582    12.612127     22.30075    14.235163 
    2000    303.89125    155.82545            0    1338.8552    12.682951    22.422761    14.188657    19.697564    34.506965    9.5825488    12.612127     22.30075    14.235163 
    2200    325.53245    163.91165            0    1431.1893     12.68243    22.422759    14.188567    19.645459    34.506737    9.5736087    12.612127     22.30075    14.235163 
    2400    303.28943    173.52583            0    1354.2127    12.681689    22.422881    14.188477     19.57127    34.518941    9.5645543    12.612127     22.30075    14.235163 
    2600    310.03583    182.78861            0    1389.7388    12.680798    22.423104    14.188377    19.482158    34.541289    9.5545443    12.612127     22.30075    14.235163 
    2800     318.6843     179.2519            0    1419.8701    12.679861    22.423378    14.188268    19.388381    34.568745    9.5436004    12.612127     22.30075    14.235163 
    3000    323.55213    167.68706            0    1427.2554    12.678946    22.423675    14.188143    19.296844    34.598373    9.5311032    12.612127     22.30075    14.235163 
    3200    321.92799    158.25411            0    1411.4998    12.678088    22.423957    14.188005    19.211015    34.626679    9.5173174    12.612127     22.30075    14.235163 
    3400    309.08537    146.68537            0    1349.9355    12.677297    22.424169    14.187859    19.131881    34.647857    9.5027533    12.612127     22.30075    14.235163 
    3600    306.98501    131.92328            0    1326.9969    12.676583    22.424248    14.187705    19.060507    34.655772    9.4872971    12.612127     22.30075    14.235163 
    3800    309.68044    132.76798            0    1338.3347    12.675963    22.424177    14.187525    18.998427    34.648597    9.4692825    12.612127     22.30075    14.235163 
    4000    325.89136    155.73117            0     1424.406    12.675454    22.423973    14.187296    18.947476    34.628248    9.4464268    12.612127     22.30075    14.235163 
    4200    318.61166     184.4056            0     1424.741    12.675018    22.423694    14.187016    18.903861    34.600334    9.4183534    12.612127     22.30075    14.235163 
    4400    310.17647    202.98629            0     1410.484    12.674603    22.423482    14.186699    18.862422    34.579111    9.3867019    12.612127     22.30075    14.235163 
    4600     313.8696    204.96347            0    1426.8383    12.674159     22.42346    14.186395    18.817932    34.576865    9.3563032    12.612127     22.30075    14.235163 
    4800     318.1496    200.31275            0    1438.8494    12.673626    22.423623    14.186151    18.764622    34.593244    9.3318827    12.612127     22.30075    14.235163 
    5000    312.86733    189.17183            0    1407.1449    12.672983    22.423886    14.185965    18.700347    34.619566    9.3132179    12.612127     22.30075    14.235163 
    5200    301.36298    165.39198            0    1338.5794    12.672245    22.424186    14.185783     18.62645    34.649497    9.2950515    12.612127     22.30075    14.235163 
    5400    322.35493    132.25919            0    1387.1669    12.671468    22.424483    14.185561    18.548711    34.679298    9.2728009    12.612127     22.30075    14.235163 
    5600    310.44585    114.95306            0    1323.4995    12.670702    22.424723    14.185291    18.472102    34.703232    9.2458104    12.612127     22.30075    14.235163 
    5800    315.46386    124.51328            0    1352.5945    12.669947    22.424859    14.185008    18.396613    34.716873    9.2174744    12.612127     22.30075    14.235163 
    6000    316.18961    151.72392            0    1382.6304    12.669219    22.424847    14.184747    18.323736    34.715647    9.1913601    12.612127     22.30075    14.235163 
    6200    308.13474    184.42811            0    1383.9775    12.668544    22.424739    14.184498    18.256238    34.704908    9.1664853    12.612127     22.30075    14.235163 
    6400    315.33787    207.25545            0    1434.8462    12.667936    22.424648    14.184246    18.195423    34.695735    9.1413269    12.612127     22.30075    14.235163 
    6600     308.6028     214.3419            0    1415.7134    12.667334    22.424582     14.18403    18.135171    34.689191    9.1196484    12.612127     22.30075    14.235163 
    6800    315.38931     210.7151            0    1438.5061    12.666622    22.424506    14.183886    18.063925    34.681583     9.105255    12.612127     22.30075    14.235163 
    7000    313.26623    206.55513            0    1426.0811    12.665733     22.42445    14.183799    17.975005    34.675947    9.0965689    12.612127     22.30075    14.235163 
    7200     305.3057    211.41929            0    1399.9554    12.664702    22.424461    14.183725     17.87188    34.677083    9.0891833    12.612127     22.30075    14.235163 
    7400    314.27476    224.29915            0    1447.7513    12.663618     22.42449    14.183655    17.763436    34.679941    9.0822052    12.612127     22.30075    14.235163 
    7600    308.71142     229.5833            0    1431.3777    12.662531    22.424489    14.183624    17.654626    34.679838     9.079078    12.612127     22.30075    14.235163 
    7800    320.09651    228.01689            0    1474.1327    12.661403    22.424479    14.183629    17.541834    34.678887    9.0795685    12.612127     22.30075    14.235163 
    8000    314.49511    230.10587            0    1454.4158    12.660201    22.424533     14.18365    17.421534    34.684289    9.0816576    12.612127     22.30075    14.235163 
    8200    312.43611    247.21045            0    1463.5048    12.658846    22.424597    14.183679    17.286034    34.690674    9.0845209    12.612127     22.30075    14.235163 
    8400    316.55859    255.40266            0    1487.7456    12.657265    22.424494    14.183686    17.127827    34.680379    9.0852918    12.612127     22.30075    14.235163 
    8600    313.27176    241.11806            0    1460.6656    12.655453    22.424094    14.183676    16.946534    34.640363    9.0842375    12.612127     22.30075    14.235163 
    8800    311.06991     217.9418            0    1428.9177    12.653485    22.423387    14.183706    16.749717    34.569594    9.0872938    12.612127     22.30075    14.235163 
    9000    311.70492     207.1065            0    1420.5544    12.651478    22.422526    14.183787    16.548942    34.483494    9.0953977    12.612127     22.30075    14.235163 
    9200    315.83267    207.41135            0    1436.9284    12.649517    22.421672    14.183891      16.3527    34.398061    9.1058061    12.612127     22.30075    14.235163 
    9400    309.11217    205.19366            0    1408.5482    12.647611     22.42098    14.184016    16.162018    34.328773    9.1182903    12.612127     22.30075    14.235163 
    9600     314.3717    202.95508            0    1426.7846      12.6457    22.420567    14.184166    15.970833    34.287526    9.1332871    12.612127     22.30075    14.235163 
    9800    314.82587    220.08647            0     1445.684    12.643709    22.420433    14.184309    15.771712    34.274129    9.1475604    12.612127     22.30075    14.235163 
   10000    294.06313    237.08271            0    1381.8522    12.641623    22.420532    14.184415    15.563036    34.284019    9.1581522    12.612127     22.30075    14.235163 
   10200    314.05411    230.18174            0    1452.7749    12.639403    22.420691     14.18449    15.340898    34.299894    9.1656582    12.612127     22.30075    14.235163 
   10400    314.40407    205.15997            0    1429.1155    12.636988     22.42066    14.184595    15.099254    34.296747    9.1762091    12.612127     22.30075    14.235163 
   10600    311.13445    206.48199            0    1417.7091    12.634381    22.420296    14.184764     14.83847    34.260346    9.1930739    12.612127     22.30075    14.235163 
   10800    313.42861    249.19107            0    1469.3492     12.63156    22.419666    14.184949    14.556316    34.197342    9.2115703    12.612127     22.30075    14.235163 
   11000    311.06101    288.22816            0    1499.1694    12.628688    22.418935    14.185071    14.268995     34.12417    9.2238407    12.612127     22.30075    14.235163 
   11200    327.78922    299.69076            0    1575.7538    12.626047    22.418257    14.185094    14.004749    34.056429    9.2260932    12.612127     22.30075    14.235163 
   11400    314.38472    286.06439            0    1509.9446    12.623789    22.417768    14.185048     13.77884    34.007518    9.2215199    12.612127     22.30075    14.235163 
   11600    311.37074    318.43364            0    1530.5806    12.621904     22.41763    14.184978    13.590222    33.993659    9.2145441    12.612127     22.30075    14.235163 
   11800    298.28324    366.94612            0    1528.1443    12.620195    22.418014    14.184896    13.419277    34.032049     9.206283    12.612127     22.30075    14.235163 
   12000     319.8969    365.60013            0    1610.9389    12.618566    22.418944    14.184842    13.256352     34.12511    9.2009505    12.612127     22.30075    14.235163 
   12200    309.25963     342.8746            0    1546.8031     12.61705    22.420172    14.184826    13.104704    34.247969    9.1992805    12.612127     22.30075    14.235163 
   12400    320.14681    333.78361            0    1580.0953    12.615713    22.421318    14.184841    12.970935    34.362649    9.2008034    12.612127     22.30075    14.235163 
   12600    303.46406    329.59062            0    1510.9574    12.614555    22.422058    14.184882    12.855105     34.43666    9.2049402    12.612127     22.30075    14.235163 
   12800     327.1383    324.08522            0    1597.6143     12.61351     22.42235     14.18491    12.750515    34.465851    9.2076718    12.612127     22.30075    14.235163 
   13000    311.00483    310.30403            0    1521.0265    12.612557    22.422492    14.184881    12.655165    34.480064    9.2048368    12.612127     22.30075    14.235163 
   13200    307.19653    273.61937            0    1469.5164    12.611646    22.422856    14.184799    12.564008    34.516497    9.1966142    12.612127     22.30075    14.235163 
   13400    313.67223    234.46757            0    1455.5741    12.610795    22.423619    14.184698     12.47891    34.592835    9.1864932    12.612127     22.30075    14.235163 
   13600    291.65821    229.80791            0    1365.2152    12.610092    22.424681    14.184599    12.408598    34.699011    9.1765722    12.612127     22.30075    14.235163 
   13800    323.77282    244.92135            0    1505.3488    12.609584    22.425804    14.184501    12.357763    34.811378    9.1668232    12.612127     22.30075    14.235163 
   14000    309.36988    236.26475            0    1440.6225    12.609186    22.426787    14.184389     12.31793    34.909753    9.1555495    12.612127     22.30075    14.235163 
   14200     327.8896    211.57923            0    1488.0331     12.60883     22.42754    14.184236     12.28234    34.985125    9.1403198    12.612127     22.30075    14.235163 
   14400    312.25309    216.29571            0    1431.8776    12.608379     22.42803    14.184068    12.237165    35.034092    9.1234632    12.612127     22.30075    14.235163 
   14600    310.19343    281.07333            0    1488.6371    12.607586    22.428142    14.183931     12.15789     35.04531    9.1097981    12.612127     22.30075    14.235163 
   14800    310.27983     342.2738            0    1550.1739    12.606374    22.427756    14.183824    12.036605    35.006658    9.0990424    12.612127     22.30075    14.235163 
   15000    311.87441    360.23963            0    1574.3474    12.604954    22.426935    14.183692    11.894574    34.924588    9.0858458    12.612127     22.30075    14.235163 
   15200    315.83802    349.88344            0    1579.4212     12.60361    22.425983    14.183466    11.760103    34.829325     9.063269    12.612127     22.30075    14.235163 
   15400    296.82035    344.01281            0     1499.516    12.602528    22.425123    14.183144    11.651851    34.743302    9.0310115    12.612127     22.30075    14.235163 
   15600    321.64428     361.4986            0    1613.6398    12.601619    22.424348    14.182757     11.56094    34.665772    8.9923022    12.612127     22.30075    14.235163 
   15800    320.25866    365.27395            0     1612.021    12.600689    22.423382    14.182387    11.467917     34.56915    8.9552595    12.612127     22.30075    14.235163 
   16000     311.7085    350.05595            0    1563.5178    12.599766    22.421996    14.182111    11.375549    34.430489     8.927722    12.612127     22.30075    14.235163 
   16200    302.74658    315.38717            0    1493.9608     12.59898    22.420063    14.181846    11.296908    34.237038    8.9011762    12.612127     22.30075    14.235163 
   16400    317.55653    298.75744            0    1534.9853    12.598306    22.417611     14.18153    11.229448    33.991791    8.8695303    12.612127     22.30075    14.235163 
   16600    299.62486    339.62883            0    1506.0498    12.597569    22.414847    14.181213    11.155701    33.715281     8.837875    12.612127     22.30075    14.235163 
   16800     314.3046    396.80226            0    1620.3706    12.596644     22.41207    14.180865     11.06317    33.437406    8.8030154    12.612127     22.30075    14.235163 
   17000    306.26772    425.11353            0    1617.3948    12.595507    22.409599    14.180495    10.949495     33.19018    8.7660162    12.612127     22.30075    14.235163 
   17200    319.54448    424.34535            0    1668.3122    12.594302    22.407582    14.180131    10.828934    32.988442    8.7295978    12.612127     22.30075    14.235163 
   17400    309.02522    385.68985            0    1588.7059    12.593195    22.406047    14.179759    10.718206    32.834911     8.692412    12.612127     22.30075    14.235163 
   17600    319.21107    299.39405            0    1542.0629    12.592282    22.404902    14.179379    10.626843    32.720335    8.6543655    12.612127     22.30075    14.235163 
   17800    301.66709    200.54925            0    1374.9205     12.59166    22.404028    14.179005     10.56464    32.632885    8.6169626    12.612127     22.30075    14.235163 
   18000    307.31423    139.98099            0    1336.3362    12.591397    22.403338    14.178608    10.538284    32.563911    8.5772309    12.612127     22.30075    14.235163 
   18200    320.13879    148.01363            0    1394.2941    12.591466     22.40277    14.178155    10.545185    32.507024    8.5319561    12.612127     22.30075    14.235163 
   18400    313.21909    183.29694            0    1402.6394    12.591811    22.402306    14.177648    10.579681    32.460614    8.4812434    12.612127     22.30075    14.235163 
   18600    308.89425    236.15916            0    1438.6653    12.592425    22.401882    14.177141    10.641079    32.418177    8.4304666    12.612127     22.30075    14.235163 
   18800    320.09425    321.20425            0    1567.3113    12.593326    22.401465    14.176654    10.731237    32.376512    8.3818085    12.612127     22.30075    14.235163 
   19000    312.30572    445.19167            0    1660.9784    12.594522    22.401223     14.17609     10.85095    32.352281    8.3252985    12.612127     22.30075    14.235163 
   19200    320.54018    548.84699            0      1796.69    12.595856    22.401387    14.175352    10.984343     32.36865    8.2515038    12.612127     22.30075    14.235163 
   19400    310.10764    545.04541            0    1752.2752      12.5972    22.401915    14.174487    11.118838    32.421545    8.1649588    12.612127     22.30075    14.235163 
   19600    320.90858    462.25978            0     1711.537    12.598635    22.402481    14.173593    11.262339    32.478091    8.0755231    12.612127     22.30075    14.235163 
   19800    311.37914    403.84677            0    1616.0264     12.60024    22.402797    14.172737    11.422941    32.509727    7.9898932    12.612127     22.30075    14.235163 
   20000    307.39198    351.21798            0    1547.8759    12.601922    22.402797    14.171946    11.591275    32.509697     7.910786    12.612127     22.30075    14.235163 
   20200    317.24206    292.44681            0    1527.4505    12.603615    22.402562     14.17126    11.760597    32.486224    7.8421528    12.612127     22.30075    14.235163 
   20400    319.32171    277.10717            0    1520.2068    12.605387    22.402244    14.170617    11.937825    32.454449    7.7778205    12.612127     22.30075    14.235163 
   20600    320.17819    303.78821            0     1550.222     12.60715    22.401973    14.169933    12.114224    32.427275    7.7093561    12.612127     22.30075    14.235163 
   20800    312.10107    375.90373            0    1590.8938    12.608625    22.401659     14.16922    12.261799    32.395852     7.638069    12.612127     22.30075    14.235163 
   21000    315.25839    469.06403            0    1696.3454    12.609505    22.401089    14.168498    12.349838    32.338909    7.5657855    12.612127     22.30075    14.235163 
   21200    306.21434    496.33664            0    1688.4101    12.609705    22.400048    14.167781    12.369809    32.234726    7.4940708    12.612127     22.30075    14.235163 
   21400     318.0172    467.98665            0    1706.0079    12.609361     22.39853    14.167077    12.335478    32.082853    7.4236949    12.612127     22.30075    14.235163 
   21600    309.10139    444.37132            0    1647.6838    12.608737     22.39683    14.166322    12.273031    31.912831    7.3481732    12.612127     22.30075    14.235163 
   21800    331.89605    408.79997            0    1700.8507    12.608016    22.395327    14.165518    12.200862    31.762383     7.267708    12.612127     22.30075    14.235163 
   22000    308.34331    347.61443            0    1547.9758    12.607274    22.394157    14.164751    12.126623    31.645381    7.1909232    12.612127     22.30075    14.235163 
   22200    317.53295    281.75837            0    1517.8944    12.606531    22.393225    14.164067    12.052321    31.552107    7.1225413    12.612127     22.30075    14.235163 
   22400    308.89447    245.05992            0    1447.5669    12.605894    22.392454    14.163407    11.988567       31.475    7.0565452    12.612127     22.30075    14.235163 
   22600    321.11877    253.26573            0    1503.3612     12.60548    22.391853    14.162698    11.947155     31.41491    6.9855638    12.612127     22.30075    14.235163 
   22800    314.04916    290.69411            0     1513.268    12.605063     22.39134    14.161966    11.905439    31.363545    6.9123772    12.612127     22.30075    14.235163 
   23000    309.19427    330.17705            0    1533.8512    12.604416    22.390753    14.161188    11.840721    31.304842    6.8345236    12.612127     22.30075    14.235163 
   23200     313.9165    357.38945            0    1579.4469    12.603374    22.389856    14.160342    11.736534    31.215112    6.7499068    12.612127     22.30075    14.235163 
   23400    326.27317    394.05796            0    1664.2191     12.60195    22.388479    14.159492    11.594013    31.077335    6.6648753    12.612127     22.30075    14.235163 
   23600    311.38749    443.60197            0    1655.8141    12.600392    22.386603    14.158697     11.43815    30.889631    6.5853496    12.612127     22.30075    14.235163 
   23800    317.24787    477.17114            0    1712.1974    12.599099    22.384508    14.157993    11.308829    30.680088    6.5148822    12.612127     22.30075    14.235163 
   24000    312.18518    504.17387            0    1719.4914    12.598387    22.382749    14.157412    11.237544    30.504141    6.4567414    12.612127     22.30075    14.235163 
   24200    323.97383     502.4409            0    1763.6509    12.598423    22.381898    14.156936    11.241134    30.418928    6.4090881    12.612127     22.30075    14.235163 
   24400    316.33012    507.05905            0    1738.5126    12.599201    22.382202    14.156419    11.318986    30.449358    6.3574185    12.612127     22.30075    14.235163 
   24600    304.07949     538.2839            0    1722.0465    12.600646    22.383511    14.155855    11.463552    30.580327    6.3009403    12.612127     22.30075    14.235163 
   24800    318.94427    537.73483            0    1779.3651    12.602595    22.385465    14.155274    11.658578    30.775834    6.2428914    12.612127     22.30075    14.235163 
   25000     300.0216    489.36022            0    1657.3257    12.604769    22.387697    14.154585    11.876032    30.999073    6.1739794    12.612127     22.30075    14.235163 
   25200    314.69792    423.85164            0    1648.9511    12.606861    22.389843    14.153812    12.085334    31.213804    6.0966237    12.612127     22.30075    14.235163 
   25400    319.70456    345.58847            0    1590.1785    12.608585    22.391587    14.153061    12.257812    31.388319    6.0214887    12.612127     22.30075    14.235163 
   25600    306.04331    309.63266            0    1501.0403    12.609902    22.392715    14.152329    12.389521    31.501124    5.9481949    12.612127     22.30075    14.235163 
   25800    313.98984    319.45536            0    1541.7983      12.6109    22.393311    14.151541     12.48941     31.56075    5.8694478    12.612127     22.30075    14.235163 
   26000    316.05698    334.98322            0    1565.3734      12.6116    22.393547      14.1507     12.55944    31.584385    5.7852454    12.612127     22.30075    14.235163 
   26200    310.40206    404.56742            0    1612.9434     12.61209    22.393609      14.1499    12.608429    31.590586    5.7052134    12.612127     22.30075    14.235163 
   26400    323.47087    529.81743            0    1789.0695     12.61229    22.393734    14.149095    12.628489    31.603106    5.6246659    12.612127     22.30075    14.235163 
   26600    304.12118    598.03291            0    1781.9578    12.611886    22.394126    14.148197    12.588076    31.642232    5.5348246    12.612127     22.30075    14.235163 
   26800    327.83891    566.68009            0    1842.9366    12.610739    22.394793    14.147273     12.47326    31.708973    5.4424161    12.612127     22.30075    14.235163 
   27000    291.82118    519.73238            0    1655.7741    12.608924     22.39537    14.146399    12.291741    31.766728    5.3549456    12.612127     22.30075    14.235163 
   27200    317.08245    495.18312            0    1729.5654    12.606567    22.395302    14.145583    12.055911    31.759878    5.2733364    12.612127     22.30075    14.235163 
   27400    301.61522    434.82839            0    1608.9977    12.603894    22.394301    14.144865    11.788557    31.659779    5.2014902    12.612127     22.30075    14.235163 
   27600    317.79099    351.94847            0    1589.0891    12.601245    22.392394    14.144264    11.523533    31.469047    5.1413629    12.612127     22.30075    14.235163 
   27800    315.62583    332.74936            0    1561.4611    12.598927    22.389718    14.143685     11.29161    31.201302     5.083442    12.612127     22.30075    14.235163 
   28000    322.63794    376.03291            0    1632.0424    12.596948    22.386324     14.14312    11.093622    30.861729    5.0269407    12.612127     22.30075    14.235163 
   28200     319.3641    400.44073            0    1643.7054    12.595199    22.382488    14.142583    10.918661     30.47799    4.9732396    12.612127     22.30075    14.235163 
   28400    318.69152    445.74795            0    1686.3942     12.59371    22.378659    14.142027    10.769656    30.094896    4.9176329    12.612127     22.30075    14.235163 
   28600    309.55516     534.9543            0    1740.0333    12.592411     22.37521    14.141444    10.639677    29.749903    4.8592516    12.612127     22.30075    14.235163 
   28800    322.87266    582.09412            0    1839.0173    12.591258    22.372461    14.140888    10.524395    29.474839     4.803664    12.612127     22.30075    14.235163 
   29000    314.42316     593.7036            0    1817.7334    12.590423    22.370601    14.140449    10.440832    29.288818    4.7596917    12.612127     22.30075    14.235163 
   29200    320.05691    564.33991            0    1810.3016    12.590192    22.369543    14.140081    10.417734    29.182941    4.7229067    12.612127     22.30075    14.235163 
   29400    315.09369    510.08499            0    1736.7252    12.590696    22.369072    14.139718    10.468188    29.135851    4.6865748    12.612127     22.30075    14.235163 
   29600    301.12165    434.46886            0    1606.7168    12.591817    22.369119    14.139399    10.580265     29.14051    4.6546547    12.612127     22.30075    14.235163 
   29800    316.75437    364.77529            0    1597.8804    12.593337    22.369702     14.13922    10.732385    29.198824    4.6368258    12.612127     22.30075    14.235163 
   30000    296.33515    394.11912            0    1547.7335    12.595152    22.370803    14.139036    10.913932     29.30896    4.6183559    12.612127     22.30075    14.235163 
   30200     324.7845    446.89818            0    1711.2641    12.597311     22.37243    14.138765    11.129908    29.471764    4.5913077    12.612127     22.30075    14.235163 
   30400    302.85652    463.87249            0    1642.8741    12.599751    22.374485    14.138459    11.374084    29.677371    4.5606075    12.612127     22.30075    14.235163 
   30600    315.00636    489.96432            0    1716.2645    12.602315    22.376745    14.138139    11.630529    29.903461    4.5286437    12.612127     22.30075    14.235163 
   30800    309.13952    535.78635            0    1739.2473    12.605103    22.379041    14.137875    11.909418    30.133133    4.5022755    12.612127     22.30075    14.235163 
   31000    302.87541     574.7222            0    1753.7974    12.608272    22.381409    14.137758    12.226531    30.370032    4.4904952    12.612127     22.30075    14.235163 
   31200    313.27775    589.85882            0    1809.4296    12.611709    22.383857    14.137761      12.5703    30.614991    4.4908382    12.612127     22.30075    14.235163 
   31400    308.65968    615.10115            0    1816.6941    12.615081    22.386369    14.137799    12.907696     30.86626    4.4946717    12.612127     22.30075    14.235163 
   31600    323.15178    651.81813            0    1909.8279    12.618076    22.388813    14.137843    13.207323    31.110736    4.4990162    12.612127     22.30075    14.235163 
   31800    312.17284    651.63673            0    1866.9062     12.62035    22.390794    14.137894    13.434828     31.30891    4.5041369    12.612127     22.30075    14.235163 
   32000    321.50702    631.44389            0    1883.0508    12.621642    22.392086     14.13797    13.564103    31.438231    4.5117785    12.612127     22.30075    14.235163 
   32200    305.49817    613.06521            0    1802.3506     12.62192    22.392931     14.13801    13.591863    31.522776    4.5157393    12.612127     22.30075    14.235163 
   32400     314.3512    560.19017            0    1783.9399    12.621458     22.39363    14.137992    13.545684    31.592612    4.5139368    12.612127     22.30075    14.235163 
   32600    307.86687    510.82468            0    1709.3313    12.620403    22.394207    14.137942     13.44013    31.650355    4.5089582    12.612127     22.30075    14.235163 
   32800    322.03445    506.13399            0    1759.7941    12.618754    22.394572    14.137855    13.275095    31.686882    4.5002188    12.612127     22.30075    14.235163 
   33000    294.35239    508.12833            0    1654.0239    12.616642    22.394738     14.13778    13.063803    31.703496    4.4927009    12.612127     22.30075    14.235163 
   33200    314.49118    523.15392            0    1747.4486    12.614313    22.395009     14.13773    12.830868    31.730642    4.4876879    12.612127     22.30075    14.235163 
   33400    300.01628     561.0469            0    1728.9916    12.612116    22.395548     14.13761    12.611035    31.784497    4.4756711    12.612127     22.30075    14.235163 
   33600    328.79474    597.30763            0    1877.2851    12.610081    22.396218    14.137462    12.407457    31.851559    4.4609639    12.612127     22.30075    14.235163 
   33800    309.30324    606.56561            0    1810.6639    12.607956    22.396851    14.137409    12.194876    31.914938    4.4555867    12.612127     22.30075    14.235163 
   34000    311.62228    572.70789            0    1785.8341    12.605691    22.397414    14.137373    11.968307    31.971238    4.4520001    12.612127     22.30075    14.235163 
   34200    289.78356    549.75205            0    1677.8615    12.603509    22.397945    14.137221    11.749992    32.024326     4.436799    12.612127     22.30075    14.235163 
   34400    323.33265    569.24792            0    1827.9619    12.601653    22.398425    14.137055    11.564331    32.072361    4.4201561    12.612127     22.30075    14.235163 
   34600    308.08663    600.96921            0    1800.3313    12.600211    22.398833    14.136981    11.420012    32.113163    4.4127988    12.612127     22.30075    14.235163 
   34800    313.58306    665.14308            0    1885.9025    12.599164    22.399344    14.136958    11.315355    32.164247    4.4104871    12.612127     22.30075    14.235163 
   35000    313.45285    733.81353            0     1954.066     12.59849     22.40017    14.136936    11.247895    32.246977    4.4082788    12.612127     22.30075    14.235163 
   35200    311.69916    827.74802            0    2041.1735    12.598223    22.401391    14.136863    11.221134    32.369071    4.4009618    12.612127     22.30075    14.235163 
   35400    323.34794    891.57473            0    2150.3482    12.598408    22.403046    14.136757    11.239714    32.534675    4.3903503    12.612127     22.30075    14.235163 
   35600    311.63124     938.4944            0    2151.6555    12.599052    22.405253    14.136692    11.304134    32.755455    4.3839078    12.612127     22.30075    14.235163 
   35800    307.08995    963.94022            0    2159.4223    12.600079    22.408153    14.136736     11.40682     33.04556    4.3882902    12.612127     22.30075    14.235163 
   36000     316.7657    906.83306            0    2139.9823    12.601419     22.41166     14.13679    11.540884    33.396453    4.3936695    12.612127     22.30075    14.235163 
   36200    321.84747    756.11493            0    2009.0472    12.602947    22.415377    14.136741    11.693756    33.768271     4.388756    12.612127     22.30075    14.235163 
   36400    310.50996    541.56142            0    1750.3574    12.604663    22.418902    14.136507    11.865469    34.120873    4.3653991    12.612127     22.30075    14.235163 
   36600    317.46624    341.05202            0    1576.9284    12.606644    22.422133    14.136121    12.063663    34.444178    4.3268014    12.612127     22.30075    14.235163 
   36800     322.3559    191.33454            0    1446.2461    12.608845    22.425162    14.135739    12.283784    34.747218    4.2885766    12.612127     22.30075    14.235163 
   37000    303.28435    145.54581            0     1326.213    12.611135    22.427979    14.135478     12.51291    35.029013    4.2624776    12.612127     22.30075    14.235163 
   37200    315.17092    170.16642            0    1397.1073    12.613493    22.430419    14.135344    12.748776    35.273079    4.2490371    12.612127     22.30075    14.235163 
   37400    306.29738    257.08265            0    1449.4793    12.615984    22.432534    14.135286    12.998014    35.484663    4.2431756    12.612127     22.30075    14.235163 
   37600    321.58423    412.48404            0    1664.3915    12.618614    22.434252    14.135236     13.26113     35.65659    4.2382365    12.612127     22.30075    14.235163 
   37800    309.90939     630.6288            0    1837.0868    12.621222    22.435632    14.135088    13.522086     35.79465     4.223457    12.612127     22.30075    14.235163 
   38000    321.49995    846.73904            0    2098.3184    12.623407    22.436656    14.134851    13.740595    35.897112    4.1997472    12.612127     22.30075    14.235163 
   38200    313.61787    1016.2207            0    2237.1156     12.62503    22.437233    14.134558     13.90295     35.95481    4.1703526    12.612127     22.30075    14.235163 
   38400    303.00188    1058.6973            0    2238.2648    12.626296    22.437325    14.134168    14.029673    35.963966    4.1314199    12.612127     22.30075    14.235163 
   38600    308.26485    949.25138            0    2149.3073    12.627534    22.437002    14.133727    14.153492    35.931633    4.0872136    12.612127     22.30075    14.235163 
   38800    314.40959    783.25907            0    2007.2361    12.629227    22.436694    14.133218    14.322891    35.900866    4.0363622    12.612127     22.30075    14.235163 
   39000    315.65378    588.92296            0    1817.7435    12.631825    22.436632    14.132654    14.582757    35.894662    3.9798997    12.612127     22.30075    14.235163 
   39200    341.83641    374.39407            0     1705.142    12.635296    22.436636    14.132042    14.930057    35.895042    3.9186627    12.612127     22.30075    14.235163 
   39400    311.82362    170.04048            0    1383.9505    12.638973    22.436739    14.131337    15.297851    35.905372       3.8482    12.612127     22.30075    14.235163 
   39600    308.10266    84.439375            0    1283.8639    12.642181    22.437082    14.130571     15.61883    35.939687    3.7715347    12.612127     22.30075    14.235163 
   39800    322.31434    178.38854            0    1433.1383    12.645045    22.437396    14.129771    15.905293    35.971076     3.691461    12.612127     22.30075    14.235163 
   40000    306.78176    305.74115            0    1500.0235     12.64761    22.437506    14.128935    16.161962    35.982068    3.6078707    12.612127     22.30075    14.235163 
   40200    311.65315    419.23098            0    1632.4773    12.649633    22.437483    14.128017    16.364319     35.97979    3.5160081    12.612127     22.30075    14.235163 
   40400    312.31366    627.92179            0    1843.7395    12.650745    22.437455    14.126963    16.475556     35.97697    3.4105332    12.612127     22.30075    14.235163 
   40600    307.72419     884.6968            0    2082.6479    12.650749    22.437514    14.125731    16.476004    35.982934    3.2872879    12.612127     22.30075    14.235163 
   40800    310.58663    914.29507            0    2123.3895    12.649782    22.437742    14.124432     16.37921    36.005755    3.1574062    12.612127     22.30075    14.235163 
   41000    321.65852    782.91117            0    2035.1078    12.648234    22.438165    14.123213    16.224334    36.048066    3.0353786    12.612127     22.30075    14.235163 
   41200    312.97626    577.67036            0    1796.0675    12.646404    22.438702    14.122158     16.04125    36.101765    2.9298977    12.612127     22.30075    14.235163 
   41400    305.42659    421.26439            0    1610.2711     12.64416    22.439429    14.121269    15.816817    36.174473    2.8409721    12.612127     22.30075    14.235163 
   41600    320.55242    336.95594            0    1584.8466     12.64117    22.440198    14.120464    15.517705    36.251429    2.7603549    12.612127     22.30075    14.235163 
   41800     306.1852    254.01818            0    1445.9782    12.637586     22.44081    14.119694    15.159104    36.312658    2.6833966    12.612127     22.30075    14.235163 
   42000    321.77694    215.04446            0    1467.7021    12.633784    22.441233    14.118929    14.778729    36.354981    2.6068762    12.612127     22.30075    14.235163 
   42200    321.15586    330.61957            0    1580.8594      12.6301     22.44146    14.118199    14.410188    36.377693    2.5337909    12.612127     22.30075    14.235163 
   42400    317.57774    579.76365            0    1816.0741    12.626493    22.441438    14.117511    14.049408    36.375469    2.4649636    12.612127     22.30075    14.235163 
   42600    314.06955    798.15079            0    2020.8041    12.623107    22.441008    14.116819    13.710598    36.332448    2.3957245    12.612127     22.30075    14.235163 
   42800    302.51643    917.71652            0    2095.3942    12.620756    22.440103    14.116104    13.475443    36.241859    2.3241875    12.612127     22.30075    14.235163 
   43000    314.09075    845.62352            0    2068.3593    12.619911     22.43868    14.115406    13.390916    36.099552    2.2544151    12.612127     22.30075    14.235163 
   43200    309.95909    709.44425            0    1916.0957    12.620208    22.436975    14.114847    13.420629    35.928997    2.1984167    12.612127     22.30075    14.235163 
   43400    322.17503    598.43823            0    1852.6456    12.621014    22.435311    14.114438    13.501185    35.762553    2.1575918    12.612127     22.30075    14.235163 
   43600    306.58171    442.00112            0    1635.5047    12.621984    22.433323    14.114156    13.598234    35.563619      2.12932    12.612127     22.30075    14.235163 
   43800    311.95259    299.32312            0    1513.7352    12.623174    22.430572    14.113913    13.717325    35.288413    2.1049897    12.612127     22.30075    14.235163 
   44000    316.27477    222.47622            0    1453.7143    12.624473    22.427201    14.113693    13.847296    34.951195    2.0830605    12.612127     22.30075    14.235163 
   44200    311.25236    236.15096            0    1447.8371    12.625638     22.42347    14.113514    13.963862    34.577909    2.0650817    12.612127     22.30075    14.235163 
   44400    310.46982     327.3257            0    1535.9654    12.626475    22.419492    14.113364    14.047586    34.179987    2.0501293    12.612127     22.30075    14.235163 
   44600      312.293    474.42919            0    1690.1665    12.627133    22.415285    14.113318     14.11339    33.759048    2.0454757    12.612127     22.30075    14.235163 
   44800    317.35558    606.74982            0    1842.1954    12.627314    22.410838    14.113348    14.131453    33.314205    2.0484719    12.612127     22.30075    14.235163 
   45000     309.7402    732.84451            0    1938.6439    12.626232    22.405978    14.113356    14.023211     32.82796    2.0493327    12.612127     22.30075    14.235163 
   45200    308.77336     798.3111            0    2000.3466    12.623369    22.400712    14.113327    13.736846    32.301165    2.0463715    12.612127     22.30075    14.235163 
   45400    319.49572    771.75288            0    2015.5299    12.618572    22.395357    14.113315    13.256962     31.76543    2.0452069    12.612127     22.30075    14.235163 
   45600    305.81081    689.41981            0    1879.9223     12.61227    22.390039     14.11332    12.626493    31.233394    2.0457405    12.612127     22.30075    14.235163 
   45800    321.86789    585.59203            0    1838.6038    12.605209    22.384877    14.113207     11.92009    30.716975    2.0344054    12.612127     22.30075    14.235163 
   46000    312.34898    478.35391            0    1694.3091    12.598184    22.380197    14.112982    11.217296    30.248814      2.01186    12.612127     22.30075    14.235163 
   46200    310.38456    378.55453            0    1586.8624    12.591809    22.376121    14.112706    10.579516    29.840987    1.9842733    12.612127     22.30075    14.235163 
   46400    316.15361    359.39897            0    1590.1653    12.586112    22.372724    14.112467    10.009572      29.5012     1.960378    12.612127     22.30075    14.235163 
   46600    311.22256    418.51838            0    1630.0885    12.581032    22.370111    14.112318    9.5013936    29.239732    1.9454794    12.612127     22.30075    14.235163 
   46800    323.33245    507.52471            0    1766.2379    12.576735    22.368414    14.112169    9.0714367    29.070024    1.9305228    12.612127     22.30075    14.235163 
   47000    319.27176    557.03239            0    1799.9375    12.573291    22.367751    14.111859     8.726922    29.003652    1.8995867    12.612127     22.30075    14.235163 
   47200    308.51532    633.70296            0     1834.734    12.570411    22.367912    14.111234    8.4387729    29.019762     1.836987    12.612127     22.30075    14.235163 
   47400    323.04548    715.99801            0     1973.594    12.567893    22.368762    14.110372    8.1868885     29.10485    1.7507956    12.612127     22.30075    14.235163 
   47600    307.48396    745.38532            0    1942.4013    12.565964    22.370135    14.109405    7.9939372    29.242196    1.6540395    12.612127     22.30075    14.235163 
   47800    320.31697     740.7651            0    1987.7392    12.565165    22.371687    14.108403    7.9139802    29.397441    1.5537604    12.612127     22.30075    14.235163 
   48000    305.99313    626.30566            0    1817.5179    12.565508    22.373092    14.107461    7.9483099    29.537979    1.4595863    12.612127     22.30075    14.235163 
   48200    314.11889    507.48197            0    1730.3273    12.566253    22.374261    14.106583    8.0228464    29.654902    1.3717352    12.612127     22.30075    14.235163 
   48400    308.07303    385.08662            0    1584.3958    12.566753    22.375223    14.105677    8.0728131    29.751185    1.2811262    12.612127     22.30075    14.235163 
   48600    313.94494    395.55957            0    1617.7277    12.566887    22.375947    14.104645    8.0862081    29.823618     1.177835    12.612127     22.30075    14.235163 
   48800    295.94198    471.88624            0      1623.97    12.566641    22.376495    14.103483     8.061653    29.878445     1.061615    12.612127     22.30075    14.235163 
   49000    328.01234    529.80484            0    1806.7365    12.565708    22.376505     14.10228    7.9682833    29.879437   0.94122887    12.612127     22.30075    14.235163 
   49200    309.89157    599.84658            0    1806.2352    12.563791    22.375436    14.101119    7.7765006    29.772447   0.82505229    12.612127     22.30075    14.235163 
   49400    322.27182    691.15595            0    1945.7401     12.56107    22.373224    14.099889    7.5043494     29.55115   0.70198926    12.612127     22.30075    14.235163 
   49600     311.0047    770.88751            0    1981.6095    12.558272    22.370168    14.098535     7.224355    29.245438    0.5665996    12.612127     22.30075    14.235163 
   49800     318.6934    860.82908            0    2101.4827    12.555982    22.366196    14.097047    6.9952938    28.848113   0.41772262    12.612127     22.30075    14.235163 
   50000    315.14429    861.28877            0    2088.1259    12.554123    22.361254    14.095421    6.8092732    28.353745   0.25505756    12.612127     22.30075    14.235163 
   50200    310.28189    787.85533            0    1995.7635    12.552293    22.355666    14.093734    6.6262485    27.794643  0.086308866    12.612127     22.30075    14.235163 
   50400    317.64763    762.42753            0      1999.01    12.550255    22.350047    14.092178    6.4223888    27.232537 -0.069351905    12.612127     22.30075    14.235163 
   50600     311.8116    797.25149            0    2011.1147    12.548319    22.345185    14.090794    6.2286684    26.746106  -0.20785782    12.612127     22.30075    14.235163 
   50800    326.85157    684.67926            0    1957.0921    12.546631     22.34166    14.089605    6.0598266    26.393433  -0.32675728    12.612127     22.30075    14.235163 
   51000    321.00824    519.17888            0     1768.844    12.545304    22.339649    14.088593    5.9270701    26.192288  -0.42800218    12.612127     22.30075    14.235163 
   51200    313.34068    434.08095            0    1653.8968    12.544431    22.339096    14.087713    5.8397479    26.136976  -0.51609881    12.612127     22.30075    14.235163 
   51400    302.88723    444.34676            0     1623.468    12.544114    22.340213    14.087044    5.8080154     26.24875  -0.58302642    12.612127     22.30075    14.235163 
   51600    320.43297    530.74702            0    1778.1727    12.543431    22.342748    14.086648     5.739624    26.502294  -0.62266886    12.612127     22.30075    14.235163 
   51800    322.04117    557.96345            0    1811.6497    12.541772    22.345904    14.086474    5.5736565    26.818059  -0.64003449    12.612127     22.30075    14.235163 
   52000    313.13098    647.83621            0    1866.8357    12.539414    22.349531    14.086363    5.3378228    27.180887  -0.65113492    12.612127     22.30075    14.235163 
   52200    314.63386    790.01168            0    2014.8618    12.536763    22.353815    14.086236    5.0726223     27.60948  -0.66388509    12.612127     22.30075    14.235163 
   52400    312.30912    881.75594            0    2097.5559    12.533498    22.358732    14.086073    4.7459967    28.101425   -0.6801379    12.612127     22.30075    14.235163 
   52600    301.97004    909.55695            0    2085.1076    12.529784    22.363957    14.085655     4.374423    28.624098  -0.72194725    12.612127     22.30075    14.235163 
   52800    299.31028    943.92176            0    2109.1181    12.526279    22.369025    14.084833    4.0237236    29.131099  -0.80416294    12.612127     22.30075    14.235163 
   53000    314.05896    929.09465            0    2151.7067    12.523041    22.372766    14.083734    3.6998462     29.50534  -0.91418367    12.612127     22.30075    14.235163 
   53200    318.12815    728.13992            0    1966.5931    12.519439     22.37392     14.08258    3.3394586    29.620798   -1.0295641    12.612127     22.30075    14.235163 
   53400    309.33513    546.48294            0    1750.7054     12.51547    22.372552    14.081519    2.9423782    29.483955     -1.13572    12.612127     22.30075    14.235163 
   53600     313.8334     465.8279            0    1687.5618    12.512036     22.36955    14.080518    2.5988872    29.183615   -1.2358308    12.612127     22.30075    14.235163 
   53800    324.29871     374.9228            0    1637.3975    12.509607    22.365686    14.079516    2.3558568    28.797126   -1.3360948    12.612127     22.30075    14.235163 
   54000    306.34176    376.09795            0    1568.6674    12.508182    22.361362    14.078573    2.2132783    28.364534   -1.4304837    12.612127     22.30075    14.235163 
   54200    322.38603    455.88739            0    1710.9162    12.507791    22.356805    14.077741    2.1742195    27.908623   -1.5136625    12.612127     22.30075    14.235163 
   54400    297.02769     686.2715            0    1842.5818    12.508389    22.352195    14.076929    2.2340289    27.447453   -1.5949657    12.612127     22.30075    14.235163 
   54600    305.24822    889.97836            0    2078.2907    12.509579    22.347797    14.075903    2.3530202    27.007443   -1.6976098    12.612127     22.30075    14.235163 
   54800    309.18572     1057.565            0    2261.2058    12.510656    22.343984    14.074573    2.4608148    26.625937   -1.8305978    12.612127     22.30075    14.235163 
   55000    314.15802     1172.043            0    2395.0407    12.510714    22.341156    14.073183    2.4665764    26.343082   -1.9696627    12.612127     22.30075    14.235163 
   55200     300.3474     1159.488            0    2328.7218    12.509158    22.339926    14.071977     2.310904    26.219955   -2.0903705    12.612127     22.30075    14.235163 
   55400    316.06699    1062.1546            0    2292.5838    12.506112    22.340975    14.070805    2.0062133    26.324898   -2.2075455    12.612127     22.30075    14.235163 
   55600    311.56571    909.70452            0    2122.6105    12.502143    22.344051    14.069501    1.6091715    26.632704   -2.3380316    12.612127     22.30075    14.235163 
   55800    325.22579    750.64454            0    2016.7284    12.497975    22.348145     14.06813     1.192187    27.042207   -2.4751686    12.612127     22.30075    14.235163 
   56000    314.74841    661.00561            0    1886.3016    12.494104    22.352748    14.066739   0.80491994    27.502746   -2.6143805    12.612127     22.30075    14.235163 
   56200    315.79385    673.56243            0    1902.9283    12.490491    22.357773    14.065294   0.44349171    28.005494   -2.7588838    12.612127     22.30075    14.235163 
   56400    309.55253    766.80779            0    1971.8766    12.487242    22.362924    14.063811   0.11841055    28.520725   -2.9072537    12.612127     22.30075    14.235163 
   56600    309.05693    798.74677            0    2001.8862    12.484869    22.367426    14.062381  -0.11900119    28.971152    -3.050369    12.612127     22.30075    14.235163 
   56800    328.76656    739.08281            0    2018.9506    12.483739    22.370694    14.061127  -0.23203807    29.298066   -3.1758358    12.612127     22.30075    14.235163 
   57000    298.78614    765.69569            0    1928.8516    12.483391    22.373012    14.060113  -0.26680549    29.529998   -3.2772047    12.612127     22.30075    14.235163 
   57200    320.16628    817.16168            0    2063.5491    12.483312    22.374759     14.05932  -0.27479557    29.704749   -3.3565982    12.612127     22.30075    14.235163 
   57400    309.24691    862.17225            0    2066.0513    12.483814    22.375788     14.05872  -0.22458197    29.807742   -3.4165451    12.612127     22.30075    14.235163 
   57600    322.61272    776.62586            0    2032.5371    12.485255    22.376006    14.058298 -0.080406375    29.829561   -3.4587821    12.612127     22.30075    14.235163 
   57800    304.30877    715.87571            0    1900.5308    12.487462    22.375751    14.057913   0.14040188    29.803977   -3.4972924    12.612127     22.30075    14.235163 
   58000    322.10806     708.0056            0    1961.9523    12.490104    22.375308    14.057381   0.40470572    29.759661    -3.550517    12.612127     22.30075    14.235163 
   58200     302.7236    655.85132            0    1834.3355    12.492778    22.374704    14.056697   0.67222474    29.699253   -3.6189773    12.612127     22.30075    14.235163 
   58400     316.0309    676.23039            0    1906.5191    12.495134    22.373902    14.055954   0.90789499    29.618979   -3.6933213    12.612127     22.30075    14.235163 
   58600    315.44721    675.85237            0    1903.8688     12.49718    22.372626    14.055261    1.1126268    29.491347   -3.7625981    12.612127     22.30075    14.235163 
   58800    303.63254    713.49552            0    1895.5181    12.498378    22.371131    14.054637    1.2324576    29.341797   -3.8250688    12.612127     22.30075    14.235163 
   59000    313.87737    817.70883            0    2039.6139      12.4978    22.369705    14.054036    1.1746169    29.199176   -3.8852284    12.612127     22.30075    14.235163 
   59200    317.73399    827.21611            0    2064.1348    12.495377     22.36896    14.053382   0.93227325    29.124604   -3.9506227    12.612127     22.30075    14.235163 
   59400    314.80057    837.96456            0    2063.4636    12.491994    22.369227    14.052606   0.59378131    29.151328   -4.0282725    12.612127     22.30075    14.235163 
   59600    314.88908    850.01138            0     2075.855    12.487807     22.37016    14.051707   0.17491011    29.244661    -4.118145    12.612127     22.30075    14.235163 
   59800    306.67418    779.32068            0    1973.1842    12.482868    22.371426    14.050825  -0.31917779    29.371318   -4.2064468    12.612127     22.30075    14.235163 
   60000    323.47358    877.47192            0    2136.7345    12.477828    22.372979    14.049948  -0.82342719    29.526723   -4.2941212    12.612127     22.30075    14.235163 
   60200     310.0307    1007.1436            0    2214.0739    12.473267    22.374317    14.048946   -1.2796724      29.6605    -4.394385    12.612127     22.30075    14.235163 
   60400     312.0192    1035.5062            0    2250.1776    12.469694    22.375075    14.047953   -1.6370982     29.73635   -4.4937091    12.612127     22.30075    14.235163 
   60600    314.93862    975.86849            0     2201.905    12.467001     22.37529    14.047149   -1.9065846    29.757837   -4.5742163    12.612127     22.30075    14.235163 
   60800    299.61621    981.63851            0    2148.0258    12.464856    22.375402    14.046275    -2.121169    29.769127     -4.66157    12.612127     22.30075    14.235163 
   61000    316.87123    971.13232            0    2204.6924    12.463006    22.375463    14.045132   -2.3062296    29.775205   -4.7760134    12.612127     22.30075    14.235163 
   61200     310.1157    905.07748            0    2112.3387    12.461372     22.37528    14.043926   -2.4696373    29.756887   -4.8966051    12.612127     22.30075    14.235163 
   61400    323.69892    817.24454            0    2077.3843    12.460293    22.375006    14.042888   -2.5775754    29.729449   -5.0004582    12.612127     22.30075    14.235163 
   61600    305.58256    638.24807            0     1827.862    12.460056    22.374751    14.042057   -2.6013075    29.703948   -5.0836057    12.612127     22.30075    14.235163 
   61800    314.25834    551.67965            0    1775.0679    12.460718     22.37432    14.041423   -2.5351292    29.660845   -5.1470505    12.612127     22.30075    14.235163 
   62000    318.87592    599.69401            0    1841.0582     12.46247    22.373579     14.04087   -2.3598548    29.586665   -5.2023231    12.612127     22.30075    14.235163 
   62200    312.71251    554.31733            0    1771.6877    12.464968    22.372401    14.040293    -2.109917    29.468828   -5.2600354    12.612127     22.30075    14.235163 
   62400    315.60159     471.5584            0    1700.1758    12.467628    22.371055    14.039695   -1.8437839    29.334161   -5.3198617    12.612127     22.30075    14.235163 
   62600    323.30712    436.29999            0    1694.9146    12.469936    22.369729    14.039189   -1.6129606    29.201573   -5.3704796    12.612127     22.30075    14.235163 
   62800    303.70676    488.02303            0    1670.3346    12.471531    22.368729    14.038905   -1.4533407    29.101503   -5.3988983    12.612127     22.30075    14.235163 
   63000    316.31372     640.4127            0    1871.8024     12.47293    22.368291    14.038815   -1.3133595    29.057644   -5.4079648    12.612127     22.30075    14.235163 
   63200    313.04535    777.17642            0    1995.8425    12.474221    22.368422    14.038729   -1.1841956    29.070785   -5.4164941    12.612127     22.30075    14.235163 
   63400    322.05413    794.95584            0    2048.6926    12.475097    22.368718    14.038596   -1.0966485      29.1004   -5.4297953    12.612127     22.30075    14.235163 
   63600    314.79604    704.93999            0    1930.4214    12.475376    22.368582    14.038394   -1.0686605    29.086779   -5.4500386    12.612127     22.30075    14.235163 
   63800    307.41195    702.42854            0    1899.1642    12.475526    22.367975    14.038116   -1.0536442    29.026088   -5.4778498    12.612127     22.30075    14.235163 
   64000    319.15184    791.46156            0    2033.8999    12.475591    22.367058    14.037969    -1.047151    28.934358   -5.4925891    12.612127     22.30075    14.235163 
   64200    309.97463    833.99095            0    2040.7029    12.475365    22.366015    14.037959   -1.0698031    28.830014   -5.4935735    12.612127     22.30075    14.235163 
   64400    304.61087    740.68556            0    1926.5168    12.475164    22.365014    14.037875   -1.0899012    28.729882   -5.5019933    12.612127     22.30075    14.235163 
   64600    309.89818    634.24581            0    1840.6602    12.475517    22.363891    14.037505   -1.0545844    28.617469   -5.5390335    12.612127     22.30075    14.235163 
   64800    313.17749     658.1697            0    1877.3502    12.476879    22.362185    14.036913  -0.91833097    28.446792   -5.5981938    12.612127     22.30075    14.235163 
   65000    316.74077    746.83543            0    1979.8876    12.479603    22.359646    14.036276  -0.64581034    28.192812   -5.6619624    12.612127     22.30075    14.235163 
   65200    322.48464    648.79672            0    1904.2094    12.483759    22.356435    14.035723  -0.22999121    27.871619   -5.7172506    12.612127     22.30075    14.235163 
   65400    301.36449    488.57428            0    1661.7675    12.488699    22.353033    14.035191   0.26416286    27.531231   -5.7704669    12.612127     22.30075    14.235163 
   65600    310.32524    350.20132            0    1558.2782    12.494039    22.350488    14.034586   0.79840394    27.276641   -5.8310388    12.612127     22.30075    14.235163 
   65800    318.63597    313.02618            0    1553.4562    12.499544    22.349182    14.034032    1.3490835    27.145938   -5.8864477    12.612127     22.30075    14.235163 
   66000    313.38482    346.49057            0    1566.4782    12.504755    22.348436    14.033574    1.8704026    27.071397   -5.9322741    12.612127     22.30075    14.235163 
   66200    315.08182    407.73375            0    1634.3277    12.508984     22.34781    14.033274    2.2935095    27.008779   -5.9622271    12.612127     22.30075    14.235163 
   66400    305.40092    418.29333            0    1607.2002    12.511685    22.347273    14.033161    2.5637576    26.955025   -5.9735701    12.612127     22.30075    14.235163 
   66600    315.54103    546.46514            0    1774.8468    12.512749    22.347454    14.033058    2.6701358     26.97312   -5.9838593    12.612127     22.30075    14.235163 
   66800    307.99819    792.87283            0    1991.8907    12.512138    22.348967    14.032766    2.6090168    27.124449   -6.0130884    12.612127     22.30075    14.235163 
   67000    313.81609    917.95587            0    2139.6224    12.509443    22.351342    14.032405    2.3394228    27.362061   -6.0492328    12.612127     22.30075    14.235163 
   67200    312.68936    916.84721            0    2134.1275     12.50498    22.354036    14.032111    1.8929662    27.631599   -6.0786289    12.612127     22.30075    14.235163 
   67400     305.2832    745.48087            0    1933.9294    12.499643      22.3569    14.031891     1.359073    27.918149   -6.1006466    12.612127     22.30075    14.235163 
   67600    307.71468    597.30454            0    1795.2187    12.494135     22.35979    14.031736   0.80795006    28.207234   -6.1161013    12.612127     22.30075    14.235163 
   67800    317.93808    459.39325            0    1697.1064    12.488732    22.362489    14.031631   0.26748835    28.477201   -6.1266766    12.612127     22.30075    14.235163 
   68000    310.55965     366.6837            0    1575.6732    12.484079     22.36545    14.031762  -0.19803465    28.773426   -6.1135735    12.612127     22.30075    14.235163 
   68200     311.2273    314.25048            0     1525.839    12.480804    22.369088    14.032081  -0.52564273    29.137396   -6.0816324    12.612127     22.30075    14.235163 
   68400    310.43612    277.66424            0    1486.1728    12.479232    22.372955    14.032516  -0.68297735    29.524329   -6.0381114    12.612127     22.30075    14.235163 
   68600    310.53255    347.94068            0    1556.8246    12.479266     22.37642     14.03294  -0.67948388    29.870934   -5.9956942    12.612127     22.30075    14.235163 
   68800     301.0851    523.93091            0    1696.0365    12.480602    22.379027    14.033136  -0.54591422    30.131751   -5.9760362    12.612127     22.30075    14.235163 
   69000     309.4806    715.17984            0    1919.9686    12.483274    22.380709    14.033044  -0.27851162    30.300005   -5.9852526    12.612127     22.30075    14.235163 
   69200    314.72277    698.00211            0    1923.1983    12.487044    22.381431    14.032868  0.098627928    30.372291    -6.002851    12.612127     22.30075    14.235163 
   69400    310.14462    713.13348            0    1920.5072     12.49118    22.381693    14.032746   0.51239824    30.398405   -6.0150455    12.612127     22.30075    14.235163 
   69600    303.59309    761.87121            0    1943.7403    12.495102     22.38249    14.032532   0.90472076    30.478148   -6.0365428    12.612127     22.30075    14.235163 
   69800    305.59117    770.34561            0    1959.9931    12.498293     22.38385    14.032044    1.2239701    30.614266   -6.0853022    12.612127     22.30075    14.235163 
   70000    315.39578    719.40015            0    1947.2163    12.501074    22.385191    14.031224    1.5022097    30.748384   -6.1673391    12.612127     22.30075    14.235163 
   70200    316.69322    688.59614            0    1921.4632    12.503518    22.386692    14.030216    1.7466613    30.898541    -6.268163    12.612127     22.30075    14.235163 
   70400     305.9447    712.35337            0    1903.3771    12.505597    22.388589    14.029126    1.9547218     31.08836   -6.3771927    12.612127     22.30075    14.235163 
   70600    321.78772    692.36566            0    1945.0653    12.507664     22.39094    14.027923    2.1614249    31.323527   -6.4975532    12.612127     22.30075    14.235163 
   70800    298.03258    567.22336            0    1727.4457    12.509322    22.394036    14.026477    2.3273144    31.633309   -6.6422358    12.612127     22.30075    14.235163 
   71000    315.44949    490.74343            0    1718.7687    12.510195    22.397971    14.024874    2.4146667    32.026891   -6.8025683    12.612127     22.30075    14.235163 
   71200    315.37624     353.8671            0    1581.6072    12.510389    22.402373     14.02326    2.4341149     32.46734   -6.9641088    12.612127     22.30075    14.235163 
   71400    323.89901    248.81004            0    1509.7288    12.510159    22.406807     14.02172    2.4110235    32.910905   -7.1181475    12.612127     22.30075    14.235163 
   71600    306.01813    270.43445            0     1461.744    12.509905    22.411082    14.020318    2.3857044    33.338565   -7.2583882    12.612127     22.30075    14.235163 
   71800    318.19761    385.48928            0    1624.2128    12.509467     22.41482    14.019078    2.3418177    33.712562    -7.382493    12.612127     22.30075    14.235163 
   72000    315.33951    535.66455            0    1763.2617    12.508996    22.417349    14.017854    2.2947006    33.965534   -7.5048729    12.612127     22.30075    14.235163 
   72200    304.29108    667.43448            0    1852.0207    12.508731    22.418146    14.016426    2.2682155    34.045277   -7.6478095    12.612127     22.30075    14.235163 
   72400    320.75566    759.75136            0    2008.4332    12.508186    22.416938    14.014779    2.2137086    33.924411   -7.8125646    12.612127     22.30075    14.235163 
   72600     318.8771     653.6571            0    1895.0259    12.507292    22.414233    14.013285    2.1242512    33.653821   -7.9619755    12.612127     22.30075    14.235163 
   72800    299.53871    514.34444            0      1680.43    12.506593    22.411537    14.012136     2.054352    33.384155     -8.07693    12.612127     22.30075    14.235163 
   73000    319.63959      410.699            0    1655.0361    12.506166    22.409731    14.011248     2.011589    33.203441   -8.1657828    12.612127     22.30075    14.235163 
   73200    300.20226     305.6903            0    1474.3591    12.505846    22.408804    14.010511    1.9796217    33.110741   -8.2395095    12.612127     22.30075    14.235163 
   73400    319.04608    246.24121            0    1488.2678     12.50544    22.408596     14.00985     1.938944    33.089879   -8.3056513    12.612127     22.30075    14.235163 
   73600    302.60819    331.40983            0    1509.4447    12.504959    22.409136    14.009219    1.8908096     33.14395   -8.3687352    12.612127     22.30075    14.235163 
   73800    313.06828    501.46252            0    1720.2179    12.504298    22.410453    14.008632    1.8246906    33.275686   -8.4275352    12.612127     22.30075    14.235163 
   74000    322.54365    601.14378            0    1856.7862    12.503365    22.412556    14.008116    1.7313851    33.486081   -8.4791211    12.612127     22.30075    14.235163 
   74200    307.01094    717.75285            0    1912.9274    12.502607    22.415966    14.007559    1.6555266    33.827153   -8.5347957    12.612127     22.30075    14.235163 
   74400    316.44399    684.62129            0    1916.5181    12.502103    22.421103    14.006773     1.605154    34.341133   -8.6135192    12.612127     22.30075    14.235163 
   74600    311.36738    711.25798            0    1923.3919    12.501464     22.42744    14.005729    1.5412175    34.975043   -8.7178726    12.612127     22.30075    14.235163 
   74800    313.18413    628.79486            0    1848.0012    12.501429    22.433952    14.004678    1.5376995    35.626599   -8.8230647    12.612127     22.30075    14.235163 
   75000     306.2388    367.31545            0    1559.4841     12.50256    22.439661    14.003898    1.6508299    36.197686   -8.9011036    12.612127     22.30075    14.235163 
   75200    306.18794    170.10904            0    1362.0797    12.504615    22.444421    14.003327    1.8564039    36.673899   -8.9582229    12.612127     22.30075    14.235163 
   75400    312.52485     178.2766            0    1394.9165    12.507636    22.448374    14.002655    2.1586176    37.069387    -9.025497    12.612127     22.30075    14.235163 
   75600    320.51032    338.78944            0    1586.5162     12.51136    22.451155    14.001742    2.5312453    37.347589   -9.1168043    12.612127     22.30075    14.235163 
   75800     317.5668    482.05807            0    1718.3259    12.515637    22.452628    14.000728    2.9590938    37.494885   -9.2182149    12.612127     22.30075    14.235163 
   76000    303.59403    664.81549            0    1846.6882    12.520605     22.45276    13.999721    3.4560842    37.508136   -9.3189685    12.612127     22.30075    14.235163 
   76200    319.31711    872.06781            0    2115.1495    12.525901    22.450983    13.998675    3.9859053     37.33035   -9.4236582    12.612127     22.30075    14.235163 
   76400    307.32077    866.53032            0     2062.911    12.530767    22.447802     13.99748    4.4727227     37.01216   -9.5431579    12.612127     22.30075    14.235163 
   76600    316.45197    571.62609            0     1803.554    12.534633    22.444624    13.996318    4.8594539    36.694223   -9.6594556    12.612127     22.30075    14.235163 
   76800    325.96261    305.15124            0    1574.1034    12.537067    22.441641    13.995236    5.1030242    36.395789   -9.7676163    12.612127     22.30075    14.235163 
   77000    315.52368    117.99618            0    1346.3103    12.538369    22.438966    13.994191    5.2332075    36.128162   -9.8722222    12.612127     22.30075    14.235163 
   77200    314.99288    154.85525            0     1381.103    12.539153    22.436938    13.993101    5.3116754    35.925249   -9.9812232    12.612127     22.30075    14.235163 
   77400    318.91512    357.63211            0    1599.1489    12.539744    22.435875    13.991941    5.3707648    35.818972   -10.097263    12.612127     22.30075    14.235163 
   77600    311.47243    617.06997            0    1829.6128    12.539866    22.436155    13.990754    5.3829912    35.846968   -10.216002    12.612127     22.30075    14.235163 
   77800    318.74201    837.41854            0    2078.2614    12.539263    22.437814    13.989764    5.3226591    36.012915    -10.31508    12.612127     22.30075    14.235163 
   78000    310.28997    974.05382            0    2181.9934    12.538062    22.440671    13.989046    5.2025104    36.298724   -10.386969    12.612127     22.30075    14.235163 
   78200    314.00401    899.78017            0    2122.1783    12.537237     22.44456    13.988571    5.1199608    36.687811   -10.434395    12.612127     22.30075    14.235163 
   78400    304.60166     700.9925            0    1886.7879    12.537759    22.448933    13.988369    5.1722445    37.125274   -10.454648    12.612127     22.30075    14.235163 
   78600    325.54765    359.10579            0    1626.4426     12.54012    22.453605    13.988452    5.4083934    37.592664   -10.446302    12.612127     22.30075    14.235163 
   78800    304.90265    206.76448            0    1393.7316    12.543825    22.458564    13.988539    5.7791212    38.088775   -10.437625    12.612127     22.30075    14.235163 
   79000    307.73841    225.41285            0    1423.4194    12.547989    22.463406    13.988452    6.1956856    38.573173   -10.446319    12.612127     22.30075    14.235163 
   79200    315.92062    291.20683            0    1521.0662    12.551707     22.46746    13.988297    6.5675783    38.978736   -10.461817    12.612127     22.30075    14.235163 
   79400    307.59658    486.48439            0    1683.9388    12.554685    22.470235    13.988261     6.865575    39.256366   -10.465463    12.612127     22.30075    14.235163 
   79600    314.04341    705.73506            0    1928.2866    12.557082    22.471506    13.988382    7.1053233    39.383566   -10.453381    12.612127     22.30075    14.235163 
   79800    305.61648     986.2895            0    2176.0355       12.559    22.471395    13.988613    7.2972389    39.372386    -10.43022    12.612127     22.30075    14.235163 
   80000    326.73991    1115.8865            0    2387.8647    12.560714    22.470181    13.988916    7.4686925    39.251023   -10.399883    12.612127     22.30075    14.235163 
   80200    307.57519    958.60987            0     2155.981     12.56271    22.468818    13.989414    7.6684264    39.114649   -10.350153    12.612127     22.30075    14.235163 
   80400     311.7147    682.50927            0    1895.9953    12.565482    22.467908    13.990143    7.9457345    39.023534   -10.277187    12.612127     22.30075    14.235163 
   80600    319.75702     507.0061            0    1751.8003    12.569855     22.46769    13.990888     8.383197    39.001767    -10.20269    12.612127     22.30075    14.235163 
   80800    314.65562    497.58011            0    1722.5149    12.575859    22.468185    13.991617      8.98385    39.051241   -10.129704    12.612127     22.30075    14.235163 
   81000     311.5342    409.11869            0     1621.902    12.582808    22.469378    13.992344    9.6790664    39.170641   -10.057025    12.612127     22.30075    14.235163 
   81200    323.33664    357.73402            0    1616.4635    12.589942    22.471114    13.992953     10.39277    39.344282   -9.9960615    12.612127     22.30075    14.235163 
   81400    313.17063    565.11843            0    1784.2723    12.596176    22.472913    13.993398    11.016351    39.524294   -9.9515791    12.612127     22.30075    14.235163 
   81600     306.7228    727.45292            0    1921.5057    12.599771    22.474295     13.99382    11.376084    39.662547   -9.9093696    12.612127     22.30075    14.235163 
   81800    313.91399    761.72227            0      1983.77    12.600567    22.475346    13.994224     11.45567    39.767707   -9.8688762    12.612127     22.30075    14.235163 
   82000    307.06465    712.26717            0    1907.6508      12.5999    22.476666    13.994593    11.388934    39.899778   -9.8319688    12.612127     22.30075    14.235163 
   82200     320.6976    837.02654            0    2085.4824    12.598632    22.478866    13.994935    11.262104    40.119801   -9.7978019    12.612127     22.30075    14.235163 
   82400    304.97708    911.36536            0    2098.6222    12.596802    22.481808    13.995009    11.079041    40.414116   -9.7904191    12.612127     22.30075    14.235163 
   82600    319.36116    857.03788            0     2100.291    12.594055    22.484165    13.994517    10.804152    40.649925   -9.8396257    12.612127     22.30075    14.235163 
   82800    305.88415    654.11447            0    1844.9025    12.590449    22.484904    13.993529    10.443487    40.723894   -9.9383849    12.612127     22.30075    14.235163 
   83000    323.05134    575.80785            0    1833.4267    12.586788    22.484674    13.992293    10.077222    40.700848   -10.062101    12.612127     22.30075    14.235163 
   83200    304.03221    605.03411            0    1788.6126    12.582769    22.484236    13.991003    9.6751099    40.657042   -10.191169    12.612127     22.30075    14.235163 
   83400    304.14139    551.09671            0    1735.1003    12.577781    22.483486    13.989715    9.1761585    40.582058   -10.319945    12.612127     22.30075    14.235163 
   83600    319.99188    511.79677            0    1757.5053    12.572774    22.482954    13.988585    8.6752428    40.528797   -10.433058    12.612127     22.30075    14.235163 
   83800    309.51222    557.10032            0    1762.0122    12.568816    22.482828    13.987608    8.2792836    40.516182   -10.530768    12.612127     22.30075    14.235163 
   84000    313.09072    600.61922            0    1819.4619    12.566036    22.482726    13.986651    8.0010991    40.505995   -10.626482    12.612127     22.30075    14.235163 
   84200    327.75967    645.81677            0    1921.7648    12.563954     22.48273    13.985751    7.7927993    40.506416   -10.716611    12.612127     22.30075    14.235163 
   84400    304.71228    620.62121            0    1806.8472    12.563149    22.482774    13.985082    7.7122778    40.510835   -10.783497    12.612127     22.30075    14.235163 
   84600    312.83711    596.66012            0    1814.5156    12.563539    22.483132    13.984638    7.7512656    40.546654   -10.827873    12.612127     22.30075    14.235163 
   84800    317.57561    671.19371            0    1907.4959    12.564352    22.484046    13.984358    7.8326649      40.6381    -10.85594    12.612127     22.30075    14.235163 
   85000    302.26695    818.30852            0     1995.015    12.565507    22.486017    13.984143    7.9482175    40.835276   -10.877442    12.612127     22.30075    14.235163 
   85200    312.34487    904.36238            0    2120.3016    12.567758    22.489284    13.983983    8.1734262    41.162112   -10.893453    12.612127     22.30075    14.235163 
   85400    311.49453     948.9323            0    2161.5612     12.57121      22.4933    13.984113    8.5187426    41.563894   -10.880421    12.612127     22.30075    14.235163 
   85600    315.19108    803.02362            0    2030.0429    12.574682    22.497524     13.98455    8.8660634    41.986395   -10.836755    12.612127     22.30075    14.235163 
   85800    310.42472    658.25552            0    1866.7197    12.577403      22.5014    13.985094    9.1383422    42.374202     -10.7823    12.612127     22.30075    14.235163 
   86000    317.32238    661.16003            0    1896.4763    12.579038    22.505079    13.985755    9.3018988    42.742219   -10.716124    12.612127     22.30075    14.235163 
   86200     311.7548    791.16736            0    2004.8095    12.579088    22.508172    13.986537     9.306856     43.05169     -10.6379    12.612127     22.30075    14.235163 
   86400    304.58453     948.1661            0    2133.8947    12.577612    22.509866    13.987231    9.1592411    43.221109   -10.568514    12.612127     22.30075    14.235163 
   86600    322.02278    1051.2459            0    2304.8606    12.575739     22.51028    13.987793    8.9718565    43.262552   -10.512297    12.612127     22.30075    14.235163 
   86800    306.61089    912.13884            0     2105.756    12.574249    22.509551     13.98827    8.8227541    43.189578   -10.464541    12.612127     22.30075    14.235163 
   87000    315.92697    708.41528            0    1938.2994    12.573931    22.508219    13.988475    8.7909144    43.056351   -10.444058    12.612127     22.30075    14.235163 
   87200    304.80052    548.97195            0    1735.5415    12.575344    22.506831    13.988335    8.9322731    42.917494   -10.458067    12.612127     22.30075    14.235163 
   87400    325.45684      354.244            0    1621.2273    12.577993    22.505647    13.988173    9.1973119    42.799015   -10.474273    12.612127     22.30075    14.235163 
   87600    310.74225    277.42466            0    1487.1249    12.581263    22.504637    13.988085    9.5244476    42.698007   -10.483039    12.612127     22.30075    14.235163 
   87800     325.6585    271.46541            0    1539.2338    12.585471    22.503869     13.98806    9.9454347    42.621186    -10.48558    12.612127     22.30075    14.235163 
   88000    298.47528    397.99341            0    1559.9391    12.590953    22.503505    13.988021    10.493842    42.584819     -10.4895    12.612127     22.30075    14.235163 
   88200    316.64057    720.74931            0    1953.4114    12.596926    22.503272    13.987975    11.091446    42.561486   -10.494031    12.612127     22.30075    14.235163 
   88400     311.4274    851.10519            0    2063.4727     12.60227    22.503177    13.987834    11.626038     42.55191   -10.508221    12.612127     22.30075    14.235163 
   88600    316.44881    844.65047            0    2076.5661     12.60611    22.503273    13.987565    12.010202    42.561588    -10.53509    12.612127     22.30075    14.235163 
   88800    314.46702    783.57766            0    2007.7782    12.608236    22.504052     13.98722    12.222917    42.639479    -10.56962    12.612127     22.30075    14.235163 
   89000    311.87336    613.95725            0    1828.0609    12.609671    22.506333    13.986932    12.366469    42.867674   -10.598449    12.612127     22.30075    14.235163 
   89200    317.08012    379.25307            0    1613.6263    12.611254    22.510225    13.986711    12.524847    43.257033    -10.62055    12.612127     22.30075    14.235163 
   89400    317.18806    187.63537            0    1422.4288     12.61312    22.514972     13.98656    12.711526    43.731925   -10.635601    12.612127     22.30075    14.235163 
   89600    310.94277    265.03213            0     1475.513    12.614857    22.519963    13.986274    12.885288    44.231287   -10.664242    12.612127     22.30075    14.235163 
   89800    326.58229    400.17027            0    1671.5349    12.615985    22.524888    13.985751     12.99816    44.723931   -10.716556    12.612127     22.30075    14.235163 
   90000    306.28034    449.48135            0    1641.8117    12.616624    22.529307    13.985079     13.06204    45.166039   -10.783838    12.612127     22.30075    14.235163 
   90200    321.23718    587.33374            0    1837.8902    12.617165    22.533247    13.984454    13.116205    45.560212   -10.846361    12.612127     22.30075    14.235163 
   90400    304.18536     799.0922            0    1983.2669    12.617413    22.536451      13.9841    13.140947    45.880768   -10.881733    12.612127     22.30075    14.235163 
   90600     314.0671    822.80495            0    2045.4487    12.617513     22.53842    13.983969    13.151008    46.077736   -10.894831    12.612127     22.30075    14.235163 
   90800    313.56069    828.35105            0    2049.0234    12.618234     22.53954    13.983783    13.223092    46.189738   -10.913397    12.612127     22.30075    14.235163 
   91000    312.80947    935.35773            0    2153.1056     12.62025    22.539815    13.983268    13.424774    46.217349   -10.964992    12.612127     22.30075    14.235163 
   91200     313.3814    872.53541            0    2092.5097    12.623273    22.538734    13.982514    13.727194    46.109147   -11.040415    12.612127     22.30075    14.235163 
   91400    310.89984     858.5644            0    2068.8782    12.626783    22.537081    13.981807    14.078326    45.943777   -11.111124    12.612127     22.30075    14.235163 
   91600    330.41769     815.1277            0    2101.4232    12.629663    22.535427    13.981286    14.366504    45.778267   -11.163281    12.612127     22.30075    14.235163 
   91800    313.79801    628.85433            0    1850.4505    12.630991    22.533229    13.980821    14.499329    45.558466   -11.209808    12.612127     22.30075    14.235163 
   92000    323.26136    460.18611            0    1718.6225    12.631509    22.530492    13.980324    14.551169    45.284616   -11.259496    12.612127     22.30075    14.235163 
   92200    314.12181    276.03601            0    1498.8927    12.632766    22.528182    13.979964    14.676944    45.053473   -11.295521    12.612127     22.30075    14.235163 
   92400    302.22927    293.56195            0    1470.1217     12.63476    22.527012    13.979906     14.87645    44.936478   -11.301271    12.612127     22.30075    14.235163 
   92600    315.76619    312.44173            0    1541.6999    12.636275    22.526969    13.980076    15.027929     44.93216   -11.284255    12.612127     22.30075    14.235163 
   92800    308.55508     387.1332            0     1588.319    12.636743    22.527705    13.980414    15.074787    45.005819   -11.250524    12.612127     22.30075    14.235163 
   93000    318.99956    744.95828            0    1986.8038    12.636417    22.529066    13.980775    15.042209    45.141923   -11.214407    12.612127     22.30075    14.235163 
   93200    308.71311    847.92427            0    2049.7252    12.636347    22.530828    13.981048    15.035178    45.318184   -11.187067    12.612127     22.30075    14.235163 
   93400    309.75809    598.54195            0     1804.411    12.638208    22.533153     13.98136    15.221393    45.550842   -11.155844    12.612127     22.30075    14.235163 
   93600    316.18087    412.78167            0    1643.6542    12.641999    22.535309    13.981708     15.60063     45.76648   -11.120986    12.612127     22.30075    14.235163 
   93800    307.40462    456.23985            0     1652.947    12.646696    22.536274     13.98204    16.070509    45.863041   -11.087855    12.612127     22.30075    14.235163 
   94000    306.48182    377.91176            0    1571.0265    12.651374    22.535306    13.982337    16.538523    45.766168   -11.058123    12.612127     22.30075    14.235163 
   94200     319.1077    405.09266            0    1647.3591    12.655561    22.532465    13.982447     16.95737    45.481993   -11.047098    12.612127     22.30075    14.235163 
   94400    304.27018    561.65676            0    1746.1617    12.659281    22.528618    13.982381    17.329502    45.097121   -11.053674    12.612127     22.30075    14.235163 
   94600    315.91951    650.99051            0    1880.8456     12.66232    22.524996    13.982279    17.633588    44.734747   -11.063947    12.612127     22.30075    14.235163 
   94800    310.99105    588.64393            0    1799.3128    12.664385    22.522431    13.982173    17.840104    44.478127   -11.074463    12.612127     22.30075    14.235163 
   95000    321.08021    478.81605            0    1728.7614    12.665305     22.52123    13.982093    17.932225     44.35805    -11.08255    12.612127     22.30075    14.235163 
   95200    298.58078    471.59934            0    1633.9558    12.665045    22.520794    13.982234     17.90617    44.314353    -11.06838    12.612127     22.30075    14.235163 
   95400    310.59452    368.26033            0    1577.3855    12.664201    22.520561    13.982532    17.821783    44.291044   -11.038574    12.612127     22.30075    14.235163 
   95600    301.81669    318.19681            0    1493.1504    12.663047    22.520694    13.982849     17.70632    44.304413    -11.00686    12.612127     22.30075    14.235163 
   95800    323.26085    329.42827            0    1587.8627    12.661234    22.521671    13.983189    17.524912     44.40218    -10.97291    12.612127     22.30075    14.235163 
   96000    303.56228    380.91788            0     1562.667    12.659122    22.522845    13.983412    17.313589    44.519624   -10.950565    12.612127     22.30075    14.235163 
   96200    312.00657    794.37828            0    2009.0005    12.657331    22.523598    13.983409     17.13443    44.594909    -10.95087    12.612127     22.30075    14.235163 
   96400     302.5521     1086.754            0    2264.5705    12.656428    22.524028    13.983178    17.044076    44.637919   -10.973962    12.612127     22.30075    14.235163 
   96600    323.20399    956.81041            0    2215.0235    12.657418    22.523522     13.98279    17.143176    44.587313    -11.01283    12.612127     22.30075    14.235163 
   96800    315.98412     568.2865            0     1798.393    12.660879    22.521639    13.982355    17.489402    44.398908   -11.056319    12.612127     22.30075    14.235163 
   97000    311.89867    418.57058            0    1632.7727    12.665932    22.518792    13.982056    17.994956    44.114143   -11.086167    12.612127     22.30075    14.235163 
   97200     325.1067    359.83377            0     1625.454    12.671326    22.514848    13.981836    18.534529    43.719529   -11.108269    12.612127     22.30075    14.235163 
   97400    313.10151     272.5988            0    1491.4835    12.676463    22.510197    13.981482    19.048482    43.254234   -11.143599    12.612127     22.30075    14.235163 
   97600    304.34695    309.28798            0    1494.0917    12.681264    22.505788     13.98078    19.528768    42.813197   -11.213878    12.612127     22.30075    14.235163 
   97800    318.11941    556.39395            0    1794.8131     12.68549    22.501812    13.979599    19.951542    42.415441   -11.332021    12.612127     22.30075    14.235163 
   98000    312.34639    724.47666            0    1940.4218    12.688512    22.498715    13.977935    20.253828    42.105558   -11.498473    12.612127     22.30075    14.235163 
   98200    324.25616    805.48647            0    2067.7956     12.68939    22.497441    13.976109    20.341677     41.97811   -11.681126    12.612127     22.30075    14.235163 
   98400    310.75978    787.03073            0    1996.7993    12.687221     22.49824    13.974146    20.124713    42.058051   -11.877553    12.612127     22.30075    14.235163 
   98600    314.24283    660.61257            0    1883.9404    12.682899    22.500493     13.97202    19.692363    42.283451   -12.090255    12.612127     22.30075    14.235163 
   98800    310.84735    539.33597            0    1749.4454    12.678194    22.503807    13.969718    19.221659    42.615019   -12.320496    12.612127     22.30075    14.235163 
   99000     307.5131    515.20086            0    1712.3303    12.673738    22.507709     13.96728    18.775811    43.005331   -12.564398    12.612127     22.30075    14.235163 
   99200    318.37023    556.53216            0    1795.9277    12.669135    22.511221    13.964754    18.315376    43.356694   -12.817178    12.612127     22.30075    14.235163 
   99400    302.03452    643.12399            0    1818.9256      12.6644    22.513495    13.962005    17.841608    43.584204   -13.092163    12.612127     22.30075    14.235163 
   99600    315.82408    649.02844            0     1878.512    12.660271    22.513739    13.958745    17.428628     43.60864   -13.418295    12.612127     22.30075    14.235163 
   99800    298.82057     565.7826            0    1729.0725    12.657565    22.512046    13.955158    17.157886    43.439206   -13.777165    12.612127     22.30075    14.235163 
  100000    320.12754     450.1307            0    1696.3673    12.656684    22.508976    13.951607    17.069744    43.132111   -14.132419    12.612127     22.30075    14.235163 
Loop time of 8.95171 on 1 procs for 100000 steps with 1307 atoms

Performance: 96.518 ns/day, 0.249 hours/ns, 11171.052 timesteps/s
99.2% CPU use with 1 MPI tasks x no OpenMP threads

MPI task timing breakdown:
Section |  min time  |  avg time  |  max time  |%varavg| %total
---------------------------------------------------------------
Pair    | 2.2575     | 2.2575     | 2.2575     |   0.0 | 25.22
Bond    | 0.0055962  | 0.0055962  | 0.0055962  |   0.0 |  0.06
Neigh   | 3.723      | 3.723      | 3.723      |   0.0 | 41.59
Comm    | 0.79633    | 0.79633    | 0.79633    |   0.0 |  8.90
Output  | 0.45867    | 0.45867    | 0.45867    |   0.0 |  5.12
Modify  | 1.2066     | 1.2066     | 1.2066     |   0.0 | 13.48
Other   |            | 0.504      |            |       |  5.63

Nlocal:    1307 ave 1307 max 1307 min
Histogram: 1 0 0 0 0 0 0 0 0 0
Nghost:    2725 ave 2725 max 2725 min
Histogram: 1 0 0 0 0 0 0 0 0 0
Neighs:    656 ave 656 max 656 min
Histogram: 1 0 0 0 0 0 0 0 0 0

Total # of neighbors = 656
Ave neighs/atom = 0.501913
Ave special neighs/atom = 0
Neighbor list builds = 1083
Dangerous builds = 0
undump             1
unfix              2
write_data         data_overlap.data

# reset force field parameters
#kspace_style       pppm/disp 1.0e-6
neigh_modify       delay 0 every 1 check yes
neigh_modify       exclude molecule MOF
neigh_modify       exclude molecule GUEST
include "MgMOF74-Pressure50000.in.settings"
# UFF parameters for all atoms not defined by force field
pair_style         hybrid lj/cut 12.8 buck 12.8
pair_modify        mix arithmetic shift yes
pair_coeff         7 7 lj/cut 0.111 2.691
pair_coeff         2 2 lj/cut 0.105 3.431
pair_coeff         3 3 lj/cut 0.105 3.431
pair_coeff         4 4 lj/cut 0.105 3.431
pair_coeff         5 5 lj/cut 0.105 3.431
pair_coeff         6 6 lj/cut 0.044 2.571
pair_coeff         8 8 lj/cut 0.060 3.118
pair_coeff         9 9 lj/cut 0.060 3.118
pair_coeff         10 10 lj/cut 0.060 3.118
pair_coeff         1 1 lj/cut 0.294 3.730
# Lennard-Jones parameters from force field
pair_coeff         1 6 lj/cut 0.114 3.15
# Buckingham parameters from force field
pair_coeff         1 7 buck 503735.46 0.203 869.75957
pair_coeff         1 8 buck 36618.413 0.337 943.43844
pair_coeff         1 9 buck 40336.705 0.306 943.43844
pair_coeff         1 10 buck 20010.424 0.358 943.43844
pair_coeff         1 2 buck 151480.54 0.250 1627.7890
pair_coeff         1 3 buck 70571.228 0.305 1627.7890
pair_coeff         1 4 buck 460219.42 0.229 1627.7890
pair_coeff         1 5 buck 5085.8640 0.432 1627.7890

# specify new quantities to output
thermo_style       custom step temp epair evdwl ecoul elong etail emol pe ke etotal c_comT[1] c_comT[2] c_comT[3] c_comG[1] c_comG[2] c_comG[3] c_comM[1] c_comM[2] c_comM[3]

# equilibration
dump               2 all custom 500 dump-2.lammpstrj element x y z
dump_modify        2 element 1 2 3 4 5 6 7 8 9 10
run                10000000
Neighbor list info ...
  3 neighbor list requests
  update every 1 steps, delay 0 steps, check yes
  max neighbors/atom: 2000, page size: 100000
  master list distance cutoff = 14.8
  ghost atom cutoff = 14.8
  binsize = 7.4 -> bins = 4 7 4
Memory usage per processor = 7.08538 Mbytes
Step Temp E_pair E_vdwl E_coul E_long E_tail E_mol PotEng KinEng TotEng comT[1] comT[2] comT[3] comG[1] comG[2] comG[3] comM[1] comM[2] comM[3] 
  100000    320.12754    71.298087    71.298087            0            0            0            0    71.298087    1246.2366    1317.5347    12.656684    22.508976    13.951607    17.069744    43.132111   -14.132419    12.612127     22.30075    14.235163 
  100200    309.96324   -7.2129085   -7.2129085            0            0            0            0   -7.2129085    1206.6677    1199.4548    12.656569    22.504294    13.948141    17.058265    42.663695   -14.479161    12.612127     22.30075    14.235163 
  100400    309.78139    262.15963    262.15963            0            0            0            0    262.15963    1205.9597    1468.1193    12.656446    22.499101    13.944956    17.045956    42.144228   -14.797817    12.612127     22.30075    14.235163 
  100600    307.42422    2.5842538    2.5842538            0            0            0            0    2.5842538    1196.7834    1199.3677    12.659102    22.495112    13.943045    17.311597    41.745151   -14.988924    12.612127     22.30075    14.235163 
  100800    318.43114    211.93755    211.93755            0            0            0            0    211.93755    1239.6327    1451.5702    12.662907    22.491835    13.941538    17.692291    41.417293   -15.139768    12.612127     22.30075    14.235163 
  101000    313.56307   -3.3579066   -3.3579066            0            0            0            0   -3.3579066    1220.6816    1217.3237    12.667469    22.490802    13.941383    18.148666    41.313914   -15.155253    12.612127     22.30075    14.235163 
  101200    311.82533   -17.545618   -17.545618            0            0            0            0   -17.545618    1213.9167     1196.371    12.672443    22.490307    13.941707    18.646259    41.264441   -15.122774    12.612127     22.30075    14.235163 
  101400    313.10799     65.63728     65.63728            0            0            0            0     65.63728      1218.91    1284.5472    12.677799    22.489801    13.942064     19.18212    41.213755   -15.087083    12.612127     22.30075    14.235163 
  101600    315.83973    212.19354    212.19354            0            0            0            0    212.19354    1229.5445     1441.738    12.683101    22.491258    13.941982     19.71257     41.35959   -15.095315    12.612127     22.30075    14.235163 
  101800    297.77291    71.465458    71.465458            0            0            0            0    71.465458    1159.2114    1230.6769    12.685501    22.494272    13.940739     19.95268    41.661053   -15.219665    12.612127     22.30075    14.235163 
  102000    324.14452    13.756196    13.756196            0            0            0            0    13.756196    1261.8745    1275.6307    12.684936    22.497868     13.93927    19.896138    42.020865   -15.366628    12.612127     22.30075    14.235163 
  102200    318.08717    44.027984    44.027984            0            0            0            0    44.027984    1238.2936    1282.3216    12.684578    22.501277    13.936767      19.8603    42.361926   -15.616986    12.612127     22.30075    14.235163 
  102400     307.1449    54.057384    54.057384            0            0            0            0    54.057384     1195.696    1249.7534    12.684284    22.502713    13.933235    19.830926    42.505571   -15.970397    12.612127     22.30075    14.235163 
  102600    315.88568    30.096424    30.096424            0            0            0            0    30.096424    1229.7233    1259.8198    12.682434    22.502822    13.929275    19.645852    42.516403   -16.366511    12.612127     22.30075    14.235163 
  102800    310.78638    118.82842    118.82842            0            0            0            0    118.82842    1209.8721    1328.7005    12.680675    22.502531    13.925225    19.469819    42.487287   -16.771677    12.612127     22.30075    14.235163 
  103000    330.23339     34.49058     34.49058            0            0            0            0     34.49058    1285.5781    1320.0687    12.680516    22.503133    13.922053    19.453973    42.547604    -17.08905    12.612127     22.30075    14.235163 
  103200    303.61735    79.014932    79.014932            0            0            0            0    79.014932    1181.9635    1260.9784    12.678872    22.503615     13.91959     19.28945    42.595788   -17.335483    12.612127     22.30075    14.235163 
  103400    322.00842    57.973021    57.973021            0            0            0            0    57.973021    1253.5588    1311.5318    12.676547     22.50204    13.917912     19.05691    42.438238   -17.503313    12.612127     22.30075    14.235163 
  103600    307.96294    115.88897    115.88897            0            0            0            0    115.88897    1198.8806    1314.7696    12.675089    22.500741    13.916616     18.91099     42.30821   -17.632943    12.612127     22.30075    14.235163 
  103800    315.28736  -0.97247978  -0.97247978            0            0            0            0  -0.97247978    1227.3941    1226.4216    12.674444    22.501631    13.914789    18.846521    42.397274    -17.81571    12.612127     22.30075    14.235163 
  104000    315.21788    145.69698    145.69698            0            0            0            0    145.69698    1227.1236    1372.8206    12.673868    22.502153    13.913014    18.788871    42.449509   -17.993287    12.612127     22.30075    14.235163 
  104200    307.77753     28.77271     28.77271            0            0            0            0     28.77271    1198.1588    1226.9315    12.671533    22.502031    13.911887    18.555254     42.43734   -18.106034    12.612127     22.30075    14.235163 
  104400    332.47728    22.301271    22.301271            0            0            0            0    22.301271    1294.3134    1316.6147    12.667702    22.502055    13.910934    18.171944    42.439752   -18.201382    12.612127     22.30075    14.235163 
  104600    306.20342   -13.817487   -13.817487            0            0            0            0   -13.817487    1192.0309    1178.2134    12.663191      22.5018    13.909948    17.720716    42.414218   -18.300088    12.612127     22.30075    14.235163 
  104800    308.84031    97.857632    97.857632            0            0            0            0    97.857632    1202.2962    1300.1538    12.658637    22.500998    13.908766    17.265087    42.333946   -18.418316    12.612127     22.30075    14.235163 
  105000    315.80713    146.72226    146.72226            0            0            0            0    146.72226    1229.4175    1376.1398    12.654608    22.499036    13.906814    16.862037    42.137667   -18.613549    12.612127     22.30075    14.235163 
  105200    318.68286    136.41308    136.41308            0            0            0            0    136.41308    1240.6126    1377.0257    12.652129    22.497407    13.904459    16.613997    41.974709   -18.849167    12.612127     22.30075    14.235163 
  105400    314.34614    26.841286    26.841286            0            0            0            0    26.841286      1223.73    1250.5713    12.651675    22.494301    13.902503    16.568617    41.663972     -19.0449    12.612127     22.30075    14.235163 
  105600    306.26055    117.03058    117.03058            0            0            0            0    117.03058    1192.2533    1309.2839    12.652129    22.491313    13.901425    16.614026    41.365071   -19.152746    12.612127     22.30075    14.235163 
  105800    315.30055   -20.878741   -20.878741            0            0            0            0   -20.878741    1227.4455    1206.5667    12.654785    22.488767    13.900821    16.879747    41.110353   -19.213105    12.612127     22.30075    14.235163 
  106000    311.25883    43.272728    43.272728            0            0            0            0    43.272728    1211.7113     1254.984    12.657874    22.486478    13.900268    17.188764    40.881365   -19.268424    12.612127     22.30075    14.235163 
  106200    310.66602    294.65797    294.65797            0            0            0            0    294.65797    1209.4035    1504.0615    12.662354    22.485681    13.899286     17.63699     40.80165   -19.366676    12.612127     22.30075    14.235163 
  106400    316.73409    66.532231    66.532231            0            0            0            0    66.532231    1233.0262    1299.5584    12.667633    22.487865    13.898815    18.165119    41.020119     -19.4138    12.612127     22.30075    14.235163 
  106600    297.32936     47.40568     47.40568            0            0            0            0     47.40568    1157.4847    1204.8904      12.6736    22.491107    13.898133     18.76208    41.344428   -19.482091    12.612127     22.30075    14.235163 
  106800    323.47828    46.815174    46.815174            0            0            0            0    46.815174    1259.2809     1306.096    12.678302    22.494822    13.896522    19.232451    41.716092   -19.643224    12.612127     22.30075    14.235163 
  107000    306.09605    38.090899    38.090899            0            0            0            0    38.090899    1191.6129    1229.7038    12.681946    22.497464    13.894482    19.596978    41.980463   -19.847288    12.612127     22.30075    14.235163 
  107200    303.81105    54.058908    54.058908            0            0            0            0    54.058908    1182.7176    1236.7765    12.685344    22.499285    13.892496    19.936889    42.162601   -20.046008    12.612127     22.30075    14.235163 
  107400    304.61048    258.66595    258.66595            0            0            0            0    258.66595    1185.8297    1444.4957    12.687225    22.501492     13.89117    20.125108    42.383376   -20.178663    12.612127     22.30075    14.235163 
  107600     321.0956    106.85896    106.85896            0            0            0            0    106.85896    1250.0052    1356.8642    12.686551    22.501276    13.891076    20.057656    42.361755   -20.187994    12.612127     22.30075    14.235163 
  107800    315.94822    106.77953    106.77953            0            0            0            0    106.77953    1229.9668    1336.7463    12.684355    22.501122    13.890785    19.838031    42.346343   -20.217152    12.612127     22.30075    14.235163 
  108000    316.73748     8.563169     8.563169            0            0            0            0     8.563169    1233.0393    1241.6025    12.679802    22.500047    13.889888     19.38245    42.238834   -20.306874    12.612127     22.30075    14.235163 
  108200    318.96332    92.068301    92.068301            0            0            0            0    92.068301    1241.7044    1333.7727     12.67444    22.498894    13.888333    18.846061    42.123481   -20.462499    12.612127     22.30075    14.235163 
  108400    317.53175    170.95436    170.95436            0            0            0            0    170.95436    1236.1314    1407.0858    12.671144    22.498978    13.887452     18.51635    42.131893   -20.550559    12.612127     22.30075    14.235163 
  108600    331.09828    6.4976235    6.4976235            0            0            0            0    6.4976235     1288.945    1295.4427    12.671139    22.500168     13.88789    18.515879    42.250917   -20.506802    12.612127     22.30075    14.235163 
  108800    308.22147   -24.504829   -24.504829            0            0            0            0   -24.504829     1199.887    1175.3822    12.670316    22.501729    13.888713    18.433493    42.407084    -20.42444    12.612127     22.30075    14.235163 
  109000    315.62108    49.108747    49.108747            0            0            0            0    49.108747    1228.6933     1277.802    12.669474    22.503208    13.889536     18.34927    42.555071   -20.342059    12.612127     22.30075    14.235163 
  109200    310.89029    139.04979    139.04979            0            0            0            0    139.04979    1210.2766    1349.3264    12.668445    22.504864    13.890416    18.246354     42.72073   -20.254106    12.612127     22.30075    14.235163 
  109400    313.77489    274.58756    274.58756            0            0            0            0    274.58756    1221.5062    1496.0937    12.664713    22.505651    13.890579    17.872984    42.799465   -20.237712    12.612127     22.30075    14.235163 
  109600    310.55156    24.887956    24.887956            0            0            0            0    24.887956    1208.9579    1233.8459    12.663369    22.505108    13.891278    17.738534    42.745105   -20.167795    12.612127     22.30075    14.235163 
  109800    327.60073    -2.695769    -2.695769            0            0            0            0    -2.695769    1275.3293    1272.6335    12.663461    22.504845    13.891794    17.747724    42.718832   -20.116243    12.612127     22.30075    14.235163 
  110000    304.62665    92.840727    92.840727            0            0            0            0    92.840727    1185.8926    1278.7334    12.664167    22.504456    13.892004    17.818369    42.679876   -20.095231    12.612127     22.30075    14.235163 
  110200    319.08867    110.00262    110.00262            0            0            0            0    110.00262    1242.1924     1352.195    12.666788    22.502778    13.891488    18.080582    42.512032    -20.14679    12.612127     22.30075    14.235163 
  110400    309.35758    65.988695    65.988695            0            0            0            0    65.988695    1204.3098    1270.2985    12.673225     22.50079    13.892547    18.724516    42.313174   -20.040843    12.612127     22.30075    14.235163 
  110600    313.80645    64.324038    64.324038            0            0            0            0    64.324038     1221.629    1285.9531    12.680419    22.499949     13.89456    19.444251    42.229027   -19.839528    12.612127     22.30075    14.235163 
  110800    312.28621    110.73889    110.73889            0            0            0            0    110.73889    1215.7108    1326.4497    12.686884     22.50002    13.896868    20.091028    42.236148   -19.608574    12.612127     22.30075    14.235163 
  111000    325.61111     134.2693     134.2693            0            0            0            0     134.2693    1267.5838    1401.8531    12.691132    22.502102    13.899042    20.515951    42.444386   -19.391073    12.612127     22.30075    14.235163 
  111200    293.49467   -16.636081   -16.636081            0            0            0            0   -16.636081    1142.5565    1125.9205    12.691814    22.503434     13.90101    20.584166    42.577699   -19.194235    12.612127     22.30075    14.235163 
  111400    317.72557    46.267283    46.267283            0            0            0            0    46.267283    1236.8859    1283.1532    12.691775    22.504473    13.902865    20.580299    42.681575   -19.008648    12.612127     22.30075    14.235163 
  111600    308.22349    50.984068    50.984068            0            0            0            0    50.984068    1199.8949     1250.879    12.691051    22.504863    13.904559    20.507867    42.720611   -18.839205    12.612127     22.30075    14.235163 
  111800    317.66365    91.262329    91.262329            0            0            0            0    91.262329    1236.6449    1327.9072    12.688697    22.504053     13.90617    20.272378    42.639616   -18.678055    12.612127     22.30075    14.235163 
  112000     312.4324    46.606283    46.606283            0            0            0            0    46.606283    1216.2799    1262.8862    12.684225    22.504129    13.908441    19.825033      42.6472   -18.450777    12.612127     22.30075    14.235163 
  112200     321.2662    37.546956    37.546956            0            0            0            0    37.546956    1250.6694    1288.2163    12.678276    22.504685    13.911102    19.229877    42.702815   -18.184579    12.612127     22.30075    14.235163 
  112400     301.9507    86.736145    86.736145            0            0            0            0    86.736145    1175.4753    1262.2115    12.671385     22.50458    13.914391    18.540415    42.692278   -17.855563    12.612127     22.30075    14.235163 
  112600    311.10669    176.64365    176.64365            0            0            0            0    176.64365     1211.119    1387.7627    12.664506    22.503035    13.917138    17.852211    42.537705   -17.580733    12.612127     22.30075    14.235163 
  112800    311.03938    36.908265    36.908265            0            0            0            0    36.908265     1210.857    1247.7653    12.658661    22.502379    13.917487     17.26755    42.472096   -17.545871    12.612127     22.30075    14.235163 
  113000    322.10979   -23.034411   -23.034411            0            0            0            0   -23.034411    1253.9534     1230.919    12.653442    22.504249    13.916941    16.745412     42.65921   -17.600476    12.612127     22.30075    14.235163 
  113200    319.18032    227.16177    227.16177            0            0            0            0    227.16177    1242.5492    1469.7109    12.648207    22.506261    13.916363    16.221696    42.860475   -17.658254    12.612127     22.30075    14.235163 
  113400    327.69145    111.64397    111.64397            0            0            0            0    111.64397    1275.6825    1387.3264    12.643522    22.507967    13.915486     15.75302    43.031162   -17.745997    12.612127     22.30075    14.235163 
  113600    314.24523    -7.702861    -7.702861            0            0            0            0    -7.702861    1223.3372    1215.6343    12.641835     22.50861    13.914198    15.584232    43.095528   -17.874892    12.612127     22.30075    14.235163 
  113800    309.30842    106.10036    106.10036            0            0            0            0    106.10036    1204.1185    1310.2189    12.642019    22.509001    13.913393    15.602602    43.134624   -17.955428    12.612127     22.30075    14.235163 
  114000    321.59488    53.551211    53.551211            0            0            0            0    53.551211    1251.9489    1305.5001    12.645754    22.508326    13.912765    15.976306    43.067084    -18.01824    12.612127     22.30075    14.235163 
  114200    327.12034    27.887368    27.887368            0            0            0            0    27.887368    1273.4592    1301.3465    12.651583    22.506449    13.911637    16.559436    42.879281   -18.131103    12.612127     22.30075    14.235163 
  114400    317.43113    203.93681    203.93681            0            0            0            0    203.93681    1235.7397    1439.6765    12.659021    22.503698    13.910335    17.303562    42.604081   -18.261328    12.612127     22.30075    14.235163 
  114600    310.25725    14.194457    14.194457            0            0            0            0    14.194457    1207.8122    1222.0067    12.665604    22.499468    13.910173    17.962131     42.18089   -18.277539    12.612127     22.30075    14.235163 
  114800    319.92112    96.215342    96.215342            0            0            0            0    96.215342    1245.4331    1341.6484    12.671042    22.495421    13.910026    18.506119    41.776079   -18.292232    12.612127     22.30075    14.235163 
  115000    300.58734    138.00584    138.00584            0            0            0            0    138.00584    1170.1678    1308.1737    12.674982    22.491616    13.909392    18.900346    41.395367   -18.355707    12.612127     22.30075    14.235163 
  115200    311.05456    11.588972    11.588972            0            0            0            0    11.588972    1210.9161     1222.505    12.678165    22.487225    13.908873    19.218711    40.956086   -18.407558    12.612127     22.30075    14.235163 
  115400    313.52235    27.904065    27.904065            0            0            0            0    27.904065    1220.5231    1248.4271    12.680961    22.483476    13.908149    19.498427    40.580981   -18.480018    12.612127     22.30075    14.235163 
  115600    313.23605    18.316403    18.316403            0            0            0            0    18.316403    1219.4085    1237.7249    12.683537    22.479965    13.907418    19.756163     40.22983   -18.553134    12.612127     22.30075    14.235163 
  115800    302.60396    25.828864    25.828864            0            0            0            0    25.828864    1178.0184    1203.8473    12.684657    22.477847     13.90639    19.868237    40.017944   -18.656001    12.612127     22.30075    14.235163 
  116000    319.23187    99.087323    99.087323            0            0            0            0    99.087323    1242.7499    1341.8372    12.685235    22.477788    13.905044    19.926071    40.012005   -18.790608    12.612127     22.30075    14.235163 
  116200    314.12904    1.6273692    1.6273692            0            0            0            0    1.6273692    1222.8849    1224.5122    12.686594    22.478401    13.904724    20.061961    40.073355   -18.822702    12.612127     22.30075    14.235163 
  116400    315.95153    68.813362    68.813362            0            0            0            0    68.813362    1229.9797     1298.793    12.687758     22.47987    13.905055    20.178414    40.220239   -18.789543    12.612127     22.30075    14.235163 
  116600    311.47971    66.081254    66.081254            0            0            0            0    66.081254    1212.5712    1278.6524    12.687998    22.483675    13.905466    20.202485    40.600985   -18.748459    12.612127     22.30075    14.235163 
  116800    316.29047    28.214065    28.214065            0            0            0            0    28.214065    1231.2992    1259.5132    12.685411    22.488116    13.906333    19.943677    41.045187   -18.661696    12.612127     22.30075    14.235163 
  117000    315.77496    56.913981    56.913981            0            0            0            0    56.913981    1229.2923    1286.2063    12.682196    22.493409    13.907098    19.622032    41.574752   -18.585154    12.612127     22.30075    14.235163 
  117200    314.00881    64.792929    64.792929            0            0            0            0    64.792929    1222.4168    1287.2097    12.677764    22.498856    13.907329    19.178579    42.119656   -18.562061    12.612127     22.30075    14.235163 
  117400     320.9522    16.508139    16.508139            0            0            0            0    16.508139     1249.447    1265.9551    12.673258     22.50346    13.907514    18.727862    42.580257   -18.543576    12.612127     22.30075    14.235163 
  117600     326.2583    15.366154    15.366154            0            0            0            0    15.366154    1270.1033    1285.4695    12.668853    22.506782    13.908363     18.28717    42.912615    -18.45858    12.612127     22.30075    14.235163 
  117800    312.39951    83.202416    83.202416            0            0            0            0    83.202416    1216.1519    1299.3543    12.665992    22.509782    13.910392    18.000887    43.212704   -18.255657    12.612127     22.30075    14.235163 
  118000    309.22111    90.356051    90.356051            0            0            0            0    90.356051    1203.7786    1294.1346     12.66416    22.511975    13.913077    17.817631    43.432114   -17.987013    12.612127     22.30075    14.235163 
  118200    316.88218    17.154601    17.154601            0            0            0            0    17.154601    1233.6026    1250.7572    12.663175    22.512064    13.915584    17.719071    43.441065   -17.736223    12.612127     22.30075    14.235163 
  118400    310.12107    111.92858    111.92858            0            0            0            0    111.92858    1207.2821    1319.2107    12.662536    22.510846    13.918133    17.655153    43.319163   -17.481247    12.612127     22.30075    14.235163 
  118600    309.29616   -12.693827   -12.693827            0            0            0            0   -12.693827    1204.0708    1191.3769    12.660465    22.508319    13.920423    17.448006    43.066369   -17.252064    12.612127     22.30075    14.235163 
  118800    315.19414    91.662178    91.662178            0            0            0            0    91.662178    1227.0312    1318.6934    12.658226    22.505475    13.922513    17.224013    42.781866   -17.043041    12.612127     22.30075    14.235163 
  119000    318.23855   -6.2794502   -6.2794502            0            0            0            0   -6.2794502    1238.8829    1232.6035    12.656537    22.503319     13.92383    17.055005    42.566185   -16.911242    12.612127     22.30075    14.235163 
  119200    309.96514    183.09558    183.09558            0            0            0            0    183.09558     1206.675    1389.7706    12.656129     22.50219    13.924902    17.014249    42.453211   -16.803973    12.612127     22.30075    14.235163 
  119400    316.96799    102.28182    102.28182            0            0            0            0    102.28182    1233.9367    1336.2185    12.659026    22.500868    13.926636     17.30402    42.320918   -16.630556    12.612127     22.30075    14.235163 
  119600    317.98502    51.898621    51.898621            0            0            0            0    51.898621    1237.8959    1289.7946    12.662272    22.499264    13.928181    17.628756    42.160537      -16.476    12.612127     22.30075    14.235163 
  119800    310.76829    27.717349    27.717349            0            0            0            0    27.717349    1209.8017     1237.519     12.66579    22.498555    13.930116    17.980681    42.089603   -16.282383    12.612127     22.30075    14.235163 
  120000    320.84564    241.57434    241.57434            0            0            0            0    241.57434    1249.0322    1490.6065    12.670855    22.497456    13.933246    18.487446    41.979639   -15.969287    12.612127     22.30075    14.235163 
  120200    301.92734   -15.731862   -15.731862            0            0            0            0   -15.731862    1175.3844    1159.6525    12.677128    22.494158    13.936767    19.114943    41.649665   -15.616975    12.612127     22.30075    14.235163 
  120400    318.68335    73.563152    73.563152            0            0            0            0    73.563152    1240.6145    1314.1776     12.68307    22.491042    13.940216    19.709412    41.337938   -15.271934    12.612127     22.30075    14.235163 
  120600    308.47065    29.861233    29.861233            0            0            0            0    29.861233    1200.8571    1230.7183    12.686773    22.489607    13.944368    20.079936    41.194434   -14.856644    12.612127     22.30075    14.235163 
  120800    321.08629      65.8297      65.8297            0            0            0            0      65.8297     1249.969    1315.7987    12.688814    22.489215    13.948705    20.284094    41.155175   -14.422693    12.612127     22.30075    14.235163 
  121000    310.15651    32.755302    32.755302            0            0            0            0    32.755302      1207.42    1240.1753     12.68882    22.489205    13.953059    20.284656    41.154158   -13.987091    12.612127     22.30075    14.235163 
  121200    314.80646    60.247826    60.247826            0            0            0            0    60.247826     1225.522    1285.7698    12.687984     22.49094    13.957733    20.200996    41.327743   -13.519489    12.612127     22.30075    14.235163 
  121400    300.31823    142.91359    142.91359            0            0            0            0    142.91359    1169.1202    1312.0338    12.686239    22.494605    13.962917    20.026476    41.694419   -13.000928    12.612127     22.30075    14.235163 
  121600    320.24219     123.6262     123.6262            0            0            0            0     123.6262     1246.683    1370.3092    12.682376     22.49725    13.967147    19.640025    41.958972   -12.577704    12.612127     22.30075    14.235163 
  121800    317.53776    81.870681    81.870681            0            0            0            0    81.870681    1236.1548    1318.0255    12.676585    22.498693    13.969774    19.060617     42.10336   -12.314936    12.612127     22.30075    14.235163 
  122000    295.40924    135.24224    135.24224            0            0            0            0    135.24224    1150.0098    1285.2521     12.67078    22.501511    13.972029    18.479877    42.385269   -12.089337    12.612127     22.30075    14.235163 
  122200    309.81149   -12.285471   -12.285471            0            0            0            0   -12.285471    1206.0769    1193.7914    12.667297    22.503331    13.973798    18.131465    42.567409    -11.91238    12.612127     22.30075    14.235163 
  122400    305.73383     102.5871     102.5871            0            0            0            0     102.5871    1190.2028    1292.7899    12.665027    22.504566    13.975317    17.904398    42.690918   -11.760362    12.612127     22.30075    14.235163 
  122600    322.78277    12.720845    12.720845            0            0            0            0    12.720845    1256.5733    1269.2941    12.664236    22.504415    13.976586    17.825256    42.675844   -11.633465    12.612127     22.30075    14.235163 
  122800    290.32279    77.362529    77.362529            0            0            0            0    77.362529    1130.2086    1207.5711    12.664495    22.503331    13.977553     17.85118    42.567384   -11.536737    12.612127     22.30075    14.235163 
  123000    317.81997    173.42359    173.42359            0            0            0            0    173.42359    1237.2534     1410.677    12.666135    22.503548    13.978965    18.015262     42.58908   -11.395426    12.612127     22.30075    14.235163 
  123200    317.99086     104.7387     104.7387            0            0            0            0     104.7387    1237.9187    1342.6574    12.666737    22.505229    13.980204    18.075488    42.757231   -11.271454    12.612127     22.30075    14.235163 
  123400    310.99125    135.82501    135.82501            0            0            0            0    135.82501    1210.6696    1346.4946     12.66742    22.505891    13.981475    18.143736    42.823451   -11.144347    12.612127     22.30075    14.235163 
  123600    316.91456    29.739893    29.739893            0            0            0            0    29.739893    1233.7287    1263.4686    12.667373    22.505492    13.982783    18.139072    42.783543    -11.01346    12.612127     22.30075    14.235163 
  123800    307.84012   -10.155677   -10.155677            0            0            0            0   -10.155677    1198.4025    1188.2468    12.667479    22.503793    13.983689    18.149685     42.61357   -10.922867    12.612127     22.30075    14.235163 
  124000    322.94232   -3.6860141   -3.6860141            0            0            0            0   -3.6860141    1257.1944    1253.5084    12.668016    22.501659    13.984406    18.203394    42.400125    -10.85115    12.612127     22.30075    14.235163 
  124200    304.48645    34.760658    34.760658            0            0            0            0    34.760658    1185.3469    1220.1075    12.669057    22.499567    13.985007    18.307564    42.190801   -10.790973    12.612127     22.30075    14.235163 
  124400    316.88356    370.99218    370.99218            0            0            0            0    370.99218     1233.608    1604.6002    12.671265    22.498608    13.985451    18.528468    42.094824   -10.746603    12.612127     22.30075    14.235163 
  124600    311.46354    87.574806    87.574806            0            0            0            0    87.574806    1212.5082     1300.083    12.674958    22.499414    13.985875    18.897934    42.175533   -10.704139    12.612127     22.30075    14.235163 
  124800    315.11351     39.12978     39.12978            0            0            0            0     39.12978    1226.7173    1265.8471    12.676423    22.499915    13.986217    19.044432    42.225637    -10.66999    12.612127     22.30075    14.235163 
  125000    325.13705    230.70856    230.70856            0            0            0            0    230.70856    1265.7384    1496.4469    12.676373    22.500038    13.986994    19.039435    42.237942   -10.592227    12.612127     22.30075    14.235163 
  125200    313.71065   -25.967332   -25.967332            0            0            0            0   -25.967332    1221.2561    1195.2887    12.676599    22.499708    13.988116    19.062087    42.204926   -10.480005    12.612127     22.30075    14.235163 
  125400    314.80972    189.48417    189.48417            0            0            0            0    189.48417    1225.5347    1415.0189    12.676969    22.499188    13.989235    19.099127    42.152895   -10.368022    12.612127     22.30075    14.235163 
  125600    315.15987    96.114083    96.114083            0            0            0            0    96.114083    1226.8978    1323.0119    12.674971    22.497641    13.989839    18.899167     41.99812    -10.30762    12.612127     22.30075    14.235163 
  125800    318.01565    48.219202    48.219202            0            0            0            0    48.219202    1238.0152    1286.2344    12.671904    22.498323    13.989973    18.592346    42.066344   -10.294194    12.612127     22.30075    14.235163 
  126000    320.72976    173.48261    173.48261            0            0            0            0    173.48261     1248.581    1422.0636     12.66823    22.500756     13.98983    18.224771    42.309741   -10.308456    12.612127     22.30075    14.235163 
  126200    317.89607   -13.986848   -13.986848            0            0            0            0   -13.986848    1237.5497    1223.5628    12.663166    22.504427    13.989829    17.718238    42.677049   -10.308633    12.612127     22.30075    14.235163 
  126400    313.09286   -14.467521   -14.467521            0            0            0            0   -14.467521    1218.8511    1204.3836    12.659953    22.507581    13.991058    17.396758    42.992506   -10.185627    12.612127     22.30075    14.235163 
  126600    318.83245    117.80062    117.80062            0            0            0            0    117.80062    1241.1949    1358.9956    12.656711    22.509831    13.993064    17.072439    43.217651   -9.9849654    12.612127     22.30075    14.235163 
  126800    314.30793    114.55176    114.55176            0            0            0            0    114.55176    1223.5813     1338.133    12.654655    22.510513    13.995493    16.866704    43.285899   -9.7419654    12.612127     22.30075    14.235163 
  127000    308.03107   -7.5992883   -7.5992883            0            0            0            0   -7.5992883    1199.1458    1191.5465    12.655189    22.509792    13.997997    16.920172    43.213779   -9.4914123    12.612127     22.30075    14.235163 
  127200    313.41141    64.980681    64.980681            0            0            0            0    64.980681    1220.0911    1285.0718    12.657323    22.508202    14.000081    17.133648    43.054661   -9.2829251    12.612127     22.30075    14.235163 
  127400    310.61721    150.68574    150.68574            0            0            0            0    150.68574    1209.2135    1359.8993    12.661764    22.506433    14.001687    17.577904     42.87772   -9.1223336    12.612127     22.30075    14.235163 
  127600    316.45558    12.016627    12.016627            0            0            0            0    12.016627    1231.9419    1243.9585    12.666428    22.506783    14.002551    18.044559    42.912759    -9.035899    12.612127     22.30075    14.235163 
  127800    318.89181    65.103155    65.103155            0            0            0            0    65.103155     1241.426    1306.5292    12.671125    22.506809    14.002918    18.514422    42.915284   -8.9991117    12.612127     22.30075    14.235163 
  128000    304.89302   -4.0561375   -4.0561375            0            0            0            0   -4.0561375    1186.9296    1182.8735    12.675082    22.505512     14.00291    18.910342    42.785566   -8.9999848    12.612127     22.30075    14.235163 
  128200    316.30636    37.139513    37.139513            0            0            0            0    37.139513     1231.361    1268.5005    12.678824    22.503725    14.002947    19.284623    42.606744   -8.9961915    12.612127     22.30075    14.235163 
  128400    313.14625    123.75992    123.75992            0            0            0            0    123.75992    1219.0589    1342.8188    12.682473     22.50175    14.002441    19.649703    42.409206   -9.0468781    12.612127     22.30075    14.235163 
  128600    305.61284     168.2322     168.2322            0            0            0            0     168.2322    1189.7318     1357.964    12.684837     22.50143    14.001796    19.886176    42.377161   -9.1113595    12.612127     22.30075    14.235163 
  128800    311.95836    245.38282    245.38282            0            0            0            0    245.38282    1214.4345    1459.8173    12.687922    22.500669    14.000511    20.194834    42.301016   -9.2399558    12.612127     22.30075    14.235163 
  129000    303.48378   -15.555831   -15.555831            0            0            0            0   -15.555831    1181.4435    1165.8877    12.686594    22.500358     13.99845    20.062019    42.269943   -9.4461653    12.612127     22.30075    14.235163 
  129200    313.05539   -11.913777   -11.913777            0            0            0            0   -11.913777    1218.7052    1206.7914    12.684093    22.500263    13.996218    19.811827    42.260479   -9.6694532    12.612127     22.30075    14.235163 
  129400    322.31298    -11.99916    -11.99916            0            0            0            0    -11.99916    1254.7444    1242.7453     12.68118    22.500259    13.993975    19.520343    42.260061   -9.8938528    12.612127     22.30075    14.235163 
  129600    318.64093    82.072356    82.072356            0            0            0            0    82.072356    1240.4494    1322.5217    12.677011    22.500104    13.991405    19.103316    42.244529   -10.150955    12.612127     22.30075    14.235163 
  129800    305.16093    48.655147    48.655147            0            0            0            0    48.655147    1187.9725    1236.6277    12.670721    22.500139    13.987989    18.473974    42.248022   -10.492707    12.612127     22.30075    14.235163 
  130000    302.03786    90.796615    90.796615            0            0            0            0    90.796615    1175.8146    1266.6112    12.665251    22.501062    13.983902    17.926738    42.340393   -10.901563    12.612127     22.30075    14.235163 
  130200    312.29121    59.379514    59.379514            0            0            0            0    59.379514    1215.7303    1275.1098    12.662078    22.501927    13.979437     17.60939    42.426874   -11.348185    12.612127     22.30075    14.235163 
  130400    323.87247    152.79022    152.79022            0            0            0            0    152.79022    1260.8154    1413.6056    12.659742    22.501929    13.974485    17.375663    42.427104    -11.84359    12.612127     22.30075    14.235163 
  130600      326.042    31.469547    31.469547            0            0            0            0    31.469547    1269.2613    1300.7308    12.659619     22.50246    13.970394    17.363325    42.480226   -12.252924    12.612127     22.30075    14.235163 
  130800    313.00177    109.91881    109.91881            0            0            0            0    109.91881    1218.4965    1328.4153    12.661177    22.504404    13.967245    17.519177    42.674698   -12.567959    12.612127     22.30075    14.235163 
  131000    319.57441    72.576322    72.576322            0            0            0            0    72.576322    1244.0834    1316.6597    12.663829     22.50739    13.964439    17.784485    42.973468   -12.848664    12.612127     22.30075    14.235163 
  131200    309.15421   -22.893155   -22.893155            0            0            0            0   -22.893155    1203.5182     1180.625    12.665838    22.510092    13.961559    17.985551    43.243743   -13.136819    12.612127     22.30075    14.235163 
  131400    309.42257    102.26123    102.26123            0            0            0            0    102.26123    1204.5628    1306.8241    12.667748    22.512527    13.958604    18.176608    43.487333   -13.432387    12.612127     22.30075    14.235163 
  131600    296.55173     109.1804     109.1804            0            0            0            0     109.1804    1154.4575    1263.6379    12.668887    22.510792    13.955894    18.290573    43.313812   -13.703526    12.612127     22.30075    14.235163 
  131800    307.23666     82.92159     82.92159            0            0            0            0     82.92159    1196.0533    1278.9749    12.671351    22.506812    13.954598    18.537074    42.915572    -13.83318    12.612127     22.30075    14.235163 
  132000    308.60251    128.51207    128.51207            0            0            0            0    128.51207    1201.3704    1329.8825    12.675658    22.504844    13.953899    18.967904    42.718753   -13.903073    12.612127     22.30075    14.235163 
  132200    311.67597    89.582382    89.582382            0            0            0            0    89.582382    1213.3352    1302.9176    12.681985    22.502863    13.954397    19.600873    42.520516   -13.853302    12.612127     22.30075    14.235163 
  132400    317.99494     20.67082     20.67082            0            0            0            0     20.67082    1237.9346    1258.6054    12.687829    22.500937    13.955548    20.185568    42.327872   -13.738091    12.612127     22.30075    14.235163 
  132600    312.31644    163.54439    163.54439            0            0            0            0    163.54439    1215.8285    1379.3729    12.692648     22.49809    13.956717    20.667669    42.042997     -13.6212    12.612127     22.30075    14.235163 
  132800    313.71905    65.605795    65.605795            0            0            0            0    65.605795    1221.2888    1286.8946    12.695019    22.496433    13.958224    20.904819    41.877273    -13.47041    12.612127     22.30075    14.235163 
  133000    315.72186    6.6568897    6.6568897            0            0            0            0    6.6568897    1229.0856    1235.7425    12.695637    22.496559    13.960549    20.966621    41.889887   -13.237842    12.612127     22.30075    14.235163 
  133200     301.9965    41.004458    41.004458            0            0            0            0    41.004458    1175.6536    1216.6581     12.69538    22.497391     13.96348    20.940946    41.973135   -12.944609    12.612127     22.30075    14.235163 
  133400    310.90259    138.49552    138.49552            0            0            0            0    138.49552    1210.3245      1348.82    12.693721    22.498008    13.966854    20.774966    42.034859   -12.607012    12.612127     22.30075    14.235163 
  133600    310.35082    78.655075    78.655075            0            0            0            0    78.655075    1208.1765    1286.8316    12.688832    22.497877    13.969526    20.285853    42.021761   -12.339693    12.612127     22.30075    14.235163 
  133800     307.9893    -13.09267    -13.09267            0            0            0            0    -13.09267    1198.9832    1185.8906    12.683562    22.496634    13.971554    19.758627    41.897349   -12.136878    12.612127     22.30075    14.235163 
  134000    308.52408    189.83114    189.83114            0            0            0            0    189.83114    1201.0651    1390.8962     12.67804    22.494962     13.97371     19.20624    41.730109   -11.921131    12.612127     22.30075    14.235163 
  134200    310.26902    115.20979    115.20979            0            0            0            0    115.20979     1207.858    1323.0678    12.672602     22.49275    13.975383    18.662152    41.508846   -11.753827    12.612127     22.30075    14.235163 
  134400    308.96388   -19.669992   -19.669992            0            0            0            0   -19.669992    1202.7772    1183.1072    12.669374    22.492103    13.975391    18.339262    41.444056   -11.752956    12.612127     22.30075    14.235163 
  134600    320.43083    -25.74931    -25.74931            0            0            0            0    -25.74931    1247.4173     1221.668    12.666778    22.491942    13.974925     18.07959    41.427938   -11.799589    12.612127     22.30075    14.235163 
  134800    316.00183    151.09518    151.09518            0            0            0            0    151.09518    1230.1755    1381.2707    12.664144    22.491986    13.974392    17.816029    41.432435   -11.852917    12.612127     22.30075    14.235163 
  135000    305.21981    105.36372    105.36372            0            0            0            0    105.36372    1188.2018    1293.5655    12.662267    22.494325    13.972714    17.628294    41.666398   -12.020823    12.612127     22.30075    14.235163 
  135200    306.29786    84.261468    84.261468            0            0            0            0    84.261468    1192.3986      1276.66     12.66242    22.496882    13.970345    17.643541    41.922191   -12.257798    12.612127     22.30075    14.235163 
  135400     313.8026    108.61659    108.61659            0            0            0            0    108.61659     1221.614    1330.2306    12.665052    22.500205     13.96738    17.906834    42.254613   -12.554395    12.612127     22.30075    14.235163 
  135600    303.25796    75.846466    75.846466            0            0            0            0    75.846466    1180.5644    1256.4109      12.6708    22.504625     13.96516    18.481931      42.6968   -12.776544    12.612127     22.30075    14.235163 
  135800     303.3417    99.044213    99.044213            0            0            0            0    99.044213    1180.8904    1279.9346    12.676859    22.506804    13.963458    19.088083    42.914838   -12.946796    12.612127     22.30075    14.235163 
  136000    309.14206     117.4059     117.4059            0            0            0            0     117.4059    1203.4708    1320.8767    12.680072    22.507427    13.962179    19.409521    42.977166   -13.074801    12.612127     22.30075    14.235163 
  136200    318.72522   -2.8661283   -2.8661283            0            0            0            0   -2.8661283    1240.7775    1237.9113    12.679856    22.506269    13.961096    19.387902    42.861244   -13.183089    12.612127     22.30075    14.235163 
  136400    306.16063    21.200208    21.200208            0            0            0            0    21.200208    1191.8643    1213.0646    12.679437    22.504378    13.960095    19.346011     42.67213   -13.283265    12.612127     22.30075    14.235163 
  136600    324.35952    65.093144    65.093144            0            0            0            0    65.093144    1262.7115    1327.8046    12.678688    22.502334    13.959246    19.271032    42.467619   -13.368163    12.612127     22.30075    14.235163 
  136800     310.3275    64.252769    64.252769            0            0            0            0    64.252769    1208.0857    1272.3385    12.677699    22.500645    13.958705    19.172085    42.298636   -13.422255    12.612127     22.30075    14.235163 
  137000    315.28112    236.06143    236.06143            0            0            0            0    236.06143    1227.3698    1463.4313    12.678222    22.497603    13.957625    19.224423    41.994303   -13.530341    12.612127     22.30075    14.235163 
  137200    310.31876    154.92314    154.92314            0            0            0            0    154.92314    1208.0517    1362.9748    12.677118    22.495101    13.956726    19.113947    41.743977   -13.620316    12.612127     22.30075    14.235163 
  137400    322.85593    153.60256    153.60256            0            0            0            0    153.60256    1256.8581    1410.4607    12.674896    22.495529    13.956073    18.891669    41.786823     -13.6856    12.612127     22.30075    14.235163 
  137600    303.65488    53.800743    53.800743            0            0            0            0    53.800743    1182.1096    1235.9103    12.671696    22.496962    13.956703    18.571512    41.930149   -13.622571    12.612127     22.30075    14.235163 
  137800    320.71586   -15.045144   -15.045144            0            0            0            0   -15.045144    1248.5269    1233.4818    12.669327    22.499143    13.957656    18.334513    42.148345   -13.527197    12.612127     22.30075    14.235163 
  138000     322.0511     224.6385     224.6385            0            0            0            0     224.6385    1253.7249    1478.3634    12.667364    22.501265    13.958377    18.138186    42.360689   -13.455131    12.612127     22.30075    14.235163 
  138200    327.97948    92.205458    92.205458            0            0            0            0    92.205458    1276.8038    1369.0092    12.666189    22.503765    13.958143     18.02065    42.610816   -13.478548    12.612127     22.30075    14.235163 
  138400    317.31444    54.543934    54.543934            0            0            0            0    54.543934    1235.2854    1289.8293    12.665897     22.50636    13.958066    17.991386    42.870389   -13.486266    12.612127     22.30075    14.235163 
  138600    319.88349    186.20584    186.20584            0            0            0            0    186.20584    1245.2866    1431.4924    12.665909    22.507647      13.9584    17.992647    42.999183   -13.452782    12.612127     22.30075    14.235163 
  138800    314.12586    19.000867    19.000867            0            0            0            0    19.000867    1222.8725    1241.8734    12.667772    22.507714    13.958803     18.17898     43.00583   -13.412477    12.612127     22.30075    14.235163 
  139000    316.25965    74.607685    74.607685            0            0            0            0    74.607685    1231.1792    1305.7869    12.669956    22.507497    13.959379    18.397485    42.984098   -13.354917    12.612127     22.30075    14.235163 
  139200    317.56234    4.3256706    4.3256706            0            0            0            0    4.3256706    1236.2505    1240.5762    12.670581    22.505722    13.959461    18.460058    42.806543   -13.346709    12.612127     22.30075    14.235163 
  139400    309.35383    28.073186    28.073186            0            0            0            0    28.073186    1204.2953    1232.3684    12.670714    22.504106    13.959008    18.473367    42.644882    -13.39199    12.612127     22.30075    14.235163 
  139600    311.30436     36.91941     36.91941            0            0            0            0     36.91941    1211.8886     1248.808    12.671274    22.503323    13.958298    18.529374    42.566567   -13.463048    12.612127     22.30075    14.235163 
  139800    310.87932    97.969284    97.969284            0            0            0            0    97.969284    1210.2339    1308.2032    12.672234    22.502146    13.957841    18.625365    42.448846   -13.508706    12.612127     22.30075    14.235163 
  140000    312.12679    86.856452    86.856452            0            0            0            0    86.856452    1215.0902    1301.9467    12.673738    22.503324    13.957466    18.775821    42.566706   -13.546219    12.612127     22.30075    14.235163 
  140200    317.83819  -0.29890705  -0.29890705            0            0            0            0  -0.29890705    1237.3243    1237.0254    12.673521    22.506832    13.956941    18.754122     42.91765   -13.598784    12.612127     22.30075    14.235163 
  140400    315.52326    34.800097    34.800097            0            0            0            0    34.800097    1228.3125    1263.1126    12.671852    22.510667    13.956391     18.58717    43.301263    -13.65383    12.612127     22.30075    14.235163 
  140600    311.27016    192.41847    192.41847            0            0            0            0    192.41847    1211.7554    1404.1739    12.671119    22.513649    13.957727    18.513838    43.599594   -13.520169    12.612127     22.30075    14.235163 
  140800    313.27635    107.60019    107.60019            0            0            0            0    107.60019    1219.5654    1327.1656    12.669361    22.516742    13.960426     18.33797    43.909002   -13.250084    12.612127     22.30075    14.235163 
  141000    312.98513    4.6311318    4.6311318            0            0            0            0    4.6311318    1218.4317    1223.0628    12.666811    22.517601     13.96324    18.082873    43.994984   -12.968637    12.612127     22.30075    14.235163 
  141200    305.90331    40.388413    40.388413            0            0            0            0    40.388413    1190.8626     1231.251    12.664398    22.516813    13.966102    17.841463    43.916181   -12.682243    12.612127     22.30075    14.235163 
  141400    321.33225    26.921419    26.921419            0            0            0            0    26.921419    1250.9265    1277.8479    12.663098    22.514604     13.96845    17.711397    43.695173   -12.447435    12.612127     22.30075    14.235163 
  141600    316.47463    135.07316    135.07316            0            0            0            0    135.07316    1232.0161    1367.0893    12.665212    22.512375    13.971397    17.922904    43.472177   -12.152599    12.612127     22.30075    14.235163 
  141800    306.17442    21.669321    21.669321            0            0            0            0    21.669321     1191.918    1213.5873    12.670216    22.510383     13.97516    18.423447    43.272873   -11.776097    12.612127     22.30075    14.235163 
  142000    320.57894   -9.8732266   -9.8732266            0            0            0            0   -9.8732266    1247.9939    1238.1207    12.674491    22.506867    13.979422    18.851219    42.921136   -11.349759    12.612127     22.30075    14.235163 
  142200    313.15474    20.534015    20.534015            0            0            0            0    20.534015    1219.0919     1239.626     12.67843    22.502961    13.983721     19.24522    42.530365   -10.919691    12.612127     22.30075    14.235163 
  142400    306.88874    28.037352    28.037352            0            0            0            0    28.037352    1194.6988    1222.7362     12.68236    22.499434    13.987442    19.638435    42.177527   -10.547355    12.612127     22.30075    14.235163 
  142600    304.52124     77.48708     77.48708            0            0            0            0     77.48708    1185.4823    1262.9694    12.687243    22.496866    13.989964    20.126895    41.920555   -10.295073    12.612127     22.30075    14.235163 
  142800    312.08803      223.171      223.171            0            0            0            0      223.171    1214.9393    1438.1103    12.690891    22.495045    13.991893    20.491894    41.738397   -10.102114    12.612127     22.30075    14.235163 
  143000     300.3059    41.139817    41.139817            0            0            0            0    41.139817    1169.0722     1210.212    12.690904    22.491638     13.99294    20.493172    41.397611   -9.9973487    12.612127     22.30075    14.235163 
  143200    325.07371    105.72377    105.72377            0            0            0            0    105.72377    1265.4918    1371.2156    12.688922     22.48836    13.993587    20.294834     41.06964    -9.932619    12.612127     22.30075    14.235163 
  143400    328.53121     35.85657     35.85657            0            0            0            0     35.85657    1278.9516    1314.8082    12.686582    22.487677    13.993767     20.06082     41.00126   -9.9145886    12.612127     22.30075    14.235163 
  143600    311.31256   -13.309068   -13.309068            0            0            0            0   -13.309068    1211.9205    1198.6114    12.682792    22.488451    13.993541    19.681655    41.078692    -9.937208    12.612127     22.30075    14.235163 
  143800    302.03479    82.906313    82.906313            0            0            0            0    82.906313    1175.8027     1258.709    12.678745    22.489632    13.993233    19.276772    41.196864   -9.9680198    12.612127     22.30075    14.235163 
  144000     319.4831     43.33504     43.33504            0            0            0            0     43.33504    1243.7279    1287.0629    12.674702     22.49326    13.992638    18.872302    41.559816   -10.027604    12.612127     22.30075    14.235163 
  144200    322.16057    258.78853    258.78853            0            0            0            0    258.78853    1254.1511    1512.9396    12.670689    22.497949    13.991698    18.470856    42.028989    -10.12166    12.612127     22.30075    14.235163 
  144400    311.80152    127.13198    127.13198            0            0            0            0    127.13198     1213.824     1340.956    12.667456    22.502148    13.990616    18.147389    42.448986   -10.229901    12.612127     22.30075    14.235163 
  144600    304.51792    86.498419    86.498419            0            0            0            0    86.498419    1185.4693    1271.9678    12.666499    22.505417    13.990388    18.051665    42.776075   -10.252677    12.612127     22.30075    14.235163 
  144800    326.48615    39.988821    39.988821            0            0            0            0    39.988821    1270.9903    1310.9791    12.665915    22.506704    13.990556    17.993171    42.904792     -10.2359    12.612127     22.30075    14.235163 
  145000    310.27221    97.455793    97.455793            0            0            0            0    97.455793    1207.8705    1305.3263    12.665899    22.505543     13.99094    17.991614    42.788659   -10.197458    12.612127     22.30075    14.235163 
  145200    316.81089   -9.0448581   -9.0448581            0            0            0            0   -9.0448581    1233.3251    1224.2803     12.66766    22.503006    13.991306    18.167828    42.534884   -10.160847    12.612127     22.30075    14.235163 
  145400    308.27967    33.247274    33.247274            0            0            0            0    33.247274    1200.1136    1233.3609    12.670873    22.500916    13.991815    18.489202    42.325772   -10.109857    12.612127     22.30075    14.235163 
  145600    305.05948    193.87542    193.87542            0            0            0            0    193.87542    1187.5776     1381.453    12.675302    22.500035    13.992393    18.932313    42.237637    -10.05207    12.612127     22.30075    14.235163 
  145800     306.6098    1.8379393    1.8379393            0            0            0            0    1.8379393    1193.6129    1195.4509     12.67795    22.500203    13.992145    19.197199    42.254433   -10.076869    12.612127     22.30075    14.235163 
  146000    317.91956   -24.373526   -24.373526            0            0            0            0   -24.373526    1237.6411    1213.2676    12.680096     22.50101    13.991554    19.411936    42.335197   -10.136036    12.612127     22.30075    14.235163 
  146200    306.11806    25.877031    25.877031            0            0            0            0    25.877031    1191.6986    1217.5756    12.682376    22.501715    13.990939    19.640009    42.405718   -10.197584    12.612127     22.30075    14.235163 
  146400    326.69728    457.54064    457.54064            0            0            0            0    457.54064    1271.8122    1729.3529    12.684297      22.5018    13.989821    19.832192     42.41418   -10.309342    12.612127     22.30075    14.235163 
  146600     308.3371    4.1529106    4.1529106            0            0            0            0    4.1529106    1200.3372    1204.4901    12.681905    22.504074    13.988165    19.592846    42.641717   -10.475084    12.612127     22.30075    14.235163 
  146800    309.02047   -14.601711   -14.601711            0            0            0            0   -14.601711    1202.9975    1188.3958    12.678844    22.507138    13.986414    19.286641    42.948231   -10.650252    12.612127     22.30075    14.235163 
  147000    308.04738    86.070934    86.070934            0            0            0            0    86.070934    1199.2093    1285.2803    12.675322    22.510048    13.984642    18.934286    43.239382   -10.827479    12.612127     22.30075    14.235163 
  147200    305.42802    33.892629    33.892629            0            0            0            0    33.892629    1189.0123    1222.9049    12.671176    22.511911    13.983784    18.519487     43.42569    -10.91338    12.612127     22.30075    14.235163 
  147400     309.1488    84.699616    84.699616            0            0            0            0    84.699616    1203.4971    1288.1967    12.667609    22.512183    13.983168    18.162718    43.452905   -10.974933    12.612127     22.30075    14.235163 
  147600    312.97471    -14.60753    -14.60753            0            0            0            0    -14.60753    1218.3911    1203.7836    12.667204    22.510584    13.982466    18.122177    43.292965   -11.045197    12.612127     22.30075    14.235163 
  147800    311.50452    43.632054    43.632054            0            0            0            0    43.632054    1212.6677    1256.2998     12.66774    22.508825    13.982088    18.175773    43.117032   -11.083064    12.612127     22.30075    14.235163 
  148000    315.50837    238.58033    238.58033            0            0            0            0    238.58033    1228.2545    1466.8348    12.669688    22.506266    13.982363    18.370648    42.860988   -11.055481    12.612127     22.30075    14.235163 
  148200    313.84817    95.930609    95.930609            0            0            0            0    95.930609    1221.7915    1317.7221     12.67171     22.50235    13.982982    18.572976    42.469256   -10.993531    12.612127     22.30075    14.235163 
  148400     308.7242    5.4681385    5.4681385            0            0            0            0    5.4681385    1201.8441    1207.3123    12.671992    22.499231    13.983913    18.601145    42.157205    -10.90048    12.612127     22.30075    14.235163 
  148600    322.65373     119.8312     119.8312            0            0            0            0     119.8312    1256.0709    1375.9021    12.671241    22.496511    13.984474    18.526067    41.885037   -10.844352    12.612127     22.30075    14.235163 
  148800    310.85617    38.343754    38.343754            0            0            0            0    38.343754    1210.1438    1248.4875    12.669049    22.496371    13.985205    18.306792    41.871026   -10.771195    12.612127     22.30075    14.235163 
  149000    310.14821    61.499943    61.499943            0            0            0            0    61.499943    1207.3877    1268.8877    12.664991     22.49757    13.986765    17.900765    41.990982   -10.615137    12.612127     22.30075    14.235163 
  149200    311.27557    28.858171    28.858171            0            0            0            0    28.858171    1211.7765    1240.6347     12.66237    22.498048    13.989559    17.638556    42.038858    -10.33561    12.612127     22.30075    14.235163 
  149400    314.76152    91.408783    91.408783            0            0            0            0    91.408783     1225.347    1316.7558    12.661213    22.499062    13.992641    17.522776    42.140288   -10.027271    12.612127     22.30075    14.235163 
  149600    303.84022    1.0759454    1.0759454            0            0            0            0    1.0759454    1182.8311    1183.9071    12.661486    22.501189     13.99448    17.550172    42.353111   -9.8432767    12.612127     22.30075    14.235163 
  149800    299.98038    213.41064    213.41064            0            0            0            0    213.41064     1167.805    1381.2156    12.662198    22.503897     13.99589    17.621337    42.623977   -9.7022439    12.612127     22.30075    14.235163 
  150000     307.6565    55.028597    55.028597            0            0            0            0    55.028597    1197.6877    1252.7163    12.665046    22.508305     13.99621    17.906289    43.064966   -9.6702274    12.612127     22.30075    14.235163 
  150200     314.4108    170.98829    170.98829            0            0            0            0    170.98829    1223.9817      1394.97    12.667256    22.511593    13.996412    18.127354    43.393923   -9.6499919    12.612127     22.30075    14.235163 
  150400    317.00817    205.35916    205.35916            0            0            0            0    205.35916    1234.0931    1439.4523    12.670321    22.511789    13.996473    18.434011    43.413547   -9.6438778    12.612127     22.30075    14.235163 
  150600    320.31223    1.9769432    1.9769432            0            0            0            0    1.9769432    1246.9556    1248.9326    12.673641    22.509106    13.996416    18.766096    43.145123   -9.6496064    12.612127     22.30075    14.235163 
  150800    304.77022    5.7534879    5.7534879            0            0            0            0    5.7534879    1186.4515     1192.205    12.675614    22.505644    13.996058    18.963504    42.798738   -9.6854178    12.612127     22.30075    14.235163 
  151000    317.16907    76.083517    76.083517            0            0            0            0    76.083517    1234.7195     1310.803    12.675795    22.501527     13.99532    18.981666    42.386857   -9.7592575    12.612127     22.30075    14.235163 
  151200    300.48411    64.549429    64.549429            0            0            0            0    64.549429     1169.766    1234.3154    12.674689    22.496163     13.99513    18.870963    41.850292   -9.7782931    12.612127     22.30075    14.235163 
  151400    310.45756    226.10514    226.10514            0            0            0            0    226.10514     1208.592    1434.6971    12.673321    22.489856    13.994766    18.734166    41.219322   -9.8146793    12.612127     22.30075    14.235163 
  151600    315.68452    84.350766    84.350766            0            0            0            0    84.350766    1228.9402     1313.291    12.672786    22.484815    13.993296    18.680609    40.714958   -9.9617452    12.612127     22.30075    14.235163 
  151800    323.94414    327.23927    327.23927            0            0            0            0    327.23927    1261.0944    1588.3337    12.672886    22.480313    13.991563     18.69058    40.264576   -10.135158    12.612127     22.30075    14.235163 
  152000    313.80523    1.4669462    1.4669462            0            0            0            0    1.4669462    1221.6243    1223.0912    12.675843    22.479047    13.989609    18.986464    40.137987   -10.330636    12.612127     22.30075    14.235163 
  152200    308.11349     3.957316     3.957316            0            0            0            0     3.957316    1199.4667     1203.424    12.679092    22.478999    13.987623    19.311462    40.133106   -10.529322    12.612127     22.30075    14.235163 
  152400    316.59791   -6.6214957   -6.6214957            0            0            0            0   -6.6214957     1232.496    1225.8745    12.681798    22.479352    13.985173    19.582219    40.168444   -10.774378    12.612127     22.30075    14.235163 
  152600    321.15861    115.42301    115.42301            0            0            0            0    115.42301    1250.2505    1365.6735    12.684132    22.480431    13.982806    19.815703    40.276402   -11.011194    12.612127     22.30075    14.235163 
  152800    323.70182    164.70948    164.70948            0            0            0            0    164.70948    1260.1511    1424.8606    12.684314    22.483746    13.980918    19.833856    40.608074   -11.200077    12.612127     22.30075    14.235163 
  153000     317.1203    63.603956    63.603956            0            0            0            0    63.603956    1234.5296    1298.1336     12.68181    22.487931    13.978065    19.583412    41.026752   -11.485475    12.612127     22.30075    14.235163 
  153200    308.08281    187.98922    187.98922            0            0            0            0    187.98922    1199.3473    1387.3365    12.679369    22.493204     13.97466    19.339167    41.554285   -11.826139    12.612127     22.30075    14.235163 
  153400    305.04859     186.4374     186.4374            0            0            0            0     186.4374    1187.5352    1373.9726    12.676343    22.496081    13.970897    19.036477    41.842028   -12.202617    12.612127     22.30075    14.235163 
  153600    311.23575    9.8937478    9.8937478            0            0            0            0    9.8937478    1211.6214    1221.5152    12.672194     22.49823    13.968106    18.621388    42.057026   -12.481782    12.612127     22.30075    14.235163 
  153800     318.8776    53.445125    53.445125            0            0            0            0    53.445125    1241.3707    1294.8158     12.66778    22.500644    13.965655    18.179753     42.29857   -12.727015    12.612127     22.30075    14.235163 
  154000    315.17476   -20.692477   -20.692477            0            0            0            0   -20.692477    1226.9558    1206.2633    12.664536    22.502249    13.962667    17.855237    42.459163   -13.025951    12.612127     22.30075    14.235163 
  154200    306.77058    88.044985    88.044985            0            0            0            0    88.044985    1194.2388    1282.2838    12.661833    22.503471    13.959542    17.584829    42.581364   -13.338552    12.612127     22.30075    14.235163 
  154400    299.28589    126.34956    126.34956            0            0            0            0    126.34956    1165.1014     1291.451    12.660925    22.503243    13.956335    17.493972    42.558535   -13.659353    12.612127     22.30075    14.235163 
  154600    307.46947    29.411636    29.411636            0            0            0            0    29.411636    1196.9596    1226.3712    12.661203    22.503474    13.953754     17.52177    42.581678   -13.917598    12.612127     22.30075    14.235163 
  154800    306.96063    28.760624    28.760624            0            0            0            0    28.760624    1194.9787    1223.7393    12.660761    22.506143    13.952457    17.477582    42.848644   -14.047391    12.612127     22.30075    14.235163 
  155000    311.76636    20.493674    20.493674            0            0            0            0    20.493674    1213.6871    1234.1807    12.658894    22.509419    13.952243    17.290815    43.176417   -14.068735    12.612127     22.30075    14.235163 
  155200     301.2036    26.610157    26.610157            0            0            0            0    26.610157    1172.5669    1199.1771    12.657752     22.51255    13.952378    17.176605    43.489648   -14.055219    12.612127     22.30075    14.235163 
  155400    307.36376    106.64233    106.64233            0            0            0            0    106.64233     1196.548    1303.1904    12.658077    22.515622    13.952943    17.209134    43.797026   -13.998736    12.612127     22.30075    14.235163 
  155600    317.28359    33.028552    33.028552            0            0            0            0    33.028552    1235.1653    1268.1939    12.661705    22.515479    13.952685     17.57202    43.782677   -14.024586    12.612127     22.30075    14.235163 
  155800    336.59687    8.9976278    8.9976278            0            0            0            0    8.9976278    1310.3507    1319.3483    12.667445    22.512868    13.951742     18.14631    43.521449   -14.118843    12.612127     22.30075    14.235163 
  156000    309.77283    11.606886    11.606886            0            0            0            0    11.606886    1205.9264    1217.5333    12.673904    22.509099    13.950466    18.792449    43.144362   -14.246504    12.612127     22.30075    14.235163 
  156200    313.43854    261.46621    261.46621            0            0            0            0    261.46621    1220.1968     1481.663    12.678834    22.504383    13.948817    19.285674    42.672657   -14.411499    12.612127     22.30075    14.235163 
  156400    311.70783    35.507677    35.507677            0            0            0            0    35.507677    1213.4592    1248.9669    12.680596    22.501757    13.946029    19.461916    42.409906   -14.690389    12.612127     22.30075    14.235163 
  156600    307.16714    10.499208    10.499208            0            0            0            0    10.499208    1195.7826    1206.2818    12.681393    22.500721    13.943543    19.541642    42.306262   -14.939155    12.612127     22.30075    14.235163 
  156800     307.4957    38.519082    38.519082            0            0            0            0    38.519082    1197.0617    1235.5808    12.681371    22.499934    13.941562    19.539476    42.227545   -15.137326    12.612127     22.30075    14.235163 
  157000    313.25133    15.989111    15.989111            0            0            0            0    15.989111     1219.468    1235.4571    12.679927    22.498603    13.939573    19.395041    42.094384   -15.336332    12.612127     22.30075    14.235163 
  157200    319.87517    279.36209    279.36209            0            0            0            0    279.36209    1245.2542    1524.6163    12.677777    22.497749    13.937947    19.179883    42.008907   -15.499014    12.612127     22.30075    14.235163 
  157400    320.10515    30.702651    30.702651            0            0            0            0    30.702651    1246.1495    1276.8521    12.678137    22.499032    13.937414    19.215896    42.137273    -15.55228    12.612127     22.30075    14.235163 
  157600    309.25395    113.40893    113.40893            0            0            0            0    113.40893    1203.9064    1317.3154    12.677425     22.50098    13.936826    19.144683    42.332207   -15.611078    12.612127     22.30075    14.235163 
  157800    321.41256    274.14176    274.14176            0            0            0            0    274.14176    1251.2392    1525.3809     12.67529    22.500278    13.934938     18.93116    42.261905   -15.799947    12.612127     22.30075    14.235163 
  158000    311.08827    1.2074196    1.2074196            0            0            0            0    1.2074196    1211.0473    1212.2547    12.673805    22.496939    13.932948    18.782596    41.927862   -15.999085    12.612127     22.30075    14.235163 
  158200     308.7109    157.68484    157.68484            0            0            0            0    157.68484    1201.7924    1359.4772    12.672286     22.49406    13.931285    18.630592    41.639835   -16.165459    12.612127     22.30075    14.235163 
  158400    323.35775    9.2504167    9.2504167            0            0            0            0    9.2504167    1258.8117    1268.0621    12.667581    22.490501    13.929335    18.159881    41.283807   -16.360579    12.612127     22.30075    14.235163 
  158600     314.8851    24.023136    24.023136            0            0            0            0    24.023136    1225.8282    1249.8513    12.662102    22.487457    13.927188    17.611775    40.979312   -16.575273    12.612127     22.30075    14.235163 
  158800    312.18877    14.152251    14.152251            0            0            0            0    14.152251    1215.3315    1229.4838    12.657621    22.485303    13.925052    17.163469     40.76383   -16.789013    12.612127     22.30075    14.235163 
  159000    310.52853    124.12349    124.12349            0            0            0            0    124.12349    1208.8683    1332.9918    12.654497    22.484241    13.923042    16.850933    40.657522   -16.990048    12.612127     22.30075    14.235163 
  159200    309.05161    68.320243    68.320243            0            0            0            0    68.320243    1203.1187     1271.439    12.652738    22.485581    13.920846     16.67495    40.791647   -17.209821    12.612127     22.30075    14.235163 
  159400    317.20325    71.936365    71.936365            0            0            0            0    71.936365    1234.8526    1306.7889    12.653488    22.487361    13.918587    16.749989    40.969686   -17.435777    12.612127     22.30075    14.235163 
  159600    315.39043    54.438436    54.438436            0            0            0            0    54.438436    1227.7954    1282.2338    12.656493    22.489853    13.916746    17.050613    41.218964   -17.619916    12.612127     22.30075    14.235163 
  159800    313.90702    44.609623    44.609623            0            0            0            0    44.609623    1222.0205    1266.6302     12.66136    22.492216    13.914586    17.537493    41.455372   -17.836088    12.612127     22.30075    14.235163 
  160000    317.95463    138.49904    138.49904            0            0            0            0    138.49904    1237.7776    1376.2767    12.666732    22.494459    13.912618    18.074998    41.679789   -18.032909    12.612127     22.30075    14.235163 
  160200    302.40765     110.3495     110.3495            0            0            0            0     110.3495    1177.2542    1287.6037    12.671464    22.497573    13.910429    18.548322    41.991327    -18.25196    12.612127     22.30075    14.235163 
  160400    314.71164    124.74985    124.74985            0            0            0            0    124.74985    1225.1529    1349.9027    12.673624    22.500431     13.90793    18.764466    42.277283   -18.501885    12.612127     22.30075    14.235163 
  160600    321.21692    28.943304    28.943304            0            0            0            0    28.943304    1250.4775    1279.4208    12.673004    22.503049    13.905873    18.702428    42.539157    -18.70773    12.612127     22.30075    14.235163 
  160800    311.78557   -7.5698903   -7.5698903            0            0            0            0   -7.5698903    1213.7619     1206.192     12.67245    22.504355    13.903122    18.647017     42.66982   -18.982911    12.612127     22.30075    14.235163 
  161000    311.77602    20.319718    20.319718            0            0            0            0    20.319718    1213.7247    1234.0444    12.671923    22.506044    13.900218    18.594277    42.838778   -19.273413    12.612127     22.30075    14.235163 
  161200    320.85771    -14.97052    -14.97052            0            0            0            0    -14.97052    1249.0791    1234.1086    12.671332    22.508781    13.897062     18.53519     43.11257   -19.589218    12.612127     22.30075    14.235163 
  161400    296.34199     94.69701     94.69701            0            0            0            0     94.69701     1153.641     1248.338     12.67073    22.511824    13.893769    18.474914    43.417054   -19.918672    12.612127     22.30075    14.235163 
  161600    311.72162    153.07631    153.07631            0            0            0            0    153.07631    1213.5129    1366.5892      12.6711    22.511737    13.890472    18.511921    43.408321   -20.248504    12.612127     22.30075    14.235163 
  161800    325.45178    58.963251    58.963251            0            0            0            0    58.963251    1266.9636    1325.9268    12.672434    22.507453    13.887973     18.64544    42.979777   -20.498428    12.612127     22.30075    14.235163 
  162000    308.88108    153.29034    153.29034            0            0            0            0    153.29034    1202.4549    1355.7452    12.674497    22.502007    13.885066    18.851756    42.434941   -20.789341    12.612127     22.30075    14.235163 
  162200    319.87438    82.007137    82.007137            0            0            0            0    82.007137    1245.2511    1327.2582    12.675743    22.497479    13.881693    18.976431    41.981887   -21.126774    12.612127     22.30075    14.235163 
  162400    310.27698    104.80859    104.80859            0            0            0            0    104.80859     1207.889    1312.6976     12.67655    22.493112    13.878524    19.057155    41.545063   -21.443785    12.612127     22.30075    14.235163 
  162600    299.40571     4.553021     4.553021            0            0            0            0     4.553021    1165.5678    1170.1208    12.677821    22.488898    13.876277    19.184298    41.123434   -21.668578    12.612127     22.30075    14.235163 
  162800    306.46524    228.46606    228.46606            0            0            0            0    228.46606    1193.0502    1421.5162    12.680112    22.485623    13.874092     19.41348    40.795804   -21.887189    12.612127     22.30075    14.235163 
  163000    311.07839    74.593703    74.593703            0            0            0            0    74.593703    1211.0089    1285.6026    12.681482    22.486751    13.871325    19.550596    40.908648    -22.16397    12.612127     22.30075    14.235163 
  163200    315.45736    2.2017467    2.2017467            0            0            0            0    2.2017467    1228.0559    1230.2577    12.679905    22.489127    13.867459    19.392814    41.146418   -22.550718    12.612127     22.30075    14.235163 
  163400    310.30231    11.197374    11.197374            0            0            0            0    11.197374    1207.9876     1219.185    12.677652    22.491132    13.863351    19.167431     41.34697   -22.961684    12.612127     22.30075    14.235163 
  163600    312.99762    50.062145    50.062145            0            0            0            0    50.062145    1218.4803    1268.5425    12.674448    22.493261     13.85912    18.846913    41.559931   -23.385028    12.612127     22.30075    14.235163 
  163800    311.81096    137.05721    137.05721            0            0            0            0    137.05721    1213.8607    1350.9179      12.6696    22.495949    13.854751    18.361898    41.828905   -23.822103    12.612127     22.30075    14.235163 
  164000    312.93403    160.29333    160.29333            0            0            0            0    160.29333    1218.2328    1378.5261    12.663751     22.50038    13.850949    17.776705    42.272167   -24.202419    12.612127     22.30075    14.235163 
  164200    311.23256    286.56687    286.56687            0            0            0            0    286.56687     1211.609    1498.1759    12.660959    22.503203    13.848202    17.497431    42.554572   -24.477255    12.612127     22.30075    14.235163 
  164400    326.02041    74.237669    74.237669            0            0            0            0    74.237669    1269.1772    1343.4149    12.660097    22.501033    13.845994    17.411135      42.3375   -24.698168    12.612127     22.30075    14.235163 
  164600    307.28031    11.665945    11.665945            0            0            0            0    11.665945    1196.2232    1207.8891    12.660282    22.497871    13.844243    17.429641    42.021167   -24.873274    12.612127     22.30075    14.235163 
  164800    315.29261    -17.13567    -17.13567            0            0            0            0    -17.13567    1227.4146    1210.2789    12.660595    22.495156    13.842479    17.461028     41.74949   -25.049815    12.612127     22.30075    14.235163 
  165000    296.34547   -12.678696   -12.678696            0            0            0            0   -12.678696    1153.6545    1140.9758     12.66078     22.49268    13.840666     17.47954    41.501805   -25.231193    12.612127     22.30075    14.235163 
  165200    311.66082    193.07396    193.07396            0            0            0            0    193.07396    1213.2762    1406.3502    12.660514    22.490591    13.838852    17.452904    41.292825   -25.412642    12.612127     22.30075    14.235163 
  165400    311.11325    224.29049    224.29049            0            0            0            0    224.29049    1211.1446     1435.435    12.660752    22.491024    13.834731    17.476734    41.336188   -25.824902    12.612127     22.30075    14.235163 
  165600    307.13227    31.820354    31.820354            0            0            0            0    31.820354    1195.6469    1227.4672    12.662509    22.494919    13.830389    17.652437    41.725835   -26.259254    12.612127     22.30075    14.235163 
  165800    315.36797   -14.400326   -14.400326            0            0            0            0   -14.400326    1227.7079    1213.3076    12.665454    22.498613     13.82672    17.947132    42.095368   -26.626336    12.612127     22.30075    14.235163 
  166000    307.51712    79.751911    79.751911            0            0            0            0    79.751911     1197.145     1276.897    12.668386    22.502314    13.822816    18.240409    42.465608   -27.016903    12.612127     22.30075    14.235163 
  166200    318.49262    93.697073    93.697073            0            0            0            0    93.697073     1239.872    1333.5691     12.67063    22.506582    13.818401    18.464899    42.892649    -27.45861    12.612127     22.30075    14.235163 
  166400    310.28439    97.539377    97.539377            0            0            0            0    97.539377    1207.9179    1305.4573    12.673358    22.509412    13.813933     18.73782    43.175676   -27.905625    12.612127     22.30075    14.235163 
  166600    314.19138    117.65851    117.65851            0            0            0            0    117.65851    1223.1275     1340.786     12.67548    22.510095    13.809245    18.950108    43.244023   -28.374541    12.612127     22.30075    14.235163 
  166800    310.95143   -6.4815719   -6.4815719            0            0            0            0   -6.4815719    1210.5146     1204.033    12.676492    22.509024     13.80494    19.051319    43.136886   -28.805272    12.612127     22.30075    14.235163 
  167000     308.7232   -9.6084909   -9.6084909            0            0            0            0   -9.6084909    1201.8403    1192.2318    12.676959    22.507359    13.801204    19.098099    42.970368   -29.179024    12.612127     22.30075    14.235163 
  167200    301.57971    127.43268    127.43268            0            0            0            0    127.43268    1174.0311    1301.4638     12.67838    22.505459    13.798001    19.240244    42.780255    -29.49949    12.612127     22.30075    14.235163 
  167400    322.07408    148.79187    148.79187            0            0            0            0    148.79187    1253.8144    1402.6063    12.678456    22.503424    13.795218    19.247794     42.57664   -29.777856    12.612127     22.30075    14.235163 
  167600    313.32805    7.6234614    7.6234614            0            0            0            0    7.6234614    1219.7666    1227.3901    12.675889    22.500582    13.792345    18.990999    42.292352   -30.065304    12.612127     22.30075    14.235163 
  167800     317.6775    376.10574    376.10574            0            0            0            0    376.10574    1236.6988    1612.8045    12.672038    22.498091    13.789362    18.605779    42.043105   -30.363723    12.612127     22.30075    14.235163 
  168000    313.13179   -18.037768   -18.037768            0            0            0            0   -18.037768    1219.0026    1200.9649    12.667981    22.499968    13.786469     18.19987    42.230958   -30.653166    12.612127     22.30075    14.235163 
  168200    313.55071    73.854401    73.854401            0            0            0            0    73.854401    1220.6335    1294.4879    12.664172    22.502026    13.783702    17.818795    42.436843   -30.929985    12.612127     22.30075    14.235163 
  168400     302.2724    77.373237    77.373237            0            0            0            0    77.373237    1176.7277    1254.1009    12.660933    22.503464    13.781333    17.494793    42.580623   -31.166953    12.612127     22.30075    14.235163 
  168600     310.4354    32.796775    32.796775            0            0            0            0    32.796775    1208.5058    1241.3025    12.657701    22.505056    13.780053    17.171441    42.739955      -31.295    12.612127     22.30075    14.235163 
  168800    298.21173    38.320816    38.320816            0            0            0            0    38.320816    1160.9197    1199.2406    12.654886    22.507341    13.779333    16.889818    42.968505   -31.367024    12.612127     22.30075    14.235163 
  169000    316.34627    130.92055    130.92055            0            0            0            0    130.92055    1231.5164    1362.4369    12.653708    22.506911    13.777991    16.772007    42.925475   -31.501262    12.612127     22.30075    14.235163 
  169200     310.7996    92.282494    92.282494            0            0            0            0    92.282494    1209.9236     1302.206     12.65466    22.503504    13.776411    16.867233    42.584684   -31.659369    12.612127     22.30075    14.235163 
  169400     315.3968    107.02764    107.02764            0            0            0            0    107.02764    1227.8202    1334.8478    12.657178    22.500332    13.775561    17.119194    42.267311   -31.744407    12.612127     22.30075    14.235163 
  169600    305.36815     13.75015     13.75015            0            0            0            0     13.75015    1188.7792    1202.5294    12.662602    22.497125    13.775038    17.661772    41.946534   -31.796736    12.612127     22.30075    14.235163 
  169800    314.10425     167.3956     167.3956            0            0            0            0     167.3956    1222.7883    1390.1839    12.669162    22.493692    13.774622    18.318077    41.603095    -31.83833    12.612127     22.30075    14.235163 
  170000    306.48018    47.626291    47.626291            0            0            0            0    47.626291    1193.1083    1240.7346    12.674836    22.488339    13.774706    18.885668    41.067583    -31.82996    12.612127     22.30075    14.235163 
  170200     308.9294    234.86971    234.86971            0            0            0            0    234.86971     1202.643    1437.5127    12.678262     22.48371    13.775111    19.228454    40.604472   -31.789399    12.612127     22.30075    14.235163 
  170400    319.73912    27.509179    27.509179            0            0            0            0    27.509179    1244.7245    1272.2337     12.67984    22.481315    13.777525    19.386277    40.364837   -31.547862    12.612127     22.30075    14.235163 
  170600    317.44368    50.026798    50.026798            0            0            0            0    50.026798    1235.7885    1285.8153    12.680992    22.480975    13.780246    19.501593    40.330835   -31.275667    12.612127     22.30075    14.235163 
  170800    316.57587     83.74026     83.74026            0            0            0            0     83.74026    1232.4102    1316.1505    12.682239    22.482498    13.783194    19.626285     40.48316   -30.980759    12.612127     22.30075    14.235163 
  171000    310.14348   -2.7127987   -2.7127987            0            0            0            0   -2.7127987    1207.3693    1204.6565     12.68426    22.484792    13.787021    19.828531    40.712725   -30.597864    12.612127     22.30075    14.235163 
  171200    312.93889    136.73492    136.73492            0            0            0            0    136.73492    1218.2517    1354.9866    12.685743    22.487696    13.791069    19.976845    41.003249   -30.192924    12.612127     22.30075    14.235163 
  171400    320.48212    21.803378    21.803378            0            0            0            0    21.803378     1247.617    1269.4204     12.68611    22.492809    13.794252    20.013515    41.514679   -29.874541    12.612127     22.30075    14.235163 
  171600    306.30256    3.6547228    3.6547228            0            0            0            0    3.6547228    1192.4168    1196.0716    12.685966    22.497872    13.797055    19.999132    42.021251   -29.594099    12.612127     22.30075    14.235163 
  171800    305.81851    87.198143    87.198143            0            0            0            0    87.198143    1190.5325    1277.7306    12.687056    22.501828    13.800224    20.108231    42.417043   -29.277039    12.612127     22.30075    14.235163 
  172000    317.28463    93.403667    93.403667            0            0            0            0    93.403667    1235.1694    1328.5731    12.688083    22.503093    13.803912    20.210994    42.543559   -28.908096    12.612127     22.30075    14.235163 
  172200    299.76581    107.32894    107.32894            0            0            0            0    107.32894    1166.9697    1274.2986     12.68751    22.504124    13.807669    20.153639    42.646652   -28.532274    12.612127     22.30075    14.235163 
  172400    305.37464    12.970566    12.970566            0            0            0            0    12.970566    1188.8045    1201.7751    12.685939    22.504081    13.809351    19.996479    42.642388   -28.363989    12.612127     22.30075    14.235163 
  172600    331.23561    72.092406    72.092406            0            0            0            0    72.092406    1289.4797    1361.5721    12.682843    22.502372    13.810495    19.686752     42.47142   -28.249536    12.612127     22.30075    14.235163 
  172800    307.79606   -2.6755229   -2.6755229            0            0            0            0   -2.6755229    1198.2309    1195.5554    12.678305    22.499188    13.812304    19.232714    42.152891   -28.068523    12.612127     22.30075    14.235163 
  173000    312.14727  -0.24524863  -0.24524863            0            0            0            0  -0.24524863      1215.17    1214.9247    12.673863    22.495728    13.814562    18.788374    41.806761   -27.842656    12.612127     22.30075    14.235163 
  173200    320.00877     89.06372     89.06372            0            0            0            0     89.06372    1245.7743     1334.838    12.669886    22.493465    13.816793    18.390531    41.580345   -27.619427    12.612127     22.30075    14.235163 
  173400    312.68724    70.271947    70.271947            0            0            0            0    70.271947     1217.272     1287.544    12.665426    22.494994    13.818953     17.94427    41.733267   -27.403362    12.612127     22.30075    14.235163 
  173600    301.53905    107.48154    107.48154            0            0            0            0    107.48154    1173.8728    1281.3543     12.66008    22.499067     13.82215    17.409474     42.14081   -27.083558    12.612127     22.30075    14.235163 
  173800     320.2695    6.6341227    6.6341227            0            0            0            0    6.6341227    1246.7893    1253.4234    12.656207    22.504562    13.826318     17.02205    42.690481   -26.666512    12.612127     22.30075    14.235163 
  174000    310.12897    97.007874    97.007874            0            0            0            0    97.007874    1207.3128    1304.3207    12.653486    22.509367    13.831063    16.749843    43.171252   -26.191818    12.612127     22.30075    14.235163 
  174200    328.63877     278.2478     278.2478            0            0            0            0     278.2478    1279.3703    1557.6181    12.651364    22.511794    13.836242    16.537533    43.414071   -25.673756    12.612127     22.30075    14.235163 
  174400    319.82209    133.70389    133.70389            0            0            0            0    133.70389    1245.0475    1378.7514    12.651173    22.511723    13.841072    16.518402    43.406935   -25.190543    12.612127     22.30075    14.235163 
  174600    309.67231    9.5004995    9.5004995            0            0            0            0    9.5004995    1205.5351    1215.0356    12.654143    22.509765    13.845146    16.815531    43.211045   -24.783017    12.612127     22.30075    14.235163 
  174800    310.06008   -9.4850726   -9.4850726            0            0            0            0   -9.4850726    1207.0446    1197.5596     12.65825    22.508239    13.848823    17.226346     43.05842   -24.415087    12.612127     22.30075    14.235163 
  175000     314.5197    141.87666    141.87666            0            0            0            0    141.87666    1224.4057    1366.2823     12.66301    22.506492    13.852177    17.702551    42.883568   -24.079545    12.612127     22.30075    14.235163 
  175200    302.64962    105.64809    105.64809            0            0            0            0    105.64809    1178.1962    1283.8443    12.669719    22.502838    13.854729    18.373777    42.518086   -23.824257    12.612127     22.30075    14.235163 
  175400    317.56253    99.371714    99.371714            0            0            0            0    99.371714    1236.2512    1335.6229    12.674905    22.497909    13.856969    18.892617    42.024912   -23.600212    12.612127     22.30075    14.235163 
  175600    307.94085    165.76007    165.76007            0            0            0            0    165.76007    1198.7946    1364.5547    12.679198    22.491467    13.858693    19.322041    41.380481   -23.427686    12.612127     22.30075    14.235163 
  175800    315.84248    245.18095    245.18095            0            0            0            0    245.18095    1229.5552    1474.7361    12.681892    22.488534    13.861292    19.591557     41.08709   -23.167727    12.612127     22.30075    14.235163 
  176000    312.28835    49.540147    49.540147            0            0            0            0    49.540147    1215.7192    1265.2593    12.683743    22.491172    13.863722    19.776716    41.350905   -22.924584    12.612127     22.30075    14.235163 
  176200    308.01879   -9.5197522   -9.5197522            0            0            0            0   -9.5197522     1199.098    1189.5783    12.685541    22.495648    13.865565    19.956675    41.798761    -22.74024    12.612127     22.30075    14.235163 
  176400    320.16052   0.86705463   0.86705463            0            0            0            0   0.86705463     1246.365    1247.2321    12.687355    22.500283    13.867345    20.138132    42.262484   -22.562186    12.612127     22.30075    14.235163 
  176600    316.43513    570.37207    570.37207            0            0            0            0    570.37207    1231.8623    1802.2344    12.688195    22.504473    13.869212    20.222185    42.681644   -22.375361    12.612127     22.30075    14.235163 
  176800    336.84456    95.221667    95.221667            0            0            0            0    95.221667    1311.3149    1406.5366    12.684791    22.507328    13.872381    19.881619    42.967233   -22.058346    12.612127     22.30075    14.235163 
  177000     314.7626    -1.941231    -1.941231            0            0            0            0    -1.941231    1225.3513      1223.41    12.682577    22.510828    13.876352    19.660164    43.317375   -21.661027    12.612127     22.30075    14.235163 
  177200    311.19955    12.346655    12.346655            0            0            0            0    12.346655    1211.4805    1223.8272    12.679883    22.514017    13.880405    19.390649    43.636415   -21.255571    12.612127     22.30075    14.235163 
  177400    326.20478    50.491017    50.491017            0            0            0            0    50.491017     1269.895     1320.386    12.676649    22.516119    13.884318    19.067097    43.846732   -20.864105    12.612127     22.30075    14.235163 
  177600    322.15835    50.730441    50.730441            0            0            0            0    50.730441    1254.1425    1304.8729    12.673594    22.516366    13.887409    18.761439    43.871394    -20.55488    12.612127     22.30075    14.235163 
  177800    309.62619    206.23314    206.23314            0            0            0            0    206.23314    1205.3555    1411.5887    12.670579    22.514463    13.890534    18.459841    43.681015   -20.242241    12.612127     22.30075    14.235163 
  178000    307.87227    206.45813    206.45813            0            0            0            0    206.45813    1198.5276    1404.9858    12.668247    22.510407    13.894503    18.226546    43.275234    -19.84516    12.612127     22.30075    14.235163 
  178200    310.42093    25.102448    25.102448            0            0            0            0    25.102448    1208.4494    1233.5518     12.66803    22.507626    13.899026    18.204794    42.997049   -19.392726    12.612127     22.30075    14.235163 
  178400    317.28254    76.022956    76.022956            0            0            0            0    76.022956    1235.1612    1311.1842    12.668514    22.504397     13.90359    18.253229    42.673975   -18.936163    12.612127     22.30075    14.235163 
  178600    301.08125   -6.3624587   -6.3624587            0            0            0            0   -6.3624587    1172.0906    1165.7282    12.669483    22.502257    13.907878    18.350171     42.45995   -18.507146    12.612127     22.30075    14.235163 
  178800    298.27702   -21.424411   -21.424411            0            0            0            0   -21.424411    1161.1739    1139.7495    12.670697    22.500466     13.91191    18.471576    42.280719    -18.10374    12.612127     22.30075    14.235163 
  179000    336.82097    206.78599    206.78599            0            0            0            0    206.78599    1311.2231    1518.0091    12.671514     22.49834     13.91581    18.553377    42.068059   -17.713592    12.612127     22.30075    14.235163 
  179200    305.48407    157.27469    157.27469            0            0            0            0    157.27469    1189.2305    1346.5052    12.668934    22.494992    13.917869     18.29529    41.733088   -17.507567    12.612127     22.30075    14.235163 
  179400    318.24691   -10.941419   -10.941419            0            0            0            0   -10.941419    1238.9155    1227.9741    12.666442     22.49322    13.918635    18.045945     41.55586   -17.431008    12.612127     22.30075    14.235163 
  179600    304.54093    7.7380999    7.7380999            0            0            0            0    7.7380999     1185.559    1193.2971    12.664759    22.491146    13.919055    17.877565    41.348381   -17.389011    12.612127     22.30075    14.235163 
  179800    314.97802    154.49776    154.49776            0            0            0            0    154.49776    1226.1899    1380.6877    12.663747    22.489909    13.919492    17.776315    41.224567   -17.345263    12.612127     22.30075    14.235163 
  180000    304.63584    68.984079    68.984079            0            0            0            0    68.984079    1185.9284    1254.9125    12.663562    22.491762    13.919572    17.757769    41.410001   -17.337254    12.612127     22.30075    14.235163 
  180200    322.54194    138.16736    138.16736            0            0            0            0    138.16736    1255.6358    1393.8031    12.663895    22.493352    13.919462      17.7911    41.569021   -17.348213    12.612127     22.30075    14.235163 
  180400     314.9343    130.73351    130.73351            0            0            0            0    130.73351    1226.0197    1356.7532    12.664572    22.495378    13.918675    17.858853    41.771705   -17.427017    12.612127     22.30075    14.235163 
  180600    314.95119    83.222598    83.222598            0            0            0            0    83.222598    1226.0854     1309.308    12.665029    22.497326    13.918667    17.904551    41.966567    -17.42775    12.612127     22.30075    14.235163 
  180800     295.3178    92.435387    92.435387            0            0            0            0    92.435387    1149.6539    1242.0893    12.663816    22.499161    13.918888    17.783275    42.150188   -17.405675    12.612127     22.30075    14.235163 
  181000     317.4324    35.661486    35.661486            0            0            0            0    35.661486    1235.7446    1271.4061    12.664197    22.501008    13.918468    17.821373    42.334931   -17.447734    12.612127     22.30075    14.235163 
  181200    310.40428    19.167139    19.167139            0            0            0            0    19.167139    1208.3846    1227.5517    12.665611    22.503784    13.917573    17.962842    42.612717   -17.537204    12.612127     22.30075    14.235163 
  181400    300.65338    28.346535    28.346535            0            0            0            0    28.346535    1170.4249    1198.7715    12.667706    22.505573    13.916669      18.1724    42.791622   -17.627704    12.612127     22.30075    14.235163 
  181600     304.8077    131.13017    131.13017            0            0            0            0    131.13017    1186.5974    1317.7276    12.670628    22.505718    13.915911    18.464704    42.806176   -17.703514    12.612127     22.30075    14.235163 
  181800     326.2375     209.2946     209.2946            0            0            0            0     209.2946    1270.0224     1479.317    12.672334    22.503387    13.914752     18.63541    42.572987   -17.819489    12.612127     22.30075    14.235163 
  182000    312.39934    2.6968646    2.6968646            0            0            0            0    2.6968646    1216.1513    1218.8481    12.674762    22.501962    13.912217    18.878271    42.430411   -18.073024    12.612127     22.30075    14.235163 
  182200    318.06056    209.46811    209.46811            0            0            0            0    209.46811      1238.19    1447.6581    12.677505     22.50171    13.909854    19.152725     42.40524   -18.309406    12.612127     22.30075    14.235163 
  182400    320.16169    8.3349373    8.3349373            0            0            0            0    8.3349373    1246.3696    1254.7045    12.677041    22.503323    13.907581    19.106262    42.566525   -18.536838    12.612127     22.30075    14.235163 
  182600    322.03517   -24.141802   -24.141802            0            0            0            0   -24.141802    1253.6629    1229.5211    12.675745    22.505103    13.905355    18.976617    42.744602    -18.75957    12.612127     22.30075    14.235163 
  182800    304.62961    134.93851    134.93851            0            0            0            0    134.93851    1185.9041    1320.8427    12.674491    22.506358    13.903076    18.851158    42.870219   -18.987517    12.612127     22.30075    14.235163 
  183000    308.79343    22.870039    22.870039            0            0            0            0    22.870039    1202.1136    1224.9837    12.672786    22.504877    13.900872    18.680587    42.722052   -19.208044    12.612127     22.30075    14.235163 
  183200    318.37297    119.67767    119.67767            0            0            0            0    119.67767    1239.4062    1359.0839    12.670487    22.502326    13.898364    18.450615    42.466799   -19.458965    12.612127     22.30075    14.235163 
  183400    313.65981    167.61533    167.61533            0            0            0            0    167.61533    1221.0582    1388.6735     12.66872    22.500189    13.894271    18.273858    42.252989   -19.868402    12.612127     22.30075    14.235163 
  183600     317.8713    66.790218    66.790218            0            0            0            0    66.790218    1237.4533    1304.2435    12.667155    22.496842    13.890386    18.117265    41.918238   -20.257055    12.612127     22.30075    14.235163 
  183800    309.53354    101.87443    101.87443            0            0            0            0    101.87443    1204.9949    1306.8693    12.666651    22.493956    13.886651    18.066819    41.629509   -20.630774    12.612127     22.30075    14.235163 
  184000     312.6824    136.10121    136.10121            0            0            0            0    136.10121    1217.2532    1353.3544    12.668289    22.492011    13.883495    18.230749    41.434871   -20.946479    12.612127     22.30075    14.235163 
  184200    315.67707    104.62143    104.62143            0            0            0            0    104.62143    1228.9112    1333.5326    12.671083     22.49054    13.881812    18.510217    41.287687   -21.114784    12.612127     22.30075    14.235163 
  184400    309.67591    99.069969    99.069969            0            0            0            0    99.069969    1205.5491    1304.6191    12.672936    22.490772     13.88057    18.695642    41.310916   -21.239046    12.612127     22.30075    14.235163 
  184600    315.30576     148.7863     148.7863            0            0            0            0     148.7863    1227.4657     1376.252    12.674144    22.493279    13.878345    18.816441    41.561702   -21.461643    12.612127     22.30075    14.235163 
  184800    323.37232   -24.797747   -24.797747            0            0            0            0   -24.797747    1258.8684    1234.0706    12.672595    22.497467    13.876274    18.661464     41.98073   -21.668897    12.612127     22.30075    14.235163 
  185000    312.75484    238.64662    238.64662            0            0            0            0    238.64662    1217.5352    1456.1818    12.670227    22.501852    13.874387    18.424554    42.419426   -21.857607    12.612127     22.30075    14.235163 
  185200    301.81928   -10.362226   -10.362226            0            0            0            0   -10.362226    1174.9637    1164.6015    12.665004    22.504681    13.873594    17.902121    42.702394   -21.936996    12.612127     22.30075    14.235163 
  185400    308.45455    81.751194    81.751194            0            0            0            0    81.751194    1200.7944    1282.5456    12.659679    22.506909    13.873668    17.369395    42.925278   -21.929528    12.612127     22.30075    14.235163 
  185600    312.36443    70.014392    70.014392            0            0            0            0    70.014392    1216.0153    1286.0297    12.653783    22.508843    13.875157    16.779495    43.118825   -21.780576    12.612127     22.30075    14.235163 
  185800    308.74576    112.63609    112.63609            0            0            0            0    112.63609    1201.9281    1314.5642    12.650794     22.50942    13.877693    16.480466     43.17656    -21.52694    12.612127     22.30075    14.235163 
  186000    321.10145    125.86233    125.86233            0            0            0            0    125.86233     1250.028    1375.8903    12.651438    22.508009    13.879609    16.544943    43.035384     -21.3352    12.612127     22.30075    14.235163 
  186200    320.60974    213.58829    213.58829            0            0            0            0    213.58829    1248.1138    1461.7021    12.654634    22.505389    13.880672    16.864618    42.773293   -21.228899    12.612127     22.30075    14.235163 
  186400    317.58597   -4.1687651   -4.1687651            0            0            0            0   -4.1687651    1236.3425    1232.1737    12.660673    22.503186    13.881962    17.468781    42.552856    -21.09978    12.612127     22.30075    14.235163 
  186600    311.58496   -8.3664223   -8.3664223            0            0            0            0   -8.3664223    1212.9809    1204.6145    12.667198    22.500899    13.883372    18.121577    42.324061   -20.958783    12.612127     22.30075    14.235163 
  186800    312.92651    20.702925    20.702925            0            0            0            0    20.702925    1218.2035    1238.9064    12.673738    22.498364      13.8848    18.775862    42.070465   -20.815885    12.612127     22.30075    14.235163 
  187000    310.79851    22.075399    22.075399            0            0            0            0    22.075399    1209.9193    1231.9947    12.679584    22.495499    13.885858    19.360711    41.783832   -20.710083    12.612127     22.30075    14.235163 
  187200     307.9998    49.260647    49.260647            0            0            0            0    49.260647    1199.0241    1248.2847    12.684416    22.493209    13.887342    19.844058    41.554718   -20.561568    12.612127     22.30075    14.235163 
  187400    314.10183    109.29952    109.29952            0            0            0            0    109.29952    1222.7789    1332.0784    12.686211    22.491318     13.88929    20.023628    41.365528    -20.36671    12.612127     22.30075    14.235163 
  187600    297.61092    57.028828    57.028828            0            0            0            0    57.028828    1158.5808    1215.6097    12.685372    22.490198    13.891078    19.939776    41.253547    -20.18781    12.612127     22.30075    14.235163 
  187800    308.42232    78.858385    78.858385            0            0            0            0    78.858385     1200.669    1279.5274    12.682872    22.489611     13.89226    19.689629    41.194764    -20.06957    12.612127     22.30075    14.235163 
  188000    316.40077    8.5716108    8.5716108            0            0            0            0    8.5716108    1231.7286    1240.3002    12.677768     22.48924     13.89278    19.178967    41.157705   -20.017527    12.612127     22.30075    14.235163 
  188200    309.00748    93.232505    93.232505            0            0            0            0    93.232505    1202.9469    1296.1794    12.672175    22.489654    13.893398    18.619443    41.199137   -19.955759    12.612127     22.30075    14.235163 
  188400    307.02106   -10.358816   -10.358816            0            0            0            0   -10.358816    1195.2139    1184.8551    12.669027     22.49093    13.894406    18.304572    41.326701   -19.854915    12.612127     22.30075    14.235163 
  188600    311.55924    257.44822    257.44822            0            0            0            0    257.44822    1212.8808     1470.329     12.66757     22.49248    13.895293    18.158787    41.481813   -19.766138    12.612127     22.30075    14.235163 
  188800    306.42237    15.763561    15.763561            0            0            0            0    15.763561    1192.8833    1208.6468    12.667314     22.49464    13.895086    18.133172    41.697868   -19.786832    12.612127     22.30075    14.235163 
  189000    314.64961    22.560776    22.560776            0            0            0            0    22.560776    1224.9114    1247.4722    12.667102     22.49715    13.894834    18.111946    41.949041   -19.812129    12.612127     22.30075    14.235163 
  189200     322.8339    106.03669    106.03669            0            0            0            0    106.03669    1256.7724     1362.809    12.667611    22.499418    13.894364    18.162843    42.175917   -19.859118    12.612127     22.30075    14.235163 
  189400     309.0415      118.742      118.742            0            0            0            0      118.742    1203.0794    1321.8214    12.668557    22.500624    13.893086    18.257532     42.29655   -19.986949    12.612127     22.30075    14.235163 
  189600    308.48265    94.674445    94.674445            0            0            0            0    94.674445    1200.9038    1295.5783     12.66855     22.50106    13.891393    18.256785    42.340216   -20.156305    12.612127     22.30075    14.235163 
  189800    311.95345    32.253129    32.253129            0            0            0            0    32.253129    1214.4154    1246.6686    12.671208    22.501459    13.889505    18.522765    42.380115   -20.345237    12.612127     22.30075    14.235163 
  190000    330.94725    38.606978    38.606978            0            0            0            0    38.606978    1288.3571    1326.9641    12.674594    22.502137    13.887174     18.86153    42.447913   -20.578379    12.612127     22.30075    14.235163 
  190200    309.32239    41.906925    41.906925            0            0            0            0    41.906925    1204.1729    1246.0798    12.677661     22.50345    13.884415    19.168327    42.579304   -20.854432    12.612127     22.30075    14.235163 
  190400    303.88597   -18.345772   -18.345772            0            0            0            0   -18.345772    1183.0092    1164.6634    12.680874     22.50556    13.881773    19.489748    42.790377   -21.118722    12.612127     22.30075    14.235163 
  190600    312.89742    40.811879    40.811879            0            0            0            0    40.811879    1218.0902    1258.9021    12.684311    22.507408    13.879098    19.833634    42.975249   -21.386382    12.612127     22.30075    14.235163 
  190800     306.3563     97.84871     97.84871            0            0            0            0     97.84871    1192.6261    1290.4748    12.686745     22.50797    13.875458    20.077099    43.031455   -21.750481    12.612127     22.30075    14.235163 
  191000    313.81516    172.67575    172.67575            0            0            0            0    172.67575     1221.663    1394.3387    12.686163    22.507438    13.871176    20.018889    42.978206   -22.178913    12.612127     22.30075    14.235163 
  191200    308.60158    145.38533    145.38533            0            0            0            0    145.38533    1201.3668    1346.7521     12.68351    22.505356    13.868602    19.753419    42.769958   -22.436424    12.612127     22.30075    14.235163 
  191400    315.74594    57.273601    57.273601            0            0            0            0    57.273601    1229.1794     1286.453    12.680874    22.504165    13.867787    19.489762    42.650768   -22.517943    12.612127     22.30075    14.235163 
  191600    317.86639    28.352485    28.352485            0            0            0            0    28.352485    1237.4341    1265.7866    12.677829    22.503828    13.867359    19.185131    42.617063   -22.560687    12.612127     22.30075    14.235163 
  191800    310.43736    98.266979    98.266979            0            0            0            0    98.266979    1208.5134    1306.7803    12.674829    22.503585    13.866913    18.884943    42.592824   -22.605398    12.612127     22.30075    14.235163 
  192000    306.01823   -8.5047729   -8.5047729            0            0            0            0   -8.5047729      1191.31    1182.8052    12.671953    22.501472    13.867272    18.597309    42.381394   -22.569449    12.612127     22.30075    14.235163 
  192200    322.76377    6.4498327    6.4498327            0            0            0            0    6.4498327    1256.4993    1262.9491    12.669448    22.499038    13.867779    18.346637    42.137861   -22.518762    12.612127     22.30075    14.235163 
  192400     314.9806    57.493405    57.493405            0            0            0            0    57.493405    1226.1999    1283.6933    12.667469    22.495811    13.868017    18.148666    41.815001   -22.494956    12.612127     22.30075    14.235163 
  192600    306.24619    328.49069    328.49069            0            0            0            0    328.49069    1192.1974    1520.6881    12.664671    22.491396    13.867744    17.868801     41.37333    -22.52226    12.612127     22.30075    14.235163 
  192800     302.9807    115.35766    115.35766            0            0            0            0    115.35766    1179.4851    1294.8427    12.661316    22.490402    13.866333    17.533097     41.27393   -22.663337    12.612127     22.30075    14.235163 
  193000    316.18225    20.105089    20.105089            0            0            0            0    20.105089    1230.8779     1250.983    12.660004    22.492021    13.863055    17.401882    41.435892   -22.991299    12.612127     22.30075    14.235163 
  193200    310.59228    5.2864962    5.2864962            0            0            0            0    5.2864962    1209.1165     1214.403    12.659504    22.494028    13.859765    17.351836    41.636665   -23.320407    12.612127     22.30075    14.235163 
  193400    310.67439    4.2396418    4.2396418            0            0            0            0    4.2396418    1209.4361    1213.6758    12.659586    22.496169    13.856401    17.360081    41.850878   -23.656981    12.612127     22.30075    14.235163 
  193600    322.90034    221.46321    221.46321            0            0            0            0    221.46321     1257.031    1478.4942    12.660552    22.498522    13.852623    17.456714    42.086271   -24.034973    12.612127     22.30075    14.235163 
  193800      309.041    15.441796    15.441796            0            0            0            0    15.441796    1203.0774    1218.5192    12.664454    22.501493    13.846753    17.847019    42.383489    -24.62219    12.612127     22.30075    14.235163 
  194000    307.54179    286.17157    286.17157            0            0            0            0    286.17157    1197.2411    1483.4126     12.66831    22.505316    13.841142    18.232795    42.765977   -25.183576    12.612127     22.30075    14.235163 
  194200    310.97017    8.7261349    8.7261349            0            0            0            0    8.7261349    1210.5876    1219.3137    12.670219    22.504948    13.836867    18.423756    42.729089   -25.611245    12.612127     22.30075    14.235163 
  194400    318.94442   -21.831403   -21.831403            0            0            0            0   -21.831403    1241.6308    1219.7994    12.671078    22.502777    13.833417    18.509731    42.511902   -25.956402    12.612127     22.30075    14.235163 
  194600    304.37604   -6.5410622   -6.5410622            0            0            0            0   -6.5410622     1184.917     1178.376    12.671938    22.500517    13.830004    18.595811    42.285866   -26.297816    12.612127     22.30075    14.235163 
  194800    320.58598    15.650148    15.650148            0            0            0            0    15.650148    1248.0213    1263.6715    12.673163    22.498091    13.826815    18.718281    42.043169   -26.616828    12.612127     22.30075    14.235163 
  195000    312.10049     6.630285     6.630285            0            0            0            0     6.630285    1214.9878    1221.6181    12.674933     22.49567    13.824126    18.895402    41.800935   -26.885896    12.612127     22.30075    14.235163 
  195200    298.13084     295.4951     295.4951            0            0            0            0     295.4951    1160.6049       1456.1    12.676156    22.494095    13.821645    19.017747    41.643372   -27.134096    12.612127     22.30075    14.235163 
  195400    316.45796    225.55683    225.55683            0            0            0            0    225.55683    1231.9512     1457.508    12.675746    22.497557     13.82022    18.976749    41.989694   -27.276569    12.612127     22.30075    14.235163 
  195600    310.81167    109.83079    109.83079            0            0            0            0    109.83079    1209.9705    1319.8013    12.674722     22.50344    13.819436     18.87428    42.578275   -27.355048    12.612127     22.30075    14.235163 
  195800    302.92093   -12.483372   -12.483372            0            0            0            0   -12.483372    1179.2524     1166.769    12.673036    22.507526    13.818727    18.705634    42.987066   -27.426026    12.612127     22.30075    14.235163 
  196000    310.46346    19.337868    19.337868            0            0            0            0    19.337868     1208.615    1227.9528    12.671763    22.511167    13.817681    18.578243    43.351291   -27.530661    12.612127     22.30075    14.235163 
  196200    317.50927    40.765821    40.765821            0            0            0            0    40.765821    1236.0439    1276.8097    12.671183    22.514519    13.816357    18.520196    43.686612   -27.663057    12.612127     22.30075    14.235163 
  196400    310.17722    106.72878    106.72878            0            0            0            0    106.72878    1207.5007    1314.2294    12.670805    22.516382    13.815284    18.482461    43.873009   -27.770472    12.612127     22.30075    14.235163 
  196600    302.80409    91.413894    91.413894            0            0            0            0    91.413894    1178.7975    1270.2114    12.670676    22.516214     13.81355    18.469503    43.856239   -27.943923    12.612127     22.30075    14.235163 
  196800    309.96787    194.79395    194.79395            0            0            0            0    194.79395    1206.6857    1401.4796    12.669876    22.514228    13.811184    18.389516    43.657563    -28.18064    12.612127     22.30075    14.235163 
  197000    323.77725    99.148992    99.148992            0            0            0            0    99.148992    1260.4447    1359.5937    12.670891    22.511505    13.808511     18.49104    43.385075   -28.447968    12.612127     22.30075    14.235163 
  197200    304.83383   -22.556223   -22.556223            0            0            0            0   -22.556223    1186.6992     1164.143       12.673    22.509818     13.80638    18.701964    43.216331    -28.66118    12.612127     22.30075    14.235163 
  197400     317.2713   -18.858824   -18.858824            0            0            0            0   -18.858824    1235.1175    1216.2587    12.675054    22.508061    13.804364    18.907474    43.040534   -28.862883    12.612127     22.30075    14.235163 
  197600    309.29024    68.964766    68.964766            0            0            0            0    68.964766    1204.0477    1273.0125    12.677321    22.506086    13.802225    19.134313    42.842993   -29.076855    12.612127     22.30075    14.235163 
  197800    303.98507     157.4662     157.4662            0            0            0            0     157.4662     1183.395    1340.8612    12.679901    22.501571    13.800178    19.392401    42.391251   -29.281626    12.612127     22.30075    14.235163 
  198000     315.0556    146.80759    146.80759            0            0            0            0    146.80759    1226.4919    1373.2995    12.681819      22.4979     13.80028    19.584292    42.024027   -29.271448    12.612127     22.30075    14.235163 
  198200     310.9593    11.123592    11.123592            0            0            0            0    11.123592    1210.5453    1221.6688    12.683346    22.496627    13.800588    19.737061    41.896655   -29.240673    12.612127     22.30075    14.235163 
  198400    315.62725     102.0711     102.0711            0            0            0            0     102.0711    1228.7173    1330.7884    12.686148    22.495466     13.80107     20.01733     41.78056   -29.192422    12.612127     22.30075    14.235163 
  198600    320.51784     53.13587     53.13587            0            0            0            0     53.13587    1247.7561    1300.8919    12.690427    22.495459    13.800852    20.445445    41.779805   -29.214182    12.612127     22.30075    14.235163 
  198800    309.29531    62.759629    62.759629            0            0            0            0    62.759629    1204.0674    1266.8271    12.692134    22.497347    13.799251    20.616233    41.968727    -29.37439    12.612127     22.30075    14.235163 
  199000    320.18839    15.488227    15.488227            0            0            0            0    15.488227    1246.4735    1261.9618     12.69165    22.500073    13.797574    20.567778    42.241402    -29.54213    12.612127     22.30075    14.235163 
  199200    310.38826    38.106668    38.106668            0            0            0            0    38.106668    1208.3222    1246.4289     12.69003     22.50328    13.796111    20.405712    42.562246   -29.688483    12.612127     22.30075    14.235163 
  199400    310.66728     88.10859     88.10859            0            0            0            0     88.10859    1209.4085     1297.517    12.687598    22.507285    13.795985    20.162387    42.962979   -29.701141    12.612127     22.30075    14.235163 
  199600    303.04501    206.58986    206.58986            0            0            0            0    206.58986    1179.7354    1386.3253    12.683571     22.50986    13.796809    19.759568    43.220523    -29.61867    12.612127     22.30075    14.235163 
  199800    311.00107    8.6945439    8.6945439            0            0            0            0    8.6945439    1210.7078    1219.4024    12.679208    22.510644    13.798465    19.323054    43.298955   -29.453075    12.612127     22.30075    14.235163 
  200000    313.14631    110.82656    110.82656            0            0            0            0    110.82656    1219.0591    1329.8857    12.676214    22.510999    13.800156    19.023597     43.33452   -29.283859    12.612127     22.30075    14.235163 
  200200    294.47521    17.974897    17.974897            0            0            0            0    17.974897    1146.3737    1164.3486    12.674985      22.5095    13.801278    18.900586    43.184485   -29.171626    12.612127     22.30075    14.235163 
  200400    303.65598    139.72181    139.72181            0            0            0            0    139.72181    1182.1139    1321.8357    12.674641    22.506786    13.802012    18.866162    42.913059   -29.098135    12.612127     22.30075    14.235163 
  200600    305.08225    47.764145    47.764145            0            0            0            0    47.764145    1187.6663    1235.4304    12.673457    22.504089    13.801958     18.74772    42.643181   -29.103586    12.612127     22.30075    14.235163 
  200800    308.01453     34.68032     34.68032            0            0            0            0     34.68032    1199.0815    1233.7618    12.674167    22.500595    13.801279    18.818792    42.293696   -29.171466    12.612127     22.30075    14.235163 
  201000    307.21164    174.52876    174.52876            0            0            0            0    174.52876    1195.9558    1370.4846    12.675827    22.496534     13.80015    18.984863    41.887365   -29.284454    12.612127     22.30075    14.235163 
  201200    300.60704    93.082411    93.082411            0            0            0            0    93.082411    1170.2446     1263.327    12.674181      22.4924    13.798142    18.820189    41.473793   -29.485366    12.612127     22.30075    14.235163 
  201400    313.36087    98.925485    98.925485            0            0            0            0    98.925485    1219.8944    1318.8199    12.672044    22.489791    13.795659    18.606361    41.212832   -29.733773    12.612127     22.30075    14.235163 
  201600    316.26183    41.300421    41.300421            0            0            0            0    41.300421    1231.1877    1272.4881    12.671813     22.48822    13.793781      18.5833    41.055654   -29.921664    12.612127     22.30075    14.235163 
  201800     308.2611    38.180925    38.180925            0            0            0            0    38.180925    1200.0413    1238.2223    12.671009    22.487752    13.792437    18.502833    41.008761   -30.056097    12.612127     22.30075    14.235163 
  202000    311.03327     25.34658     25.34658            0            0            0            0     25.34658    1210.8332    1236.1798    12.669179     22.48835     13.79161    18.319722    41.068646   -30.138866    12.612127     22.30075    14.235163 
  202200    313.21165    157.08064    157.08064            0            0            0            0    157.08064    1219.3135    1376.3941    12.666831    22.491511    13.792011    18.084826    41.384883   -30.098673    12.612127     22.30075    14.235163 
  202400    319.35728    73.789588    73.789588            0            0            0            0    73.789588    1243.2381    1317.0277    12.666585    22.496219    13.794058    18.060233    41.855827   -29.893951    12.612127     22.30075    14.235163 
  202600    310.22126  -0.16976787  -0.16976787            0            0            0            0  -0.16976787    1207.6721    1207.5023    12.667647    22.498708    13.796758    18.166524    42.104839   -29.623819    12.612127     22.30075    14.235163 
  202800    313.16998   -8.6320176   -8.6320176            0            0            0            0   -8.6320176    1219.1513    1210.5193     12.66917    22.501312    13.799024    18.318897    42.365422   -29.397068    12.612127     22.30075    14.235163 
  203000    317.42237    9.4129298    9.4129298            0            0            0            0    9.4129298    1235.7056    1245.1185    12.671037    22.504135      13.8008    18.505598    42.647828    -29.21943    12.612127     22.30075    14.235163 
  203200    307.98127    109.61009    109.61009            0            0            0            0    109.61009     1198.952     1308.562    12.671966    22.506591    13.802564    18.598566    42.893462   -29.042975    12.612127     22.30075    14.235163 
  203400     317.2711    366.09888    366.09888            0            0            0            0    366.09888    1235.1167    1601.2156    12.671798    22.508888    13.804691    18.581742    43.123328   -28.830166    12.612127     22.30075    14.235163 
  203600    296.17994    78.684255    78.684255            0            0            0            0    78.684255    1153.0101    1231.6944    12.672215    22.509057    13.808538    18.623509    43.140221   -28.445334    12.612127     22.30075    14.235163 
  203800    324.58031     29.78431     29.78431            0            0            0            0     29.78431     1263.571    1293.3553    12.672703     22.50707    13.813338    18.672308    42.941463   -27.965064    12.612127     22.30075    14.235163 
  204000    314.17056    5.7894114    5.7894114            0            0            0            0    5.7894114    1223.0465    1228.8359    12.672299    22.505686    13.818516    18.631849    42.803014   -27.447076    12.612127     22.30075    14.235163 
  204200    298.51796    72.909097    72.909097            0            0            0            0    72.909097    1162.1119     1235.021    12.671412    22.505151    13.823652    18.543139    42.749425   -26.933323    12.612127     22.30075    14.235163 
  204400    299.83749    39.904516    39.904516            0            0            0            0    39.904516    1167.2488    1207.1533    12.672528    22.503079    13.828444     18.65475    42.542172   -26.453882    12.612127     22.30075    14.235163 
  204600    321.34712    50.669568    50.669568            0            0            0            0    50.669568    1250.9844     1301.654    12.674393    22.499074     13.83242     18.84136    42.141515   -26.056078    12.612127     22.30075    14.235163 
  204800    302.86748    38.027241    38.027241            0            0            0            0    38.027241    1179.0443    1217.0716    12.674697    22.494528    13.836148    18.871782    41.686683   -25.683129    12.612127     22.30075    14.235163 
  205000    315.77816    2.4312719    2.4312719            0            0            0            0    2.4312719    1229.3048     1231.736     12.67364    22.490956    13.839812    18.766063    41.329356   -25.316621    12.612127     22.30075    14.235163 
  205200    313.87963    53.504761    53.504761            0            0            0            0    53.504761    1221.9139    1275.4187    12.672545    22.488438    13.843596    18.656512    41.077405   -24.938002    12.612127     22.30075    14.235163 
  205400    315.81908    25.050729    25.050729            0            0            0            0    25.050729    1229.4641    1254.5148    12.672448     22.48736    13.847548    18.646826    40.969642   -24.542648    12.612127     22.30075    14.235163 
  205600    310.84001    56.444638    56.444638            0            0            0            0    56.444638    1210.0809    1266.5255    12.672478    22.487819    13.852035    18.649755    41.015508    -24.09377    12.612127     22.30075    14.235163 
  205800     302.9309     71.60282     71.60282            0            0            0            0     71.60282    1179.2912     1250.894    12.671899    22.489563    13.857175    18.591839    41.189956   -23.579562    12.612127     22.30075    14.235163 
  206000    312.36952    15.862616    15.862616            0            0            0            0    15.862616    1216.0351    1231.8978    12.671465     22.49167    13.861858    18.548459    41.400809   -23.111021    12.612127     22.30075    14.235163 
  206200    309.28205     55.00854     55.00854            0            0            0            0     55.00854    1204.0158    1259.0244    12.671875    22.493493       13.866    18.589513    41.583201   -22.696694    12.612127     22.30075    14.235163 
  206400    311.36457    21.192146    21.192146            0            0            0            0    21.192146     1212.123    1233.3151    12.672625    22.494509    13.869742    18.664496     41.68483   -22.322384    12.612127     22.30075    14.235163 
  206600    311.86063    63.829788    63.829788            0            0            0            0    63.829788    1214.0541    1277.8839    12.673081    22.495737    13.873284    18.710117    41.807664    -21.96796    12.612127     22.30075    14.235163 
  206800    316.77229    15.909007    15.909007            0            0            0            0    15.909007    1233.1749    1249.0839    12.673121    22.497989    13.876501     18.71415    42.032957    -21.64611    12.612127     22.30075    14.235163 
  207000    319.77718   -14.531774   -14.531774            0            0            0            0   -14.531774    1244.8727    1230.3409    12.672482    22.500658     13.87964    18.650223    42.299947   -21.332124    12.612127     22.30075    14.235163 
  207200    304.06095    56.062896    56.062896            0            0            0            0    56.062896    1183.6904    1239.7533    12.672042    22.503298    13.882839     18.60619    42.564097   -21.012037    12.612127     22.30075    14.235163 
  207400    320.70311    150.06799    150.06799            0            0            0            0    150.06799    1248.4773    1398.5453    12.671794     22.50418    13.886119    18.581379    42.652328   -20.683915    12.612127     22.30075    14.235163 
  207600    315.77802    78.514443    78.514443            0            0            0            0    78.514443    1229.3042    1307.8187    12.670536    22.504045    13.889052     18.45551    42.638794   -20.390507    12.612127     22.30075    14.235163 
  207800    305.27135   -11.651695   -11.651695            0            0            0            0   -11.651695    1188.4024    1176.7507    12.668315    22.503844    13.891602    18.233277    42.618735   -20.135388    12.612127     22.30075    14.235163 
  208000    305.89135   -14.135568   -14.135568            0            0            0            0   -14.135568     1190.816    1176.6805    12.665632    22.503213    13.893913    17.964913    42.555544   -19.904257    12.612127     22.30075    14.235163 
  208200    332.48382    20.318746    20.318746            0            0            0            0    20.318746    1294.3389    1314.6576    12.663338     22.50245     13.89615    17.735429     42.47924   -19.680419    12.612127     22.30075    14.235163 
  208400    296.11105    49.300958    49.300958            0            0            0            0    49.300958    1152.7419    1202.0429    12.661709    22.501849    13.898008    17.572391    42.419059   -19.494558    12.612127     22.30075    14.235163 
  208600    316.46622    71.723866    71.723866            0            0            0            0    71.723866    1231.9833    1303.7072    12.660119    22.501347    13.899206    17.413343     42.36887   -19.374671    12.612127     22.30075    14.235163 
  208800    314.16267    65.796827    65.796827            0            0            0            0    65.796827    1223.0158    1288.8126    12.657931    22.501424     13.90065    17.194508    42.376583   -19.230202    12.612127     22.30075    14.235163 
  209000    310.46019    99.935076    99.935076            0            0            0            0    99.935076    1208.6022    1308.5373    12.655904    22.500691    13.901238    16.991721    42.303229   -19.171426    12.612127     22.30075    14.235163 
  209200    314.51122    24.858723    24.858723            0            0            0            0    24.858723    1224.3727    1249.2314    12.655134    22.499543    13.901886    16.914705    42.188386   -19.106582    12.612127     22.30075    14.235163 
  209400    319.39168   -3.4309477   -3.4309477            0            0            0            0   -3.4309477     1243.372     1239.941    12.655758    22.498315    13.902946    16.977111    42.065594   -19.000565    12.612127     22.30075    14.235163 
  209600    312.41028    18.539665    18.539665            0            0            0            0    18.539665    1216.1938    1234.7335    12.657123    22.496798    13.904154    17.113632    41.913805   -18.879734    12.612127     22.30075    14.235163 
  209800    316.85316    28.814967    28.814967            0            0            0            0    28.814967    1233.4897    1262.3047    12.660149    22.495994    13.905761    17.416377    41.833375   -18.718963    12.612127     22.30075    14.235163 
  210000    305.47761    112.42749    112.42749            0            0            0            0    112.42749    1189.2054    1301.6329    12.664473    22.496475    13.907683    17.848926    41.881482   -18.526594    12.612127     22.30075    14.235163 
  210200    316.28044   -13.098993   -13.098993            0            0            0            0   -13.098993    1231.2601    1218.1611    12.666969    22.499022    13.909733    18.098657    42.136331   -18.321564    12.612127     22.30075    14.235163 
  210400    317.26181    5.0679194    5.0679194            0            0            0            0    5.0679194    1235.0805    1240.1485    12.668984    22.501598    13.911611    18.300241    42.393976   -18.133716    12.612127     22.30075    14.235163 
  210600    314.23921     2.214006     2.214006            0            0            0            0     2.214006    1223.3137    1225.5277       12.671    22.503537    13.913086    18.501883    42.587968   -17.986092    12.612127     22.30075    14.235163 
  210800    312.33456    76.312906    76.312906            0            0            0            0    76.312906    1215.8991     1292.212    12.673129    22.504558    13.914497    18.714875    42.690137   -17.844991    12.612127     22.30075    14.235163 
  211000    309.46882    18.426812    18.426812            0            0            0            0    18.426812    1204.7429    1223.1697    12.674852    22.503948    13.916278    18.887282    42.629112   -17.666738    12.612127     22.30075    14.235163 
  211200     317.4903    40.118905    40.118905            0            0            0            0    40.118905      1235.97    1276.0889    12.675326    22.503543     13.91818    18.934718    42.588591   -17.476535    12.612127     22.30075    14.235163 
  211400    309.26187    51.554851    51.554851            0            0            0            0    51.554851    1203.9373    1255.4921    12.674251    22.503953     13.92041    18.827149     42.62962    -17.25339    12.612127     22.30075    14.235163 
  211600    311.36439    84.459574    84.459574            0            0            0            0    84.459574    1212.1222    1296.5818    12.672874    22.504407    13.922159    18.689453    42.674964   -17.078474    12.612127     22.30075    14.235163 
  211800    320.08357    35.952997    35.952997            0            0            0            0    35.952997    1246.0655    1282.0185    12.670671    22.504207    13.923063    18.469031    42.655049   -16.988033    12.612127     22.30075    14.235163 
  212000    306.68039   -7.9748655   -7.9748655            0            0            0            0   -7.9748655    1193.8877    1185.9129     12.66809     22.50275    13.923901    18.210837     42.50928   -16.904205    12.612127     22.30075    14.235163 
  212200    319.31992     62.59752     62.59752            0            0            0            0     62.59752    1243.0926    1305.6901    12.666019    22.500291    13.924582    18.003572    42.263264   -16.836042    12.612127     22.30075    14.235163 
  212400    316.11338    96.679239    96.679239            0            0            0            0    96.679239    1230.6098     1327.289     12.66549    22.497576    13.924744    17.950707    41.991603   -16.819809    12.612127     22.30075    14.235163 
  212600    312.26079   -14.492024   -14.492024            0            0            0            0   -14.492024    1215.6119    1201.1199    12.665364    22.496955    13.924635    17.938078    41.929539   -16.830742    12.612127     22.30075    14.235163 
  212800    307.88978   -19.247491   -19.247491            0            0            0            0   -19.247491    1198.5958    1179.3483    12.665237    22.496724    13.924477    17.925359    41.906402   -16.846523    12.612127     22.30075    14.235163 
  213000    311.53892    180.83135    180.83135            0            0            0            0    180.83135    1212.8017     1393.633    12.665284    22.496069    13.924639    17.930048    41.840863   -16.830316    12.612127     22.30075    14.235163 
  213200    332.78344    110.18247    110.18247            0            0            0            0    110.18247    1295.5053    1405.6878    12.665864    22.495103     13.92583    17.988135    41.744176   -16.711178    12.612127     22.30075    14.235163 
  213400    317.38066    104.27516    104.27516            0            0            0            0    104.27516    1235.5432    1339.8184    12.667001    22.496922    13.926192    18.101864    41.926245   -16.674999    12.612127     22.30075    14.235163 
  213600    303.96995   -8.4566757   -8.4566757            0            0            0            0   -8.4566757    1183.3361    1174.8795    12.669385    22.500388    13.926349    18.340328    42.272956   -16.659274    12.612127     22.30075    14.235163 
  213800    309.42357    16.537992    16.537992            0            0            0            0    16.537992    1204.5668    1221.1048    12.671594    22.503073     13.92675    18.561366    42.541562   -16.619109    12.612127     22.30075    14.235163 
  214000    313.70897   -4.3229487   -4.3229487            0            0            0            0   -4.3229487    1221.2495    1216.9266    12.673306    22.504064    13.927608     18.73264    42.640706   -16.533263    12.612127     22.30075    14.235163 
  214200    313.24118    117.77081    117.77081            0            0            0            0    117.77081    1219.4285    1337.1993    12.674536     22.50497    13.928465     18.85572    42.731332   -16.447541    12.612127     22.30075    14.235163 
  214400    308.69237    108.46166    108.46166            0            0            0            0    108.46166    1201.7203    1310.1819    12.674388    22.507115     13.92905    18.840896    42.945877   -16.389001    12.612127     22.30075    14.235163 
  214600     317.2027    385.48895    385.48895            0            0            0            0    385.48895    1234.8504    1620.3394    12.672656    22.507858    13.928434    18.667566    43.020297   -16.450689    12.612127     22.30075    14.235163 
  214800    310.39108     -9.65959     -9.65959            0            0            0            0     -9.65959    1208.3332    1198.6736     12.67035    22.504009    13.927086    18.436901    42.635199     -16.5855    12.612127     22.30075    14.235163 
  215000    319.10443    19.554315    19.554315            0            0            0            0    19.554315    1242.2537     1261.808     12.66807    22.500114    13.925687     18.20884    42.245533   -16.725518    12.612127     22.30075    14.235163 
  215200    320.09089    46.026944    46.026944            0            0            0            0    46.026944     1246.094    1292.1209    12.666085    22.496971    13.924397    18.010198    41.931083   -16.854515    12.612127     22.30075    14.235163 
  215400    304.87547    106.07709    106.07709            0            0            0            0    106.07709    1186.8613    1292.9384    12.665122    22.494803    13.923533    17.913914    41.714163   -16.940968    12.612127     22.30075    14.235163 
  215600    316.69763    55.508939    55.508939            0            0            0            0    55.508939    1232.8842    1288.3931    12.665845    22.493943    13.922017    17.986178    41.628169   -17.092602    12.612127     22.30075    14.235163 
  215800    312.77492    156.33973    156.33973            0            0            0            0    156.33973    1217.6134    1373.9531    12.667345    22.493338    13.920216    18.136243    41.567623   -17.272863    12.612127     22.30075    14.235163 
  216000    309.77264    92.713639    92.713639            0            0            0            0    92.713639    1205.9256    1298.6393    12.670971      22.4949     13.91855    18.499043    41.723948   -17.439476    12.612127     22.30075    14.235163 
  216200      309.615    10.368723    10.368723            0            0            0            0    10.368723     1205.312    1215.6807    12.677558    22.496818    13.918356    19.158008    41.915765   -17.458853    12.612127     22.30075    14.235163 
  216400    318.29822   -21.817085   -21.817085            0            0            0            0   -21.817085    1239.1152    1217.2981    12.684036    22.497759    13.918426    19.806055    42.009921   -17.451862    12.612127     22.30075    14.235163 
  216600    315.34503   -2.8370959   -2.8370959            0            0            0            0   -2.8370959    1227.6186    1224.7815    12.690501    22.498604    13.918523     20.45288    42.094423   -17.442155    12.612127     22.30075    14.235163 
  216800    318.40196     165.7912     165.7912            0            0            0            0     165.7912    1239.5191    1405.3103    12.696447    22.498605    13.918894    21.047701    42.094558   -17.405066    12.612127     22.30075    14.235163 
  217000     322.9356    317.08943    317.08943            0            0            0            0    317.08943    1257.1682    1574.2577    12.698913    22.497346    13.918816    21.294444    41.968646   -17.412916    12.612127     22.30075    14.235163 
  217200     319.0385   0.43312565   0.43312565            0            0            0            0   0.43312565    1241.9971    1242.4302    12.697756    22.494538    13.918118     21.17861     41.68772   -17.482671    12.612127     22.30075    14.235163 
  217400    326.82822    66.455977    66.455977            0            0            0            0    66.455977     1272.322     1338.778    12.695213    22.490902    13.917602     20.92422    41.323911   -17.534289    12.612127     22.30075    14.235163 
  217600    319.74597    61.666358    61.666358            0            0            0            0    61.666358    1244.7512    1306.4176     12.69083    22.488151    13.917439    20.485765    41.048721   -17.550638    12.612127     22.30075    14.235163 
  217800    314.75545     61.91422     61.91422            0            0            0            0     61.91422    1225.3234    1287.2376    12.685991    22.488559     13.91698     20.00166    41.089569   -17.596538    12.612127     22.30075    14.235163 
  218000    312.49902    23.156144    23.156144            0            0            0            0    23.156144    1216.5393    1239.6954    12.680174    22.491096    13.916796    19.419726    41.343349   -17.614915    12.612127     22.30075    14.235163 
  218200    325.87736   -19.597592   -19.597592            0            0            0            0   -19.597592    1268.6203    1249.0227    12.673846    22.492628    13.916722    18.786656    41.496639   -17.622409    12.612127     22.30075    14.235163 
  218400    304.26205    88.723895    88.723895            0            0            0            0    88.723895    1184.4733    1273.1972    12.667468    22.494209    13.916613    18.148568    41.654792    -17.63327    12.612127     22.30075    14.235163 
  218600    304.06356    142.97177    142.97177            0            0            0            0    142.97177    1183.7006    1326.6723    12.661848    22.497756    13.916375    17.586337    42.009638   -17.657067    12.612127     22.30075    14.235163 
  218800    317.55842    58.014525    58.014525            0            0            0            0    58.014525    1236.2352    1294.2497    12.658169    22.502067    13.915354    17.218246    42.440952   -17.759215    12.612127     22.30075    14.235163 
  219000    304.61722    113.23949    113.23949            0            0            0            0    113.23949    1185.8559    1299.0954    12.655723    22.505805    13.913729    16.973542    42.814875   -17.921832    12.612127     22.30075    14.235163 
  219200    318.88998    87.003906    87.003906            0            0            0            0    87.003906    1241.4189    1328.4228    12.655583    22.509629    13.910924     16.95954    43.197408   -18.202379    12.612127     22.30075    14.235163 
  219400    310.28487     93.98841     93.98841            0            0            0            0     93.98841    1207.9197    1301.9081    12.656939    22.512624    13.908097    17.095243    43.497081   -18.485188    12.612127     22.30075    14.235163 
  219600    317.16137    100.51452    100.51452            0            0            0            0    100.51452    1234.6895     1335.204    12.658203    22.513172    13.906135    17.221729    43.551909   -18.681467    12.612127     22.30075    14.235163 
  219800    299.87203    40.984451    40.984451            0            0            0            0    40.984451    1167.3832    1208.3677     12.65939    22.511725     13.90451    17.340395    43.407098   -18.844043    12.612127     22.30075    14.235163 
  220000     325.9418    56.658641    56.658641            0            0            0            0    56.658641    1268.8712    1325.5298    12.661328    22.509735    13.902793    17.534286    43.207998   -19.015835    12.612127     22.30075    14.235163 
  220200    303.24837    15.502712    15.502712            0            0            0            0    15.502712    1180.5271    1196.0298    12.663117    22.508613    13.901593    17.713293    43.095835   -19.135873    12.612127     22.30075    14.235163 
  220400    308.23219    119.14881    119.14881            0            0            0            0    119.14881    1199.9288    1319.0776    12.665964    22.508063    13.900786    17.998114    43.040755   -19.216642    12.612127     22.30075    14.235163 
  220600    318.88319    184.11734    184.11734            0            0            0            0    184.11734    1241.3925    1425.5098    12.668669    22.507178    13.900872    18.268751    42.952254   -19.208076    12.612127     22.30075    14.235163 
  220800    300.83494    71.458289    71.458289            0            0            0            0    71.458289    1171.1318      1242.59    12.669764    22.508292    13.901047    18.378233    43.063717   -19.190479    12.612127     22.30075    14.235163 
  221000    321.41102    115.99574    115.99574            0            0            0            0    115.99574    1251.2331    1367.2289    12.671068    22.507886    13.900785    18.508779    43.023031    -19.21673    12.612127     22.30075    14.235163 
  221200    314.35312    53.364491    53.364491            0            0            0            0    53.364491    1223.7572    1277.1217    12.672769    22.506279    13.900855    18.678937     42.86228   -19.209776    12.612127     22.30075    14.235163 
  221400    311.65038     90.92922     90.92922            0            0            0            0     90.92922    1213.2356    1304.1648    12.674275    22.504302    13.900482    18.829574    42.664506    -19.24705    12.612127     22.30075    14.235163 
  221600    323.44408    8.6596006    8.6596006            0            0            0            0    8.6596006    1259.1477    1267.8073    12.676828     22.50223    13.899572    19.084951    42.457228   -19.338051    12.612127     22.30075    14.235163 
  221800    311.68922    89.823404    89.823404            0            0            0            0    89.823404    1213.3868    1303.2102    12.678956    22.499754    13.898867     19.29785    42.209469   -19.408605    12.612127     22.30075    14.235163 
  222000    314.33606    280.30069    280.30069            0            0            0            0    280.30069    1223.6908    1503.9915    12.681022    22.495334     13.89844    19.504564    41.767351   -19.451324    12.612127     22.30075    14.235163 
  222200    306.11811    90.318705    90.318705            0            0            0            0    90.318705    1191.6988    1282.0175     12.68264    22.489948     13.89912     19.66643    41.228526   -19.383271    12.612127     22.30075    14.235163 
  222400    316.27781    212.07927    212.07927            0            0            0            0    212.07927    1231.2499    1443.3292    12.683281     22.48516    13.899253    19.730543    40.749505   -19.369996    12.612127     22.30075    14.235163 
  222600    311.73183    57.640496    57.640496            0            0            0            0    57.640496    1213.5527    1271.1931    12.682124    22.482573    13.898926    19.614817    40.490739   -19.402669    12.612127     22.30075    14.235163 
  222800    315.73946    87.746006    87.746006            0            0            0            0    87.746006    1229.1541    1316.9001    12.680292    22.481444    13.898517    19.431525    40.377726   -19.443651    12.612127     22.30075    14.235163 
  223000    310.30073    7.6775087    7.6775087            0            0            0            0    7.6775087    1207.9815     1215.659    12.678082    22.481934    13.898944    19.210387    40.426756     -19.4009    12.612127     22.30075    14.235163 
  223200    307.50747    0.2495737    0.2495737            0            0            0            0    0.2495737    1197.1075    1197.3571    12.675716    22.482789    13.899869     18.97375    40.512269   -19.308347    12.612127     22.30075    14.235163 
  223400    317.76851    37.656425    37.656425            0            0            0            0    37.656425    1237.0531    1274.7095    12.673203    22.483578    13.900825    18.722287    40.591225   -19.212719    12.612127     22.30075    14.235163 
  223600    313.98865    179.45581    179.45581            0            0            0            0    179.45581    1222.3383    1401.7941    12.670287    22.485845    13.901287    18.430632    40.818067   -19.166517    12.612127     22.30075    14.235163 
  223800    318.78383    146.48701    146.48701            0            0            0            0    146.48701    1241.0057    1387.4927    12.669232    22.489751    13.901408    18.325095    41.208801    -19.15441    12.612127     22.30075    14.235163 
  224000    302.34963    55.836655    55.836655            0            0            0            0    55.836655    1177.0284     1232.865    12.671082    22.493178    13.902323     18.51009    41.551663   -19.062904    12.612127     22.30075    14.235163 
  224200    309.76761    201.07733    201.07733            0            0            0            0    201.07733    1205.9061    1406.9834    12.673361    22.496786    13.903528    18.738097    41.912614   -18.942356    12.612127     22.30075    14.235163 
  224400    323.72471    86.423451    86.423451            0            0            0            0    86.423451    1260.2402    1346.6637    12.676028     22.49978    13.904022     19.00498    42.212082   -18.892864    12.612127     22.30075    14.235163 
  224600    317.19796   -15.245193   -15.245193            0            0            0            0   -15.245193     1234.832    1219.5868    12.678607    22.501533    13.904333    19.262959    42.387512   -18.861819    12.612127     22.30075    14.235163 
  224800    301.32036    57.929192    57.929192            0            0            0            0    57.929192    1173.0215    1230.9506     12.68111    22.502953    13.904772    19.513387    42.529543   -18.817914    12.612127     22.30075    14.235163 
  225000     318.9965    99.215213    99.215213            0            0            0            0    99.215213    1241.8336    1341.0488     12.68338    22.502841    13.905662    19.740477    42.518388   -18.728793    12.612127     22.30075    14.235163 
  225200     303.8684    152.12589    152.12589            0            0            0            0    152.12589    1182.9408    1335.0667    12.686918    22.502625    13.907774    20.094377    42.496729   -18.517567    12.612127     22.30075    14.235163 
  225400    303.88192    156.69021    156.69021            0            0            0            0    156.69021    1182.9935    1339.6837    12.688963    22.500885    13.909088    20.298954    42.322659   -18.386076    12.612127     22.30075    14.235163 
  225600    309.68718     101.9177     101.9177            0            0            0            0     101.9177     1205.593    1307.5107    12.687306    22.498351    13.909711    20.133205    42.069175   -18.323765    12.612127     22.30075    14.235163 
  225800    304.37557    170.02923    170.02923            0            0            0            0    170.02923    1184.9152    1354.9444     12.68353    22.497055    13.911106    19.755452    41.939524   -18.184213    12.612127     22.30075    14.235163 
  226000    303.85909   -5.8784692   -5.8784692            0            0            0            0   -5.8784692    1182.9046    1177.0261    12.678511    22.495666    13.911928    19.253377    41.800561   -18.101949    12.612127     22.30075    14.235163 
  226200    319.38772   -18.254509   -18.254509            0            0            0            0   -18.254509    1243.3566    1225.1021      12.6733    22.494274    13.912495     18.73203    41.661251   -18.045225    12.612127     22.30075    14.235163 
  226400    314.02578    31.797287    31.797287            0            0            0            0    31.797287    1222.4829    1254.2801    12.668005    22.493216    13.913036    18.202289    41.555404   -17.991137    12.612127     22.30075    14.235163 
  226600    313.02318     74.78651     74.78651            0            0            0            0     74.78651    1218.5798    1293.3663    12.663876    22.493645    13.913378    17.789275    41.598332   -17.956932    12.612127     22.30075    14.235163 
  226800    311.81309    140.37931    140.37931            0            0            0            0    140.37931     1213.869    1354.2483    12.662496    22.495136    13.913455    17.651191    41.747518   -17.949225    12.612127     22.30075    14.235163 
  227000    313.72396     203.4166     203.4166            0            0            0            0     203.4166    1221.3079    1424.7245    12.664415    22.497186    13.913129    17.843197     41.95259    -17.98183    12.612127     22.30075    14.235163 
  227200    304.54978    32.362338    32.362338            0            0            0            0    32.362338    1185.5934    1217.9557    12.667682    22.497974    13.912972    18.169997    42.031456    -17.99751    12.612127     22.30075    14.235163 
  227400    312.89378   -19.741007   -19.741007            0            0            0            0   -19.741007     1218.076     1198.335    12.671027    22.499228    13.912927    18.504605    42.156915   -18.001996    12.612127     22.30075    14.235163 
  227600    315.32319    150.31003    150.31003            0            0            0            0    150.31003    1227.5336    1377.8436    12.673353    22.500361    13.912658    18.737331    42.270197   -18.028966    12.612127     22.30075    14.235163 
  227800     315.4293    23.854099    23.854099            0            0            0            0    23.854099    1227.9467    1251.8008      12.6727    22.500829    13.911782    18.671995    42.317037   -18.116589    12.612127     22.30075    14.235163 
  228000    313.90731   -12.588349   -12.588349            0            0            0            0   -12.588349    1222.0217    1209.4333    12.671624    22.501851      13.9109    18.564337    42.419318   -18.204804    12.612127     22.30075    14.235163 
  228200    300.59449 -0.080478195 -0.080478195            0            0            0            0 -0.080478195    1170.1957    1170.1152    12.670446    22.502836    13.910101    18.446525    42.517859   -18.284712    12.612127     22.30075    14.235163 
  228400    320.71738    353.31889    353.31889            0            0            0            0    353.31889    1248.5329    1601.8518    12.669009    22.502894    13.909148    18.302734     42.52361   -18.380085    12.612127     22.30075    14.235163 
  228600    310.53955    185.90357    185.90357            0            0            0            0    185.90357    1208.9112    1394.8148    12.667486    22.501519     13.90729    18.150392    42.386063   -18.565934    12.612127     22.30075    14.235163 
  228800    302.09719    75.744782    75.744782            0            0            0            0    75.744782    1176.0456    1251.7904    12.668757    22.499724    13.905485    18.277565    42.206477   -18.746505    12.612127     22.30075    14.235163 
  229000    312.22097    31.488561    31.488561            0            0            0            0    31.488561    1215.4568    1246.9454    12.670734    22.498532    13.903587    18.475351    42.087227   -18.936402    12.612127     22.30075    14.235163 
  229200    317.64222    22.158382    22.158382            0            0            0            0    22.158382    1236.5614    1258.7198    12.671521    22.496549     13.90157    18.554058    41.888855   -19.138167    12.612127     22.30075    14.235163 
  229400     302.9233   -15.288656   -15.288656            0            0            0            0   -15.288656    1179.2616    1163.9729    12.671222    22.493741    13.899416    18.524136    41.607985   -19.353694    12.612127     22.30075    14.235163 
  229600    306.93857    37.645168    37.645168            0            0            0            0    37.645168    1194.8928     1232.538    12.670774    22.491037    13.897135    18.479289    41.337465   -19.581899    12.612127     22.30075    14.235163 
  229800    309.33733    87.314005    87.314005            0            0            0            0    87.314005     1204.231     1291.545     12.67011    22.489166    13.894419    18.412891    41.150294    -19.85355    12.612127     22.30075    14.235163 
  230000    319.75333    80.805347    80.805347            0            0            0            0    80.805347    1244.7799    1325.5852    12.668244    22.490569    13.892068    18.226178    41.290623    -20.08878    12.612127     22.30075    14.235163 
  230200     320.0654    27.722539    27.722539            0            0            0            0    27.722539    1245.9947    1273.7173    12.667579    22.494565    13.890458    18.159729    41.690388   -20.249871    12.612127     22.30075    14.235163 
  230400    309.52771     33.45846     33.45846            0            0            0            0     33.45846    1204.9722    1238.4306    12.667533    22.498743    13.889157    18.155046    42.108343   -20.380052    12.612127     22.30075    14.235163 
  230600    316.44822    153.06967    153.06967            0            0            0            0    153.06967    1231.9133    1384.9829    12.667464    22.501924    13.887954    18.148164    42.426597   -20.500391    12.612127     22.30075    14.235163 
  230800    304.07136    21.362475    21.362475            0            0            0            0    21.362475    1183.7309    1205.0934    12.667891    22.504109    13.885742    18.190865    42.645166    -20.72169    12.612127     22.30075    14.235163 
  231000    314.97021   -19.189877   -19.189877            0            0            0            0   -19.189877    1226.1595    1206.9696    12.668701    22.505622    13.883251     18.27194    42.796529   -20.970826    12.612127     22.30075    14.235163 
  231200    314.05276    73.702807    73.702807            0            0            0            0    73.702807    1222.5879    1296.2907    12.669187    22.506198    13.881035    18.320593    42.854207   -21.192558    12.612127     22.30075    14.235163 
  231400     316.1929   -12.193528   -12.193528            0            0            0            0   -12.193528    1230.9193    1218.7258    12.668717    22.503706    13.879779    18.273532    42.604855   -21.318172    12.612127     22.30075    14.235163 
  231600    315.97492    45.765314    45.765314            0            0            0            0    45.765314    1230.0707     1275.836    12.668624    22.500589    13.878442    18.264245    42.293074   -21.452002    12.612127     22.30075    14.235163 
  231800    314.46336    149.39868    149.39868            0            0            0            0    149.39868    1224.1863     1373.585    12.668239    22.496413    13.876932    18.225746    41.875242   -21.603044    12.612127     22.30075    14.235163 
  232000    315.32331    2.2502236    2.2502236            0            0            0            0    2.2502236    1227.5341    1229.7843    12.667924    22.491571     13.87547    18.194191    41.390831   -21.749306    12.612127     22.30075    14.235163 
  232200    303.19535    92.441778    92.441778            0            0            0            0    92.441778    1180.3207    1272.7625    12.668278    22.486618    13.873956    18.229624    40.895343   -21.900751    12.612127     22.30075    14.235163 
  232400    306.89411    26.742889    26.742889            0            0            0            0    26.742889    1194.7197    1221.4626    12.668717    22.483907    13.871461    18.273566    40.624189   -22.150339    12.612127     22.30075    14.235163 
  232600    317.75999    18.378355    18.378355            0            0            0            0    18.378355    1237.0199    1255.3983    12.668777    22.484093    13.868377    18.279577    40.642776   -22.458932    12.612127     22.30075    14.235163 
  232800      303.508    37.097594    37.097594            0            0            0            0    37.097594    1181.5378    1218.6354    12.668946    22.486065    13.864996    18.296394    40.839997   -22.797184    12.612127     22.30075    14.235163 
  233000     317.5884    71.912357    71.912357            0            0            0            0    71.912357    1236.3519    1308.2643    12.669053    22.489116    13.861519    18.307155    41.145242   -23.144965    12.612127     22.30075    14.235163 
  233200    312.40691    69.615085    69.615085            0            0            0            0    69.615085    1216.1807    1285.7958    12.670411     22.49217    13.857819    18.443017    41.450749    -23.51518    12.612127     22.30075    14.235163 
  233400    325.62357    62.701007    62.701007            0            0            0            0    62.701007    1267.6324    1330.3334    12.671738    22.493487    13.853633    18.575741    41.582593   -23.933936    12.612127     22.30075    14.235163 
  233600    312.27107   -16.679001   -16.679001            0            0            0            0   -16.679001    1215.6519    1198.9729    12.673774    22.495323    13.849455    18.779479    41.766252   -24.351879    12.612127     22.30075    14.235163 
  233800    313.38557    21.832314    21.832314            0            0            0            0    21.832314    1219.9906    1241.8229    12.676279    22.497391      13.8454    19.030086     41.97313   -24.757576    12.612127     22.30075    14.235163 
  234000    322.22129    106.68401    106.68401            0            0            0            0    106.68401    1254.3875    1361.0715    12.678176    22.498267     13.84127    19.219829    42.060751   -25.170689    12.612127     22.30075    14.235163 
  234200    299.86471     92.84079     92.84079            0            0            0            0     92.84079    1167.3547    1260.1955    12.678998    22.497647     13.83736     19.30207     41.99868   -25.561935    12.612127     22.30075    14.235163 
  234400    318.73422    55.078712    55.078712            0            0            0            0    55.078712    1240.8125    1295.8913     12.67711    22.499065    13.834582    19.113155    42.140621   -25.839791    12.612127     22.30075    14.235163 
  234600    308.43904   -8.3925985   -8.3925985            0            0            0            0   -8.3925985     1200.734    1192.3414    12.672589    22.502637    13.833279    18.660904    42.497968   -25.970184    12.612127     22.30075    14.235163 
  234800    318.11167    -6.799586    -6.799586            0            0            0            0    -6.799586     1238.389    1231.5894    12.667913    22.506105    13.832079    18.193079    42.844874    -26.09024    12.612127     22.30075    14.235163 
  235000    315.74329    91.404914    91.404914            0            0            0            0    91.404914     1229.169    1320.5739    12.663696    22.509235    13.830865    17.771234    43.158056   -26.211701    12.612127     22.30075    14.235163 
  235200    316.72979    61.515606    61.515606            0            0            0            0    61.515606    1233.0094     1294.525    12.659741    22.509912    13.830723    17.375599     43.22571   -26.225857    12.612127     22.30075    14.235163 
  235400    305.59551    -4.072132    -4.072132            0            0            0            0    -4.072132    1189.6644    1185.5922    12.655111    22.509226    13.830871    16.912409    43.157078   -26.211095    12.612127     22.30075    14.235163 
  235600    311.67179    191.43346    191.43346            0            0            0            0    191.43346    1213.3189    1404.7524    12.651122    22.508273    13.831269    16.513288    43.061779   -26.171293    12.612127     22.30075    14.235163 
  235800    316.46469    142.42466    142.42466            0            0            0            0    142.42466    1231.9774    1374.4021    12.649981    22.507283    13.831086    16.399151     42.96274   -26.189564    12.612127     22.30075    14.235163 
  236000    299.15848    86.159228    86.159228            0            0            0            0    86.159228    1164.6054    1250.7646     12.65213     22.50508    13.830765     16.61413     42.74236   -26.221697    12.612127     22.30075    14.235163 
  236200    306.36393   -4.0377093   -4.0377093            0            0            0            0   -4.0377093    1192.6558    1188.6181    12.656065    22.503941    13.830161    17.007842    42.628345   -26.282131    12.612127     22.30075    14.235163 
  236400     314.9156    13.127684    13.127684            0            0            0            0    13.127684    1225.9469    1239.0745    12.660457    22.503854    13.829206    17.447237    42.619641   -26.377629    12.612127     22.30075    14.235163 
  236600    307.10131   -1.0026761   -1.0026761            0            0            0            0   -1.0026761    1195.5264    1194.5237     12.66466    22.504064    13.827796    17.867684    42.640679    -26.51868    12.612127     22.30075    14.235163 
  236800    318.01305    107.84561    107.84561            0            0            0            0    107.84561    1238.0051    1345.8507    12.669444    22.505027    13.826268    18.346217    42.737076   -26.671599    12.612127     22.30075    14.235163 
  237000    312.95788    144.86905    144.86905            0            0            0            0    144.86905    1218.3256    1363.1946    12.675417    22.507354    13.825064     18.94378    42.969852   -26.791983    12.612127     22.30075    14.235163 
  237200    317.36763    78.947504    78.947504            0            0            0            0    78.947504    1235.4925      1314.44    12.678576    22.507851    13.824725    19.259805    43.019523   -26.825903    12.612127     22.30075    14.235163 
  237400    313.98406     93.76384     93.76384            0            0            0            0     93.76384    1222.3204    1316.0843    12.678762    22.506117     13.82391    19.278466    42.846062   -26.907456    12.612127     22.30075    14.235163 
  237600    316.96839   -4.6634706   -4.6634706            0            0            0            0   -4.6634706    1233.9383    1229.2748    12.679357    22.505634    13.822633    19.337979     42.79774   -27.035254    12.612127     22.30075    14.235163 
  237800    317.52538    1.1161118    1.1161118            0            0            0            0    1.1161118    1236.1066    1237.2227    12.680816    22.505762    13.821569     19.48397     42.81061   -27.141697    12.612127     22.30075    14.235163 
  238000    309.14764   -11.066435   -11.066435            0            0            0            0   -11.066435    1203.4926    1192.4261    12.682299    22.505259    13.820644    19.632267    42.760256    -27.23416    12.612127     22.30075    14.235163 
  238200    314.51421    70.851241    70.851241            0            0            0            0    70.851241    1224.3843    1295.2355    12.683664    22.504021    13.819839    19.768816    42.636422   -27.314759    12.612127     22.30075    14.235163 
  238400    322.65523    174.92571    174.92571            0            0            0            0    174.92571    1256.0768    1431.0025    12.684851     22.50221    13.819176    19.887651    42.455184   -27.381107    12.612127     22.30075    14.235163 
  238600    316.62534    164.68725    164.68725            0            0            0            0    164.68725    1232.6028      1397.29    12.686549    22.501363    13.818352    20.057486    42.370473   -27.463506    12.612127     22.30075    14.235163 
  238800    309.60557     9.482721     9.482721            0            0            0            0     9.482721    1205.2753     1214.758    12.688012    22.500597    13.817547    20.203815    42.293805   -27.544036    12.612127     22.30075    14.235163 
  239000    323.60729    108.87941    108.87941            0            0            0            0    108.87941    1259.7831    1368.6625    12.689241    22.500811    13.817313    20.326793    42.315298   -27.567482    12.612127     22.30075    14.235163 
  239200    317.59439    116.46492    116.46492            0            0            0            0    116.46492    1236.3753    1352.8402    12.688338    22.500834     13.81908    20.236411    42.317521   -27.390691    12.612127     22.30075    14.235163 
  239400     308.5611    13.469225    13.469225            0            0            0            0    13.469225    1201.2092    1214.6784    12.683861    22.499106    13.820942    19.788542    42.144709   -27.204359    12.612127     22.30075    14.235163 
  239600    308.18166    94.481385    94.481385            0            0            0            0    94.481385    1199.7321    1294.2135    12.677921    22.496715    13.822696    19.194333    41.905487   -27.028925    12.612127     22.30075    14.235163 
  239800     314.1475   -13.197928   -13.197928            0            0            0            0   -13.197928    1222.9567    1209.7588    12.671525    22.496139    13.823985    18.554481    41.847853   -26.899981    12.612127     22.30075    14.235163 
  240000    311.07251    55.799814    55.799814            0            0            0            0    55.799814     1210.986    1266.7858    12.665049    22.496186    13.825202    17.906618    41.852586   -26.778254    12.612127     22.30075    14.235163 
  240200    305.38285    86.054931    86.054931            0            0            0            0    86.054931    1188.8365    1274.8914    12.661179    22.496494    13.825842     17.51944    41.883395    -26.71415    12.612127     22.30075    14.235163 
  240400     316.9789    73.105115    73.105115            0            0            0            0    73.105115    1233.9792    1307.0843    12.660484    22.494122    13.825673    17.449904     41.64608   -26.731073    12.612127     22.30075    14.235163 
  240600     315.6711    3.4412768    3.4412768            0            0            0            0    3.4412768     1228.888    1232.3293    12.660768    22.489501    13.825116    17.478307    41.183809   -26.786838    12.612127     22.30075    14.235163 
  240800     306.1093    28.603109    28.603109            0            0            0            0    28.603109    1191.6645    1220.2676     12.66132    22.485558    13.824314     17.53351    40.789337    -26.86706    12.612127     22.30075    14.235163 
  241000    315.82085    60.866793    60.866793            0            0            0            0    60.866793     1229.471    1290.3378    12.662922    22.482103    13.823063     17.69384    40.443687   -26.992234    12.612127     22.30075    14.235163 
  241200    322.34734    448.13274    448.13274            0            0            0            0    448.13274    1254.8782    1703.0109    12.665664     22.47912     13.82204    17.968056    40.145211   -27.094547    12.612127     22.30075    14.235163 
  241400    307.61941    25.669728    25.669728            0            0            0            0    25.669728    1197.5433     1223.213    12.665758    22.477903     13.82321    17.977522    40.023471   -26.977531    12.612127     22.30075    14.235163 
  241600     307.2766    49.430179    49.430179            0            0            0            0    49.430179    1196.2087    1245.6389    12.666434    22.477865    13.825051     18.04515    40.019665   -26.793327    12.612127     22.30075    14.235163 
  241800    317.92125    178.15934    178.15934            0            0            0            0    178.15934    1237.6477     1415.807    12.665679    22.479302    13.827428    17.969653    40.163468     -26.5555    12.612127     22.30075    14.235163 
  242000    322.62145    61.906755    61.906755            0            0            0            0    61.906755    1255.9453     1317.852    12.662524    22.483874    13.829893    17.654016    40.620835   -26.308927    12.612127     22.30075    14.235163 
  242200    319.22266    30.239168    30.239168            0            0            0            0    30.239168     1242.714    1272.9532    12.660635    22.489161    13.831765    17.465035    41.149754   -26.121666    12.612127     22.30075    14.235163 
  242400    316.96127    324.60724    324.60724            0            0            0            0    324.60724    1233.9106    1558.5178    12.660461    22.494316    13.834284    17.447597    41.665441   -25.869581    12.612127     22.30075    14.235163 
  242600    313.39831    124.29456    124.29456            0            0            0            0    124.29456    1220.0402    1344.3347    12.661256    22.498027    13.837187    17.527142    42.036747     -25.5792    12.612127     22.30075    14.235163 
  242800    313.72039    5.8170413    5.8170413            0            0            0            0    5.8170413     1221.294    1227.1111    12.663342    22.500433    13.840405    17.735841     42.27745    -25.25729    12.612127     22.30075    14.235163 
  243000    310.04707   -24.584623   -24.584623            0            0            0            0   -24.584623     1206.994    1182.4094     12.66561    22.502001     13.84386    17.962739     42.43429   -24.911656    12.612127     22.30075    14.235163 
  243200    312.05291    23.159697    23.159697            0            0            0            0    23.159697    1214.8026    1237.9623    12.667825    22.503457    13.847357     18.18429    42.580004   -24.561764    12.612127     22.30075    14.235163 
  243400    304.37064    201.23503    201.23503            0            0            0            0    201.23503     1184.896     1386.131    12.671479    22.503879    13.850773    18.549861     42.62217   -24.220062    12.612127     22.30075    14.235163 
  243600    317.85567     171.9514     171.9514            0            0            0            0     171.9514    1237.3924    1409.3438    12.674939    22.502434    13.853351    18.895948    42.477601   -23.962084    12.612127     22.30075    14.235163 
  243800    300.83483    7.6614546    7.6614546            0            0            0            0    7.6614546    1171.1313    1178.7928    12.676272    22.503261    13.854766    19.029348    42.560408   -23.820595    12.612127     22.30075    14.235163 
  244000    315.62885    102.84054    102.84054            0            0            0            0    102.84054    1228.7235     1331.564    12.676671    22.504354    13.855564    19.069317    42.669682   -23.740715    12.612127     22.30075    14.235163 
  244200    313.47796    23.170606    23.170606            0            0            0            0    23.170606    1220.3502    1243.5208    12.675124    22.504053    13.855797    18.914546      42.6396   -23.717445    12.612127     22.30075    14.235163 
  244400    313.64436   -3.3683799   -3.3683799            0            0            0            0   -3.3683799     1220.998    1217.6296    12.673089    22.503564    13.855898    18.710884    42.590693   -23.707273    12.612127     22.30075    14.235163 
  244600    314.98701    158.74661    158.74661            0            0            0            0    158.74661    1226.2249    1384.9715    12.671815    22.503097    13.856291    18.583426    42.543932   -23.667984    12.612127     22.30075    14.235163 
  244800    317.67214    86.375565    86.375565            0            0            0            0    86.375565    1236.6779    1323.0535    12.670751    22.499923    13.857418     18.47706    42.226382   -23.555287    12.612127     22.30075    14.235163 
  245000    311.67592    130.99019    130.99019            0            0            0            0    130.99019     1213.335    1344.3252    12.668038    22.497966    13.857885    18.205642    42.030677   -23.508571    12.612127     22.30075    14.235163 
  245200    311.97854    6.8731651    6.8731651            0            0            0            0    6.8731651    1214.5131    1221.3862    12.666753    22.496414    13.858394    18.077015    41.875388   -23.457566    12.612127     22.30075    14.235163 
  245400    325.96418    160.82111    160.82111            0            0            0            0    160.82111    1268.9583    1429.7794    12.666996    22.494418    13.858768    18.101341    41.675721   -23.420165    12.612127     22.30075    14.235163 
  245600     300.3787    61.656005    61.656005            0            0            0            0    61.656005    1169.3556    1231.0116    12.670238     22.49192     13.85945    18.425741     41.42577   -23.351924    12.612127     22.30075    14.235163 
  245800    304.77407    8.8514377    8.8514377            0            0            0            0    8.8514377    1186.4665     1195.318     12.67303    22.492012    13.858779    18.705062    41.434947   -23.419142    12.612127     22.30075    14.235163 
  246000    322.00034    54.924821    54.924821            0            0            0            0    54.924821    1253.5273    1308.4521    12.674424    22.494187     13.85658    18.844446     41.65258   -23.639109    12.612127     22.30075    14.235163 
  246200    312.78702   -11.044453   -11.044453            0            0            0            0   -11.044453    1217.6605     1206.616    12.675324    22.497247    13.854356    18.934543     41.95869    -23.86155    12.612127     22.30075    14.235163 
  246400    324.60145    114.63343    114.63343            0            0            0            0    114.63343    1263.6533    1378.2867    12.676022    22.500835    13.852096    19.004306    42.317616   -24.087652    12.612127     22.30075    14.235163 
  246600    314.70286    40.029829    40.029829            0            0            0            0    40.029829    1225.1187    1265.1485    12.675128    22.506093    13.850133    18.914897    42.843704   -24.284069    12.612127     22.30075    14.235163 
  246800     314.4206    54.897996    54.897996            0            0            0            0    54.897996    1224.0199    1278.9179    12.674785    22.512229    13.848572    18.880631    43.457513   -24.440226    12.612127     22.30075    14.235163 
  247000    310.69446    227.84508    227.84508            0            0            0            0    227.84508    1209.5142    1437.3593    12.674756    22.517859    13.847891    18.877717    44.020799   -24.508334    12.612127     22.30075    14.235163 
  247200     313.7138    86.486943    86.486943            0            0            0            0    86.486943    1221.2684    1307.7553    12.676232    22.522594    13.849572    19.025347    44.494459   -24.340201    12.612127     22.30075    14.235163 
  247400    316.93345    85.202314    85.202314            0            0            0            0    85.202314    1233.8023    1319.0046    12.679285    22.524826    13.852698    19.330788    44.717807   -24.027464    12.612127     22.30075    14.235163 
  247600    312.60163     115.1676     115.1676            0            0            0            0     115.1676    1216.9388    1332.1064    12.681296    22.524931     13.85648    19.531995    44.728231   -23.649069    12.612127     22.30075    14.235163 
  247800     307.2571    4.6448626    4.6448626            0            0            0            0    4.6448626    1196.1328    1200.7777    12.681214     22.52282    13.860208     19.52376    44.517108   -23.276154    12.612127     22.30075    14.235163 
  248000     320.4487    6.8484946    6.8484946            0            0            0            0    6.8484946    1247.4869    1254.3354    12.680622    22.519632     13.86384    19.464523    44.198156   -22.912763    12.612127     22.30075    14.235163 
  248200    318.63034    239.06732    239.06732            0            0            0            0    239.06732    1240.4082    1479.4755     12.68002    22.515282    13.867704    19.404353    43.762981   -22.526217    12.612127     22.30075    14.235163 
  248400    307.00357    23.258322    23.258322            0            0            0            0    23.258322    1195.1458    1218.4042    12.677887    22.510713     13.87167    19.190878    43.305919    -22.12946    12.612127     22.30075    14.235163 
  248600     314.0658    63.575655    63.575655            0            0            0            0    63.575655    1222.6387    1286.2143    12.675752    22.505104    13.875401    18.977371    42.744698   -21.756156    12.612127     22.30075    14.235163 
  248800    310.14663    78.569509    78.569509            0            0            0            0    78.569509    1207.3816    1285.9511    12.671703    22.499285     13.87997    18.572218    42.162573   -21.299155    12.612127     22.30075    14.235163 
  249000    310.00526     112.7258     112.7258            0            0            0            0     112.7258    1206.8312     1319.557    12.666834    22.494169    13.885083    18.085176    41.650776   -20.787602    12.612127     22.30075    14.235163 
  249200     302.3074    22.930633    22.930633            0            0            0            0    22.930633    1176.8639    1199.7946    12.662179    22.490116    13.890903    17.619413    41.245267   -20.205396    12.612127     22.30075    14.235163 
  249400    318.11114   -17.251584   -17.251584            0            0            0            0   -17.251584    1238.3869    1221.1353    12.657459    22.487058    13.897155    17.147231    40.939405   -19.579861    12.612127     22.30075    14.235163 
  249600    306.04864    64.591642    64.591642            0            0            0            0    64.591642    1191.4284      1256.02    12.652935    22.484331    13.903421     16.69464    40.666551   -18.953022    12.612127     22.30075    14.235163 
  249800    320.10653    145.41352    145.41352            0            0            0            0    145.41352    1246.1548    1391.5684    12.648633    22.483844    13.909561    16.264307    40.617872   -18.338804    12.612127     22.30075    14.235163 
  250000    321.84361    53.635965    53.635965            0            0            0            0    53.635965    1252.9172    1306.5532    12.647293    22.485859    13.915756     16.13028    40.819456   -17.719023    12.612127     22.30075    14.235163 
  250200    308.03219    56.500409    56.500409            0            0            0            0    56.500409    1199.1502    1255.6506    12.648167    22.489081    13.922359    16.217667    41.141731   -17.058412    12.612127     22.30075    14.235163 
  250400    319.41519     27.38882     27.38882            0            0            0            0     27.38882    1243.4635    1270.8523    12.649466     22.49437    13.929027    16.347611    41.670906   -16.391377    12.612127     22.30075    14.235163 
  250600    302.93052   -3.0719704   -3.0719704            0            0            0            0   -3.0719704    1179.2897    1176.2177    12.651309    22.500805     13.93509    16.531997    42.314669   -15.784742    12.612127     22.30075    14.235163 
  250800    323.01087   -15.488848   -15.488848            0            0            0            0   -15.488848    1257.4613    1241.9724    12.653546    22.507401     13.94102    16.755814    42.974535   -15.191584    12.612127     22.30075    14.235163 
  251000    306.51468   -14.546805   -14.546805            0            0            0            0   -14.546805    1193.2426    1178.6958     12.65616    22.513799    13.946826    17.017326    43.614627   -14.610671    12.612127     22.30075    14.235163 
  251200    316.50725    155.30766    155.30766            0            0            0            0    155.30766    1232.1431    1387.4507    12.659202    22.519423    13.952516    17.321597    44.177219   -14.041477    12.612127     22.30075    14.235163 
  251400    313.85996    69.857005    69.857005            0            0            0            0    69.857005    1221.8373    1291.6943     12.66379    22.521282    13.956977    17.780637    44.363233   -13.595154    12.612127     22.30075    14.235163 
  251600    312.47033    30.119183    30.119183            0            0            0            0    30.119183    1216.4276    1246.5468    12.667948    22.520589    13.960351    18.196593     44.29392     -13.2576    12.612127     22.30075    14.235163 
  251800    318.84464    7.7285467    7.7285467            0            0            0            0    7.7285467    1241.2424    1248.9709    12.670605    22.519043    13.963389    18.462391     44.13921   -12.953667    12.612127     22.30075    14.235163 
  252000     305.0596    21.001239    21.001239            0            0            0            0    21.001239    1187.5781    1208.5793    12.672276    22.516874     13.96626    18.629571    43.922213   -12.666457    12.612127     22.30075    14.235163 
  252200    312.25074   -7.7146678   -7.7146678            0            0            0            0   -7.7146678    1215.5727    1207.8581    12.672902    22.513893    13.968805    18.692248     43.62396   -12.411858    12.612127     22.30075    14.235163 
  252400    324.23465    29.882596    29.882596            0            0            0            0    29.882596    1262.2254     1292.108    12.673519    22.510396    13.971179    18.753955    43.274166   -12.174402    12.612127     22.30075    14.235163 
  252600    305.70894    12.449957    12.449957            0            0            0            0    12.449957    1190.1059    1202.5559    12.673459    22.506901    13.973563    18.747939    42.924559   -11.935913    12.612127     22.30075    14.235163 
  252800    312.39695   -16.474078   -16.474078            0            0            0            0   -16.474078    1216.1419    1199.6679    12.672493    22.503887    13.976351    18.651316    42.623021   -11.656977    12.612127     22.30075    14.235163 
  253000    303.80847   -5.6295321   -5.6295321            0            0            0            0   -5.6295321    1182.7075     1177.078     12.67155    22.500671    13.979218    18.556969    42.301234   -11.370167    12.612127     22.30075    14.235163 
  253200    331.52839     115.0521     115.0521            0            0            0            0     115.0521    1290.6195    1405.6716    12.671158    22.497149    13.982008    18.517758    41.948861   -11.091002    12.612127     22.30075    14.235163 
  253400    312.91904    36.607128    36.607128            0            0            0            0    36.607128    1218.1744    1254.7815    12.671205    22.494318    13.985085    18.522448    41.665664   -10.783189    12.612127     22.30075    14.235163 
  253600    310.37578    64.753668    64.753668            0            0            0            0    64.753668    1208.2736    1273.0273    12.671661    22.493037    13.988154    18.568057     41.53756   -10.476122    12.612127     22.30075    14.235163 
  253800    324.60561   -14.292804   -14.292804            0            0            0            0   -14.292804    1263.6695    1249.3767    12.672082    22.493617    13.991058    18.610159    41.595574   -10.185618    12.612127     22.30075    14.235163 
  254000    319.22172   -16.593723   -16.593723            0            0            0            0   -16.593723    1242.7103    1226.1166    12.672222    22.494644    13.994083    18.624217    41.698322   -9.8830228    12.612127     22.30075    14.235163 
  254200    304.43175     -11.8934     -11.8934            0            0            0            0     -11.8934    1185.1339    1173.2405    12.672039    22.495563    13.997057    18.605859    41.790194   -9.5854593    12.612127     22.30075    14.235163 
  254400    327.66485    2.9557091    2.9557091            0            0            0            0    2.9557091    1275.5789    1278.5346    12.671542    22.496265    14.000005    18.556199    41.860477   -9.2906092    12.612127     22.30075    14.235163 
  254600    312.33463    27.912635    27.912635            0            0            0            0    27.912635    1215.8993     1243.812    12.671429    22.496721     14.00287    18.544856    41.906125   -9.0039726    12.612127     22.30075    14.235163 
  254800    317.33656    162.90006    162.90006            0            0            0            0    162.90006    1235.3715    1398.2716    12.671389    22.497326    14.005939    18.540885    41.966619   -8.6968979    12.612127     22.30075    14.235163 
  255000    311.01188    181.61242    181.61242            0            0            0            0    181.61242    1210.7499    1392.3624    12.671008    22.497516     14.01013    18.502709    41.985657   -8.2776158    12.612127     22.30075    14.235163 
  255200    309.89266    9.9961722    9.9961722            0            0            0            0    9.9961722    1206.3929     1216.389    12.671742    22.496872    14.014481    18.576208    41.921228   -7.8423246    12.612127     22.30075    14.235163 
  255400    318.82965    -29.45735    -29.45735            0            0            0            0    -29.45735     1241.184    1211.7267    12.672415    22.495714    14.018484    18.643464    41.805348   -7.4418516    12.612127     22.30075    14.235163 
  255600     307.2092   -17.867853   -17.867853            0            0            0            0   -17.867853    1195.9463    1178.0785    12.673074    22.494554    14.022468    18.709421    41.689289   -7.0432818    12.612127     22.30075    14.235163 
  255800    314.25258   -26.249519   -26.249519            0            0            0            0   -26.249519    1223.3658    1197.1163    12.673929    22.493488    14.026463    18.794979    41.582638   -6.6436588    12.612127     22.30075    14.235163 
  256000    298.60681    46.481931    46.481931            0            0            0            0    46.481931    1162.4578    1208.9397    12.674837    22.492495    14.030524    18.885825    41.483295   -6.2373713    12.612127     22.30075    14.235163 
  256200    308.20644    71.254624    71.254624            0            0            0            0    71.254624    1199.8285    1271.0831    12.674749    22.492212    14.034733    18.877022    41.455011   -5.8163355    12.612127     22.30075    14.235163 
  256400    318.76127    57.190944    57.190944            0            0            0            0    57.190944    1240.9178    1298.1088    12.674572    22.491684    14.038851    18.859234    41.402133   -5.4042892    12.612127     22.30075    14.235163 
  256600    301.96353   -18.653151   -18.653151            0            0            0            0   -18.653151    1175.5253    1156.8721    12.674592    22.489699    14.042783    18.861295    41.203583   -5.0110027    12.612127     22.30075    14.235163 
  256800    318.15308    13.518725    13.518725            0            0            0            0    13.518725    1238.5502    1252.0689    12.674583    22.487539    14.046387    18.860413    40.987475    -4.650381    12.612127     22.30075    14.235163 
  257000    298.63566    154.63553    154.63553            0            0            0            0    154.63553    1162.5701    1317.2056    12.674003    22.486171    14.050033    18.802318    40.850654   -4.2856884    12.612127     22.30075    14.235163 
  257200    319.00406    23.895971    23.895971            0            0            0            0    23.895971     1241.863     1265.759    12.675589    22.486767    14.054557    18.960991    40.910247   -3.8330348    12.612127     22.30075    14.235163 
  257400       310.75    16.359169    16.359169            0            0            0            0    16.359169    1209.7305    1226.0896    12.678026    22.488751    14.059336    19.204814     41.10876   -3.3550052    12.612127     22.30075    14.235163 
  257600     324.0695     1.260643     1.260643            0            0            0            0     1.260643    1261.5825    1262.8431    12.680455    22.491622    14.064287    19.447815    41.395978   -2.8596495    12.612127     22.30075    14.235163 
  257800    303.41837    -20.00048    -20.00048            0            0            0            0    -20.00048    1181.1889    1161.1884    12.682456    22.494833    14.069351    19.648061    41.717196    -2.353067    12.612127     22.30075    14.235163 
  258000    309.21272    66.852164    66.852164            0            0            0            0    66.852164    1203.7459    1270.5981    12.684314     22.49827    14.074411    19.833914    42.061005   -1.8468665    12.612127     22.30075    14.235163 
  258200    307.52988   0.42898947   0.42898947            0            0            0            0   0.42898947    1197.1947    1197.6237    12.686068    22.503327    14.078895    20.009395    42.566942   -1.3982545    12.612127     22.30075    14.235163 
  258400    303.72638    214.01726    214.01726            0            0            0            0    214.01726     1182.388    1396.4052    12.686847    22.508985    14.083211    20.087268    43.133003  -0.96646018    12.612127     22.30075    14.235163 
  258600     306.2996    84.971347    84.971347            0            0            0            0    84.971347    1192.4053    1277.3767    12.685118    22.512712    14.087142    19.914364    43.505892  -0.57316903    12.612127     22.30075    14.235163 
  258800    321.71626   -7.7033772   -7.7033772            0            0            0            0   -7.7033772    1252.4214    1244.7181    12.682491    22.515052    14.090861    19.651489     43.73992  -0.20111272    12.612127     22.30075    14.235163 
  259000    306.32727    4.5663777    4.5663777            0            0            0            0    4.5663777    1192.5131    1197.0794    12.679597    22.517151    14.094404    19.361949    43.949933    0.1533151    12.612127     22.30075    14.235163 
  259200    322.97248   -21.265373   -21.265373            0            0            0            0   -21.265373    1257.3118    1236.0465    12.676614    22.519006    14.097779     19.06357    44.135564    0.4909828    12.612127     22.30075    14.235163 
  259400    300.88015   -6.7044052   -6.7044052            0            0            0            0   -6.7044052    1171.3077    1164.6033    12.673586    22.520769     14.10112    18.760634    44.311936    0.8252352    12.612127     22.30075    14.235163 
  259600    305.99962    158.79545    158.79545            0            0            0            0    158.79545    1191.2375     1350.033    12.670392    22.522243    14.104605    18.441122    44.459366    1.1738153    12.612127     22.30075    14.235163 
  259800    305.45729    124.98058    124.98058            0            0            0            0    124.98058    1189.1263    1314.1068    12.667837    22.524503    14.108465    18.185456    44.685455     1.559973    12.612127     22.30075    14.235163 
  260000    317.23075    56.538028    56.538028            0            0            0            0    56.538028    1234.9596    1291.4976    12.666996    22.525368    14.112219    18.101337    44.772017    1.9355667    12.612127     22.30075    14.235163 
  260200    289.82601    34.677225    34.677225            0            0            0            0    34.677225    1128.2747    1162.9519    12.666103    22.523991    14.115851    18.012051    44.634277    2.2989095    12.612127     22.30075    14.235163 
  260400    316.00068    18.392851    18.392851            0            0            0            0    18.392851     1230.171    1248.5639    12.665571     22.52092    14.119605    17.958851    44.327031    2.6744413    12.612127     22.30075    14.235163 
  260600    319.46599   -21.538578   -21.538578            0            0            0            0   -21.538578    1243.6613    1222.1227    12.665853    22.517114    14.123137    17.987046    43.946289    3.0277709    12.612127     22.30075    14.235163 
  260800    328.49969    193.77613    193.77613            0            0            0            0    193.77613    1278.8289     1472.605    12.666101    22.512761    14.126787    18.011808    43.510722    3.3929866    12.612127     22.30075    14.235163 
  261000    317.37575    86.449426    86.449426            0            0            0            0    86.449426    1235.5241    1321.9735    12.665042    22.504991     14.13122    17.905859    42.733456    3.8364116    12.612127     22.30075    14.235163 
  261200    318.52933    1.8213061    1.8213061            0            0            0            0    1.8213061    1240.0149    1241.8362    12.663799    22.497484    14.135645    17.781494    41.982448    4.2791745    12.612127     22.30075    14.235163 
  261400    320.56689    59.381421    59.381421            0            0            0            0    59.381421     1247.947    1307.3284    12.662429    22.491199    14.139967    17.644445     41.35361    4.7114699    12.612127     22.30075    14.235163 
  261600    317.53073     61.44898     61.44898            0            0            0            0     61.44898    1236.1274    1297.5764    12.661158    22.487231    14.143745     17.51731    40.956703    5.0894476    12.612127     22.30075    14.235163 
  261800    322.40835    174.98173    174.98173            0            0            0            0    174.98173    1255.1157    1430.0974    12.661993    22.485432    14.147932    17.600885    40.776721    5.5084014    12.612127     22.30075    14.235163 
  262000    307.71741    1.6382591    1.6382591            0            0            0            0    1.6382591    1197.9248     1199.563    12.665264     22.48734    14.152017    17.928053     40.96758    5.9169952    12.612127     22.30075    14.235163 
  262200     326.2677    31.510223    31.510223            0            0            0            0    31.510223    1270.1399    1301.6501    12.668817    22.489996    14.156047    18.283573    41.233279    6.3201566    12.612127     22.30075    14.235163 
  262400    313.20998   -2.4164166   -2.4164166            0            0            0            0   -2.4164166     1219.307    1216.8906    12.673149     22.49316     14.16035    18.716887    41.549866    6.7506944    12.612127     22.30075    14.235163 
  262600    307.65679    83.584246    83.584246            0            0            0            0    83.584246    1197.6888     1281.273    12.677951     22.49669    14.164505    19.197327    41.902976    7.1663786    12.612127     22.30075    14.235163 
  262800    320.06336    56.813689    56.813689            0            0            0            0    56.813689    1245.9868    1302.8005    12.683473    22.500198    14.167747     19.74977    42.253961    7.4906725    12.612127     22.30075    14.235163 
  263000     309.6817    14.581794    14.581794            0            0            0            0    14.581794    1205.5716    1220.1534    12.687666    22.503932    14.170976    20.169249     42.62752    7.8137383    12.612127     22.30075    14.235163 
  263200    314.62326    33.731511    33.731511            0            0            0            0    33.731511    1224.8088    1258.5403    12.690395    22.507768    14.173773      20.4422    43.011284    8.0935164    12.612127     22.30075    14.235163 
  263400    315.65418    439.04533    439.04533            0            0            0            0    439.04533    1228.8221    1667.8675    12.690827    22.510799    14.176962    20.485458     43.31449    8.4125851    12.612127     22.30075    14.235163 
  263600    308.46351    208.37052    208.37052            0            0            0            0    208.37052    1200.8293    1409.1998    12.688095    22.510044    14.182713     20.21214    43.238977    8.9879091    12.612127     22.30075    14.235163 
  263800    325.63413    22.480111    22.480111            0            0            0            0    22.480111    1267.6734    1290.1536    12.682313    22.507563     14.18814    19.633662    42.990767    9.5308756    12.612127     22.30075    14.235163 
  264000    306.49291    6.1302943    6.1302943            0            0            0            0    6.1302943    1193.1579    1199.2882     12.67533    22.503728    14.193649    18.935115    42.607066    10.081998    12.612127     22.30075    14.235163 
  264200    313.27606   -12.893895   -12.893895            0            0            0            0   -12.893895    1219.5642    1206.6704     12.66831    22.498924    14.199333    18.232797    42.126524    10.650594    12.612127     22.30075    14.235163 
  264400     307.5888    51.545513    51.545513            0            0            0            0    51.545513    1197.4241    1248.9696    12.661444    22.494104    14.205067    17.545946    41.644256    11.224233    12.612127     22.30075    14.235163 
  264600    313.74658    15.561078    15.561078            0            0            0            0    15.561078     1221.396     1236.957    12.655755    22.488686    14.210628    16.976839    41.102287    11.780553    12.612127     22.30075    14.235163 
  264800     313.0182    102.85407    102.85407            0            0            0            0    102.85407    1218.5604    1321.4145    12.651073    22.483671    14.216033    16.508359    40.600494    12.321326    12.612127     22.30075    14.235163 
  265000    313.99505    146.85529    146.85529            0            0            0            0    146.85529    1222.3632    1369.2185    12.650698    22.480956    14.222732    16.470832    40.328939    12.991455    12.612127     22.30075    14.235163 
  265200    324.87089     14.77047     14.77047            0            0            0            0     14.77047    1264.7022    1279.4727    12.655248    22.481651    14.228496    16.926075     40.39847    13.568101    12.612127     22.30075    14.235163 
  265400    312.12617    26.337393    26.337393            0            0            0            0    26.337393    1215.0878    1241.4252    12.659398     22.48354    14.234029    17.341262    40.587431    14.121671    12.612127     22.30075    14.235163 
  265600    316.45646    51.030294    51.030294            0            0            0            0    51.030294    1231.9454    1282.9757    12.663247    22.486773    14.239398     17.72635    40.910827    14.658827    12.612127     22.30075    14.235163 
  265800    308.29934    131.17078    131.17078            0            0            0            0    131.17078    1200.1902     1331.361    12.668232    22.491586    14.244933     18.22499    41.392388    15.212562    12.612127     22.30075    14.235163 
  266000    318.68832   -5.8501332   -5.8501332            0            0            0            0   -5.8501332    1240.6338    1234.7837    12.672243    22.497829    14.251657    18.626332    42.016892      15.8852    12.612127     22.30075    14.235163 
  266200    313.73057    12.609272    12.609272            0            0            0            0    12.609272    1221.3337    1233.9429    12.675443    22.503689    14.258823    18.946426    42.603142    16.602093    12.612127     22.30075    14.235163 
  266400    325.48161    34.625567    34.625567            0            0            0            0    34.625567    1267.0797    1301.7053    12.678623    22.508333      14.2663    19.264544    43.067728    17.350105    12.612127     22.30075    14.235163 
  266600    321.70087     215.4092     215.4092            0            0            0            0     215.4092    1252.3615    1467.7707    12.679576    22.511699    14.273654    19.359932    43.404468    18.085861    12.612127     22.30075    14.235163 
  266800     299.9514    53.355899    53.355899            0            0            0            0    53.355899    1167.6922    1221.0481    12.676766    22.511224    14.279396    19.078792    43.356981    18.660262    12.612127     22.30075    14.235163 
  267000     311.2194    20.278714    20.278714            0            0            0            0    20.278714    1211.5578    1231.8365    12.673987    22.507631    14.285996    18.800734    42.997513    19.320519    12.612127     22.30075    14.235163 
  267200    321.29647   -3.8047503   -3.8047503            0            0            0            0   -3.8047503    1250.7872    1246.9824     12.67156    22.502454    14.292638    18.557909    42.479607    19.985042    12.612127     22.30075    14.235163 
  267400    307.58026    5.2496564    5.2496564            0            0            0            0    5.2496564    1197.3908    1202.6405    12.669118    22.496988    14.299305    18.313618    41.932793    20.652065    12.612127     22.30075    14.235163 
  267600    318.02656   -6.5085793   -6.5085793            0            0            0            0   -6.5085793    1238.0576    1231.5491    12.666624    22.490883     14.30614    18.064102    41.322035     21.33583    12.612127     22.30075    14.235163 
  267800    305.10076    212.38453    212.38453            0            0            0            0    212.38453    1187.7383    1400.1228    12.664203     22.48584    14.312959    17.821945    40.817501    22.017982    12.612127     22.30075    14.235163 
  268000    316.50555    25.280178    25.280178            0            0            0            0    25.280178    1232.1364    1257.4166    12.663149    22.485417     14.31814     17.71647    40.775192      22.5363    12.612127     22.30075    14.235163 
  268200    318.83702    139.35434    139.35434            0            0            0            0    139.35434    1241.2127    1380.5671    12.663304    22.486956    14.322909    17.731977    40.929198    23.013376    12.612127     22.30075    14.235163 
  268400    303.26325 -0.098443494 -0.098443494            0            0            0            0 -0.098443494     1180.585    1180.4866    12.664747    22.490603    14.327531    17.876326    41.294026    23.475793    12.612127     22.30075    14.235163 
  268600    319.79828    40.334639    40.334639            0            0            0            0    40.334639    1244.9548    1285.2895      12.6664    22.494042    14.332021    18.041716    41.638035    23.924954    12.612127     22.30075    14.235163 
  268800    305.66856    2.2745432    2.2745432            0            0            0            0    2.2745432    1189.9487    1192.2233    12.668277     22.49794    14.336432    18.229508    42.028089    24.366302    12.612127     22.30075    14.235163 
  269000    323.69273    150.41508    150.41508            0            0            0            0    150.41508    1260.1157    1410.5308     12.67009    22.501852    14.340669    18.410862    42.419378    24.790163    12.612127     22.30075    14.235163 
  269200    306.81517    104.63412    104.63412            0            0            0            0    104.63412    1194.4124    1299.0465    12.671699    22.502851    14.344129    18.571846     42.51939    25.136305    12.612127     22.30075    14.235163 
  269400    311.19552     100.1911     100.1911            0            0            0            0     100.1911    1211.4648    1311.6559    12.673092    22.503831    14.345977    18.711168    42.617356    25.321191    12.612127     22.30075    14.235163 
  269600    324.51188    92.573708    92.573708            0            0            0            0    92.573708    1263.3046    1355.8783    12.672968     22.50249    14.346624    18.698826    42.483212     25.38587    12.612127     22.30075    14.235163 
  269800    318.26278    29.513356    29.513356            0            0            0            0    29.513356    1238.9772    1268.4906    12.673511    22.499915    14.347191    18.753171    42.225647    25.442586    12.612127     22.30075    14.235163 
  270000    299.90195   -16.714983   -16.714983            0            0            0            0   -16.714983    1167.4997    1150.7847    12.673281    22.496768    14.347427    18.730116    41.910782    25.466282    12.612127     22.30075    14.235163 
  270200    316.09776   -22.520076   -22.520076            0            0            0            0   -22.520076    1230.5489    1208.0289    12.672807    22.493464    14.347571    18.682676    41.580205     25.48066    12.612127     22.30075    14.235163 
  270400    317.87288    262.68747    262.68747            0            0            0            0    262.68747    1237.4594    1500.1469    12.672717    22.490212    14.347787    18.673687    41.254876    25.502222    12.612127     22.30075    14.235163 
  270600     323.1011     49.70343     49.70343            0            0            0            0     49.70343    1257.8125    1307.5159    12.676187    22.488275    14.348549    19.020887    41.061174     25.57847    12.612127     22.30075    14.235163 
  270800      324.731    128.04812    128.04812            0            0            0            0    128.04812    1264.1576    1392.2058    12.680566    22.487536    14.349681    19.458915    40.987194    25.691761    12.612127     22.30075    14.235163 
  271000    303.92095    39.147456    39.147456            0            0            0            0    39.147456    1183.1454    1222.2928    12.683341    22.488684    14.351397    19.736543    41.102029    25.863374    12.612127     22.30075    14.235163 
  271200    306.61894    99.415938    99.415938            0            0            0            0    99.415938    1193.6485    1293.0644    12.685054     22.48979    14.353563     19.90793    41.212707     26.08008    12.612127     22.30075    14.235163 
  271400     307.0412    41.967428    41.967428            0            0            0            0    41.967428    1195.2923    1237.2598    12.685218    22.489967    14.356546    19.924301    41.230391    26.378477    12.612127     22.30075    14.235163 
  271600    318.84915    190.45919    190.45919            0            0            0            0    190.45919    1241.2599    1431.7191    12.683183    22.490781    14.358962    19.720732    41.311872    26.620218    12.612127     22.30075    14.235163 
  271800    318.03786    39.561058    39.561058            0            0            0            0    39.561058    1238.1016    1277.6627    12.678501    22.491752    14.360382    19.252325    41.408945    26.762244    12.612127     22.30075    14.235163 
  272000    309.00244    106.13444    106.13444            0            0            0            0    106.13444    1202.9273    1309.0617    12.673845    22.491843    14.361585    18.786526    41.418116    26.882683    12.612127     22.30075    14.235163 
  272200    322.94436     119.8204     119.8204            0            0            0            0     119.8204    1257.2024    1377.0228    12.671468    22.491399     14.36345    18.548783    41.373647      27.0692    12.612127     22.30075    14.235163 
  272400    322.31867    47.290355    47.290355            0            0            0            0    47.290355    1254.7666    1302.0569    12.670451    22.491351    14.365936    18.447056    41.368874    27.317934    12.612127     22.30075    14.235163 
  272600    304.41845   -2.1172584   -2.1172584            0            0            0            0   -2.1172584    1185.0821    1182.9649    12.669655    22.492146    14.368693    18.367324    41.448435    27.593713    12.612127     22.30075    14.235163 
  272800    322.21731    34.190261    34.190261            0            0            0            0    34.190261     1254.372    1288.5622    12.668602     22.49323    14.371725    18.262052    41.556804    27.897095    12.612127     22.30075    14.235163 
  273000    317.75791    96.362085    96.362085            0            0            0            0    96.362085    1237.0118    1333.3739    12.669618    22.495469    14.376175    18.363686    41.780841    28.342293    12.612127     22.30075    14.235163 
  273200    312.55688    78.853198    78.853198            0            0            0            0    78.853198    1216.7645    1295.6177    12.670995    22.498318    14.380642    18.501389    42.065869     28.78917    12.612127     22.30075    14.235163 
  273400    313.34626   -7.2879079   -7.2879079            0            0            0            0   -7.2879079    1219.8375    1212.5496    12.669531    22.500222    14.384375    18.354921    42.256296    29.162622    12.612127     22.30075    14.235163 
  273600    314.36155   -15.498531   -15.498531            0            0            0            0   -15.498531      1223.79    1208.2915    12.667152    22.501542    14.387705    18.117013    42.388425     29.49575    12.612127     22.30075    14.235163 
  273800    312.86681    110.36255    110.36255            0            0            0            0    110.36255    1217.9711    1328.3336    12.665254    22.502765    14.391025    17.927138    42.510753    29.827864    12.612127     22.30075    14.235163 
  274000    313.95169    137.28033    137.28033            0            0            0            0    137.28033    1222.1944    1359.4748    12.663412    22.503204     14.39383    17.742778    42.554691    30.108443    12.612127     22.30075    14.235163 
  274200    314.32889    213.65141    213.65141            0            0            0            0    213.65141    1223.6629    1437.3143    12.659359    22.503882     14.39643    17.337293    42.622463    30.368557    12.612127     22.30075    14.235163 
  274400    310.51924    28.726522    28.726522            0            0            0            0    28.726522    1208.8321    1237.5587    12.658703    22.503747     14.39908    17.271758    42.608957    30.633679    12.612127     22.30075    14.235163 
  274600    316.55576    4.9038562    4.9038562            0            0            0            0    4.9038562    1232.3319    1237.2358    12.660106     22.50276    14.401382    17.412107    42.510206    30.863975    12.612127     22.30075    14.235163 
  274800    307.04325    12.248609    12.248609            0            0            0            0    12.248609    1195.3003    1207.5489    12.662737    22.501287    14.403547    17.675248    42.362897    31.080601    12.612127     22.30075    14.235163 
  275000    301.69755    102.48149    102.48149            0            0            0            0    102.48149    1174.4899    1276.9713    12.666361    22.499147    14.405498    18.037836    42.148763    31.275761    12.612127     22.30075    14.235163 
  275200    313.39841    115.38867    115.38867            0            0            0            0    115.38867    1220.0405    1335.4292    12.671581    22.497784    14.406794     18.56002    42.012402    31.405476    12.612127     22.30075    14.235163 
  275400    327.50621    39.456424    39.456424            0            0            0            0    39.456424    1274.9614    1314.4178    12.677119    22.500144    14.407087    19.114092    42.248506    31.434727    12.612127     22.30075    14.235163 
  275600    306.52692     38.21414     38.21414            0            0            0            0     38.21414    1193.2903    1231.5044    12.681209     22.50418    14.406953    19.523279    42.652255    31.421383    12.612127     22.30075    14.235163 
  275800     303.0152    29.176021    29.176021            0            0            0            0    29.176021    1179.6193    1208.7954    12.683795    22.507705    14.406546    19.781925    43.004935     31.38058    12.612127     22.30075    14.235163 
  276000    314.68062    62.569555    62.569555            0            0            0            0    62.569555    1225.0321    1287.6017    12.685934    22.511289    14.405674    19.995967    43.363499    31.293355    12.612127     22.30075    14.235163 
  276200     304.1925    103.96018    103.96018            0            0            0            0    103.96018    1184.2025    1288.1627    12.688128    22.514913    14.404473     20.21543    43.726069    31.173223    12.612127     22.30075    14.235163 
  276400     309.3395     21.17369     21.17369            0            0            0            0     21.17369    1204.2395    1225.4132    12.687176    22.516313    14.402521    20.120246    43.866161    30.977969    12.612127     22.30075    14.235163 
  276600    307.20788   -11.957555   -11.957555            0            0            0            0   -11.957555    1195.9412    1183.9837    12.683648    22.516024    14.399984    19.767254    43.837199     30.72411    12.612127     22.30075    14.235163 
  276800    323.91745   -5.5018124   -5.5018124            0            0            0            0   -5.5018124    1260.9905    1255.4887    12.679839    22.515277    14.397272    19.386159    43.762494    30.452835    12.612127     22.30075    14.235163 
  277000    308.56233    10.963791    10.963791            0            0            0            0    10.963791     1201.214    1212.1778    12.675745    22.513593    14.394651    18.976618    43.593951      30.1906    12.612127     22.30075    14.235163 
  277200    299.17928    9.7624365    9.7624365            0            0            0            0    9.7624365    1164.6864    1174.4488    12.671227    22.510289    14.392493    18.524611    43.263434    29.974734    12.612127     22.30075    14.235163 
  277400    316.82569    181.75122    181.75122            0            0            0            0    181.75122    1233.3827     1415.134    12.666551     22.50536    14.390814    18.056852    42.770327    29.806756    12.612127     22.30075    14.235163 
  277600    315.40762    101.72543    101.72543            0            0            0            0    101.72543    1227.8623    1329.5877    12.664795    22.498956    14.388818    17.881134     42.12972    29.607088    12.612127     22.30075    14.235163 
  277800     305.1631    173.22212    173.22212            0            0            0            0    173.22212     1187.981    1361.2031    12.666086    22.493725    14.387292    18.010348    41.606321     29.45443    12.612127     22.30075    14.235163 
  278000    316.73646    2.3505118    2.3505118            0            0            0            0    2.3505118    1233.0354    1235.3859    12.669578      22.4895     14.38656    18.359687    41.183726    29.381213    12.612127     22.30075    14.235163 
  278200    309.25521   -19.315921   -19.315921            0            0            0            0   -19.315921    1203.9113    1184.5954    12.672339    22.485907    14.385637    18.635865    40.824201    29.288809    12.612127     22.30075    14.235163 
  278400    314.15909     -7.79451     -7.79451            0            0            0            0     -7.79451    1223.0018    1215.2073    12.674644    22.482554    14.384582    18.866519    40.488769    29.183299    12.612127     22.30075    14.235163 
  278600    308.60697    26.939654    26.939654            0            0            0            0    26.939654    1201.3878    1228.3274    12.676733    22.479433    14.383638    19.075481    40.176529    29.088865    12.612127     22.30075    14.235163 
  278800    310.54263    263.77569    263.77569            0            0            0            0    263.77569    1208.9232    1472.6989    12.679361    22.477025     14.38268    19.338382     39.93569    28.993068    12.612127     22.30075    14.235163 
  279000    309.83009    183.02485    183.02485            0            0            0            0    183.02485    1206.1493    1389.1741    12.680595    22.477771    14.379873    19.461852     40.01029    28.712175    12.612127     22.30075    14.235163 
  279200    320.70617    66.855936    66.855936            0            0            0            0    66.855936    1248.4892    1315.3451    12.677697    22.479692    14.376681    19.171906    40.202453    28.392902    12.612127     22.30075    14.235163 
  279400    326.54628     10.74035     10.74035            0            0            0            0     10.74035    1271.2244    1281.9647    12.672956    22.481215    14.374054    18.697577    40.354872    28.130102    12.612127     22.30075    14.235163 
  279600    305.37882    20.421391    20.421391            0            0            0            0    20.421391    1188.8208    1209.2422    12.667745    22.482533    14.372024    18.176251    40.486676    27.926978    12.612127     22.30075    14.235163 
  279800    307.95827    97.324661    97.324661            0            0            0            0    97.324661    1198.8624    1296.1871    12.663739    22.483646    14.369489    17.775507     40.59799    27.673408    12.612127     22.30075    14.235163 
  280000    319.89868   -5.6951709   -5.6951709            0            0            0            0   -5.6951709    1245.3457    1239.6505    12.662044    22.484923     14.36688    17.605926    40.725836    27.412321    12.612127     22.30075    14.235163 
  280200    323.90133     173.7919     173.7919            0            0            0            0     173.7919    1260.9278    1434.7197    12.661225    22.486973    14.364636     17.52404    40.930917    27.187827    12.612127     22.30075    14.235163 
  280400    302.46073    22.055489    22.055489            0            0            0            0    22.055489    1177.4608    1199.5163    12.662478    22.491264    14.363161    17.649335    41.360177    27.040346    12.612127     22.30075    14.235163 
  280600    344.83307    158.04441    158.04441            0            0            0            0    158.04441    1342.4137    1500.4581    12.665452    22.496549    14.361042    17.946852    41.888867    26.828279    12.612127     22.30075    14.235163 
  280800    312.34895    195.23631    195.23631            0            0            0            0    195.23631    1215.9551    1411.1914    12.668716    22.503049    14.358513    18.273423    42.539199    26.575312    12.612127     22.30075    14.235163 
  281000    325.02488    172.46401    172.46401            0            0            0            0    172.46401    1265.3017    1437.7657    12.672655    22.507205    14.357219    18.667479    42.954918     26.44582    12.612127     22.30075    14.235163 
  281200    318.99707    34.515863    34.515863            0            0            0            0    34.515863    1241.8358    1276.3517    12.674497    22.508515    14.356362     18.85174    43.085958    26.360104    12.612127     22.30075    14.235163 
  281400    312.35535    107.66433    107.66433            0            0            0            0    107.66433      1215.98    1323.6443    12.675424    22.509164    14.355722    18.944501     43.15092    26.296053    12.612127     22.30075    14.235163 
  281600    316.02851    53.511406    53.511406            0            0            0            0    53.511406    1230.2794    1283.7908    12.674755     22.50762    14.355532    18.877539    42.996492    26.277055    12.612127     22.30075    14.235163 
  281800    310.20007    41.174798    41.174798            0            0            0            0    41.174798    1207.5896    1248.7644    12.674966    22.504013    14.355055    18.898679    42.635553    26.229315    12.612127     22.30075    14.235163 
  282000    326.67892     25.60361     25.60361            0            0            0            0     25.60361    1271.7407    1297.3444    12.676058    22.498921    14.354342    19.007897    42.126215    26.158063    12.612127     22.30075    14.235163 
  282200    306.06115   -16.538456   -16.538456            0            0            0            0   -16.538456     1191.477    1174.9386    12.675581    22.495255    14.353238    18.960259    41.759377    26.047613    12.612127     22.30075    14.235163 
  282400    323.85045   -26.346188   -26.346188            0            0            0            0   -26.346188    1260.7297    1234.3835    12.674233    22.492484    14.351967    18.825382    41.482222    25.920436    12.612127     22.30075    14.235163 
  282600    305.59337    81.587457    81.587457            0            0            0            0    81.587457     1189.656    1271.2435    12.672922    22.489758    14.350664     18.69419    41.209479    25.790104    12.612127     22.30075    14.235163 
  282800    317.11386    215.53503    215.53503            0            0            0            0    215.53503    1234.5046    1450.0396    12.673551    22.488744    14.349201    18.757106    41.108073    25.643742    12.612127     22.30075    14.235163 
  283000    305.47279    53.235875    53.235875            0            0            0            0    53.235875    1189.1866    1242.4225    12.676363    22.489857    14.348235    19.038416    41.219398    25.547054    12.612127     22.30075    14.235163 
  283200    310.05681    10.083552    10.083552            0            0            0            0    10.083552    1207.0319    1217.1155    12.678294    22.491948    14.347513    19.231683    41.428637    25.474869    12.612127     22.30075    14.235163 
  283400    312.38799    107.41698    107.41698            0            0            0            0    107.41698    1216.1071     1323.524    12.680081    22.493285    14.347115    19.410373    41.562331    25.435062    12.612127     22.30075    14.235163 
  283600    314.07797    57.603238    57.603238            0            0            0            0    57.603238     1222.686    1280.2893    12.682687    22.493009    14.346715    19.671077    41.534747    25.395022    12.612127     22.30075    14.235163 
  283800     308.8074    180.95059    180.95059            0            0            0            0    180.95059     1202.168    1383.1186     12.68385    22.493916    14.346922     19.78748    41.625507    25.415729    12.612127     22.30075    14.235163 
  284000    303.16314   -11.014494   -11.014494            0            0            0            0   -11.014494    1180.1953    1169.1808    12.682786    22.493255    14.347431     19.68101    41.559359    25.466589    12.612127     22.30075    14.235163 
  284200    312.96578   -2.8228346   -2.8228346            0            0            0            0   -2.8228346    1218.3564    1215.5335    12.681363    22.492751    14.348066     19.53864    41.508953    25.530145    12.612127     22.30075    14.235163 
  284400    321.21226   -12.472944   -12.472944            0            0            0            0   -12.472944    1250.4594    1237.9864    12.679497     22.49269    14.348571    19.351951    41.502829    25.580673    12.612127     22.30075    14.235163 
  284600    300.07475    238.31161    238.31161            0            0            0            0    238.31161    1168.1724     1406.484    12.677467    22.493482     14.34894    19.148903    41.582003    25.617601    12.612127     22.30075    14.235163 
  284800    301.69913    152.64169    152.64169            0            0            0            0    152.64169     1174.496    1327.1377    12.674903    22.498231    14.349293    18.892425    42.057155    25.652869    12.612127     22.30075    14.235163 
  285000    328.87727     16.86977     16.86977            0            0            0            0     16.86977    1280.2988    1297.1686    12.671928    22.501531    14.350738    18.594751    42.387276    25.797485    12.612127     22.30075    14.235163 
  285200    323.49426    20.695054    20.695054            0            0            0            0    20.695054    1259.3431    1280.0381    12.669955    22.503382     14.35324    18.397385    42.572503    26.047826    12.612127     22.30075    14.235163 
  285400    304.05479   -6.9031189   -6.9031189            0            0            0            0   -6.9031189    1183.6664    1176.7633    12.668756    22.505358    14.356383    18.277484    42.770175    26.362169    12.612127     22.30075    14.235163 
  285600    312.92991    27.355227    27.355227            0            0            0            0    27.355227    1218.2167     1245.572    12.667604    22.507914     14.35956    18.162201    43.025831    26.680059    12.612127     22.30075    14.235163 
  285800    309.81345   -13.636627   -13.636627            0            0            0            0   -13.636627    1206.0845    1192.4479    12.667521    22.510218    14.363279    18.153839    43.256368    27.052098    12.612127     22.30075    14.235163 
  286000    299.90314    62.735414    62.735414            0            0            0            0    62.735414    1167.5043    1230.2397    12.668295    22.511098    14.367697    18.231345    43.344352     27.49406    12.612127     22.30075    14.235163 
  286200    324.60964    17.874251    17.874251            0            0            0            0    17.874251    1263.6852    1281.5594    12.670287    22.507981    14.372744    18.430558    43.032604    27.999003    12.612127     22.30075    14.235163 
  286400    310.73153   -20.742625   -20.742625            0            0            0            0   -20.742625    1209.6586    1188.9159    12.672915    22.503355    14.377636    18.693475    42.569815    28.488443    12.612127     22.30075    14.235163 
  286600    322.40344    96.260839    96.260839            0            0            0            0    96.260839    1255.0966    1351.3574    12.675784    22.498875    14.382514    18.980516    42.121585    28.976439    12.612127     22.30075    14.235163 
  286800    304.31649    180.17035    180.17035            0            0            0            0    180.17035    1184.6852    1364.8556    12.678788    22.497131    14.387218    19.281105    41.947122    29.446999    12.612127     22.30075    14.235163 
  287000     311.5356    24.443535    24.443535            0            0            0            0    24.443535    1212.7887    1237.2323     12.67965    22.497893    14.391942    19.367305    42.023322    29.919648    12.612127     22.30075    14.235163 
  287200    308.74659    39.785596    39.785596            0            0            0            0    39.785596    1201.9313    1241.7169     12.67967    22.498748    14.396495    19.369272    42.108825     30.37511    12.612127     22.30075    14.235163 
  287400    310.66942    11.173977    11.173977            0            0            0            0    11.173977    1209.4168    1220.5908    12.678404    22.499223    14.400779    19.242679    42.156372    30.803686    12.612127     22.30075    14.235163 
  287600    311.55084    57.467742    57.467742            0            0            0            0    57.467742    1212.8481    1270.3158    12.676681    22.500185    14.404915    19.070286    42.252601    31.217449    12.612127     22.30075    14.235163 
  287800    311.46649    153.51374    153.51374            0            0            0            0    153.51374    1212.5197    1366.0334    12.674057    22.503154    14.409459    18.807784     42.54963    31.672094    12.612127     22.30075    14.235163 
  288000    309.13102    26.574919    26.574919            0            0            0            0    26.574919    1203.4279    1230.0028    12.669031    22.505029    14.413078    18.304996    42.737268    32.034073    12.612127     22.30075    14.235163 
  288200    306.28938     85.78999     85.78999            0            0            0            0     85.78999    1192.3655    1278.1555    12.662853    22.505958    14.416432    17.686927    42.830216    32.369657    12.612127     22.30075    14.235163 
  288400    316.63135    112.93425    112.93425            0            0            0            0    112.93425    1232.6262    1345.5604    12.657736    22.506105    14.419296    17.174963    42.844906    32.656154    12.612127     22.30075    14.235163 
  288600    312.98899    67.809756    67.809756            0            0            0            0    67.809756    1218.4467    1286.2564    12.654817    22.507154    14.421399    16.882981    42.949846    32.866534    12.612127     22.30075    14.235163 
  288800    307.95956    178.33569    178.33569            0            0            0            0    178.33569    1198.8675    1377.2031    12.652622    22.508321    14.423459    16.663357    43.066594     33.07261    12.612127     22.30075    14.235163 
  289000    301.79118    77.449246    77.449246            0            0            0            0    77.449246    1174.8543    1252.3036    12.652674    22.509715    14.424716    16.668531    43.206005    33.198405    12.612127     22.30075    14.235163 
  289200    314.66053    160.01554    160.01554            0            0            0            0    160.01554    1224.9539    1384.9695     12.65613    22.511148    14.425423    17.014313    43.349349    33.269115    12.612127     22.30075    14.235163 
  289400    312.67867    5.4467297    5.4467297            0            0            0            0    5.4467297    1217.2387    1222.6854    12.662176    22.512138    14.425555    17.619124    43.448464    33.282286    12.612127     22.30075    14.235163 
  289600    319.12903   -22.342694   -22.342694            0            0            0            0   -22.342694    1242.3495    1220.0068    12.668869    22.512801    14.425345    18.288769    43.514801     33.26129    12.612127     22.30075    14.235163 
  289800    313.20814    50.703885    50.703885            0            0            0            0    50.703885    1219.2998    1270.0037    12.675508    22.513131    14.425206    18.952937    43.547783    33.247367    12.612127     22.30075    14.235163 
  290000    307.74074    63.541145    63.541145            0            0            0            0    63.541145    1198.0156    1261.5567    12.681111    22.511989    14.425538    19.513486    43.433493    33.280654    12.612127     22.30075    14.235163 
  290200    321.58673    79.355411    79.355411            0            0            0            0    79.355411    1251.9172    1331.2726    12.685128    22.511522    14.426302    19.915356    43.386848     33.35708    12.612127     22.30075    14.235163 
  290400     307.5754    178.38667    178.38667            0            0            0            0    178.38667    1197.3719    1375.7586    12.686786    22.509798    14.427084    20.081198    43.214375    33.435248    12.612127     22.30075    14.235163 
  290600    319.94831    193.14772    193.14772            0            0            0            0    193.14772    1245.5389    1438.6866    12.684548    22.503674    14.428781    19.857343    42.601694    33.605058    12.612127     22.30075    14.235163 
  290800    323.19469     38.65721     38.65721            0            0            0            0     38.65721    1258.1769    1296.8341    12.680638    22.496494    14.431733    19.466123     41.88333    33.900357    12.612127     22.30075    14.235163 
  291000    301.05928    10.725474    10.725474            0            0            0            0    10.725474    1172.0051    1182.7306    12.676915     22.48987     14.43502    19.093705    41.220716    34.229269    12.612127     22.30075    14.235163 
  291200    318.12539    77.226887    77.226887            0            0            0            0    77.226887    1238.4424    1315.6693    12.673313    22.484727    14.439951    18.733307    40.706178    34.722477    12.612127     22.30075    14.235163 
  291400    318.84148   -8.1128267   -8.1128267            0            0            0            0   -8.1128267    1241.2301    1233.1173    12.671187    22.481598    14.445831    18.520638    40.393144    35.310784    12.612127     22.30075    14.235163 
  291600    307.74602     114.6247     114.6247            0            0            0            0     114.6247    1198.0362    1312.6608    12.669148    22.479789    14.451571    18.316607    40.212169     35.88505    12.612127     22.30075    14.235163 
  291800    319.81893    42.215572    42.215572            0            0            0            0    42.215572    1245.0352    1287.2508     12.66749    22.482068    14.455961    18.150805    40.440163    36.324247    12.612127     22.30075    14.235163 
  292000    307.06094    168.49799    168.49799            0            0            0            0    168.49799    1195.3692    1363.8672    12.665696    22.486606    14.459905    17.971291    40.894152    36.718756    12.612127     22.30075    14.235163 
  292200    308.71825    -22.47096    -22.47096            0            0            0            0    -22.47096     1201.821      1179.35    12.664069    22.493874    14.463517    17.808495    41.621266    37.080166    12.612127     22.30075    14.235163 
  292400    313.24798    43.706869    43.706869            0            0            0            0    43.706869    1219.4549    1263.1618     12.66274    22.501615    14.467021    17.675563    42.395648    37.430657    12.612127     22.30075    14.235163 
  292600    313.96883    6.6747404    6.6747404            0            0            0            0    6.6747404    1222.2612    1228.9359    12.662925    22.510143    14.470655     17.69409    43.248885    37.794242    12.612127     22.30075    14.235163 
  292800    309.29805    52.266063    52.266063            0            0            0            0    52.266063    1204.0781    1256.3442    12.664025     22.51814    14.474203    17.804102    44.048892    38.149201    12.612127     22.30075    14.235163 
  293000    308.69904     233.7072     233.7072            0            0            0            0     233.7072    1201.7462    1435.4534     12.66527    22.523961    14.477409    17.928732    44.631238    38.469909    12.612127     22.30075    14.235163 
  293200    316.49238    281.97419    281.97419            0            0            0            0    281.97419    1232.0852    1514.0594    12.664536    22.525111     14.48071    17.855284     44.74626    38.800119    12.612127     22.30075    14.235163 
  293400     301.6594    110.61499    110.61499            0            0            0            0    110.61499    1174.3413    1284.9563    12.665937    22.519981    14.483123    17.995413    44.233103    39.041521    12.612127     22.30075    14.235163 
  293600    313.60337   -7.0314733   -7.0314733            0            0            0            0   -7.0314733    1220.8384     1213.807    12.669296    22.512134      14.4857    18.331471    43.448073    39.299393    12.612127     22.30075    14.235163 
  293800     316.0282   -6.0623712   -6.0623712            0            0            0            0   -6.0623712    1230.2782    1224.2158    12.673237    22.504396    14.487945    18.725758    42.673915    39.523924    12.612127     22.30075    14.235163 
  294000    299.48119    9.6753241    9.6753241            0            0            0            0    9.6753241    1165.8617     1175.537    12.677261    22.496082     14.49032    19.128336    41.842199    39.761564    12.612127     22.30075    14.235163 
  294200    309.34619    225.22288    225.22288            0            0            0            0    225.22288    1204.2655    1429.4884    12.681084    22.487572    14.492971    19.510736    40.990796    40.026775    12.612127     22.30075    14.235163 
  294400    311.85517    217.86442    217.86442            0            0            0            0    217.86442    1214.0328    1431.8972    12.684017    22.482798    14.495795    19.804181      40.5132    40.309242    12.612127     22.30075    14.235163 
  294600    308.25581   -4.6509679   -4.6509679            0            0            0            0   -4.6509679    1200.0207    1195.3698    12.684788    22.481356     14.49761    19.881304     40.36893     40.49085    12.612127     22.30075    14.235163 
  294800    301.73818    93.298215    93.298215            0            0            0            0    93.298215     1174.648    1267.9462    12.683992    22.481327    14.498942    19.801695    40.366038    40.624058    12.612127     22.30075    14.235163 
  295000    326.38885    69.596911    69.596911            0            0            0            0    69.596911    1270.6115    1340.2084    12.680689    22.481944    14.499172    19.471193    40.427726    40.647148    12.612127     22.30075    14.235163 
  295200    301.90296    49.635073    49.635073            0            0            0            0    49.635073    1175.2895    1224.9245    12.676602    22.484133    14.498802    19.062359    40.646791    40.610114    12.612127     22.30075    14.235163 
  295400    313.24872    326.51706    326.51706            0            0            0            0    326.51706    1219.4578    1545.9749    12.672331    22.487016    14.498535    18.635091    40.935183    40.583362    12.612127     22.30075    14.235163 
  295600    315.69018    6.0255763    6.0255763            0            0            0            0    6.0255763    1228.9623    1234.9879    12.669453    22.488632    14.499182     18.34713    41.096817    40.648093    12.612127     22.30075    14.235163 
  295800    316.98205    136.89471    136.89471            0            0            0            0    136.89471    1233.9915    1370.8862    12.667167    22.490187    14.499585    18.118504    41.252371    40.688396    12.612127     22.30075    14.235163 
  296000    318.61951   -16.588625   -16.588625            0            0            0            0   -16.588625     1240.366    1223.7773    12.665241    22.493328    14.499683    17.925758    41.566641     40.69826    12.612127     22.30075    14.235163 
  296200    319.08685    19.276634    19.276634            0            0            0            0    19.276634    1242.1853    1261.4619    12.663563    22.497017     14.49967    17.757882    41.935675    40.696906    12.612127     22.30075    14.235163 
  296400    316.91152    34.590144    34.590144            0            0            0            0    34.590144    1233.7169     1268.307    12.663156     22.50033    14.500419     17.71716    42.267168    40.771876    12.612127     22.30075    14.235163 
  296600    323.46345    14.833884    14.833884            0            0            0            0    14.833884    1259.2231     1274.057    12.663948    22.502016    14.502083    17.796436    42.435833    40.938319    12.612127     22.30075    14.235163 
  296800    304.85944    8.6641578    8.6641578            0            0            0            0    8.6641578    1186.7989     1195.463    12.664306      22.5032    14.504231    17.832264    42.554305    41.153271    12.612127     22.30075    14.235163 
  297000     310.9679    190.05053    190.05053            0            0            0            0    190.05053    1210.5787    1400.6293     12.66421    22.505193    14.507009    17.822669    42.753654    41.431182    12.612127     22.30075    14.235163 
  297200      311.918    27.109274    27.109274            0            0            0            0    27.109274    1214.2774    1241.3867    12.665479    22.505214    14.511656    17.949566    42.755776    41.896019    12.612127     22.30075    14.235163 
  297400    308.36323    119.28876    119.28876            0            0            0            0    119.28876    1200.4389    1319.7277    12.667534    22.503962    14.516214    18.155136     42.63049    42.351992    12.612127     22.30075    14.235163 
  297600    320.32786    78.862959    78.862959            0            0            0            0    78.862959    1247.0165    1325.8794    12.668986    22.501871    14.521065    18.300451    42.421321     42.83737    12.612127     22.30075    14.235163 
  297800    306.41313    57.647748    57.647748            0            0            0            0    57.647748    1192.8473    1250.4951     12.66958    22.498558    14.526739    18.359903    42.089902    43.404958    12.612127     22.30075    14.235163 
  298000    314.42931   -15.417766   -15.417766            0            0            0            0   -15.417766    1224.0538     1208.636     12.66859     22.49586    14.532805    18.260847    41.819923    44.011854    12.612127     22.30075    14.235163 
  298200    316.27747   -13.975647   -13.975647            0            0            0            0   -13.975647    1231.2486    1217.2729    12.667404    22.493335    14.538772    18.142152    41.567383    44.608829    12.612127     22.30075    14.235163 
  298400    309.11854    27.076735    27.076735            0            0            0            0    27.076735    1203.3793     1230.456    12.666232     22.49095    14.544713    18.024881    41.328724    45.203085    12.612127     22.30075    14.235163 
  298600    331.37707    144.13955    144.13955            0            0            0            0    144.13955    1290.0304    1434.1699    12.665521    22.487629    14.550541    17.953796    40.996514    45.786182    12.612127     22.30075    14.235163 
  298800    304.27938    140.87315    140.87315            0            0            0            0    140.87315    1184.5407    1325.4139    12.665495    22.485135    14.555953    17.951213    40.746967    46.327599    12.612127     22.30075    14.235163 
  299000    308.33063    39.734929    39.734929            0            0            0            0    39.734929     1200.312    1240.0469    12.665961     22.48599    14.561601    17.997812    40.832586    46.892611    12.612127     22.30075    14.235163 
  299200    325.73092    104.51698    104.51698            0            0            0            0    104.51698    1268.0502    1372.5672    12.666638    22.488778    14.567054    18.065498    41.111463    47.438169    12.612127     22.30075    14.235163 
  299400       317.59    79.995761    79.995761            0            0            0            0    79.995761    1236.3581    1316.3539    12.666776      22.4934    14.573219    18.079396     41.57385     48.05497    12.612127     22.30075    14.235163 
  299600    315.46951    5.8730741    5.8730741            0            0            0            0    5.8730741    1228.1032    1233.9763    12.667597    22.497971    14.579807    18.161479    42.031126    48.713986    12.612127     22.30075    14.235163 
  299800    301.81302    111.03562    111.03562            0            0            0            0    111.03562    1174.9393     1285.975    12.669751    22.502375    14.586321    18.377026     42.47175    49.365726    12.612127     22.30075    14.235163 
  300000    303.94693    59.678486    59.678486            0            0            0            0    59.678486    1183.2465     1242.925    12.671921    22.508815    14.592317    18.594051    43.116005    49.965544    12.612127     22.30075    14.235163 
  300200    320.83448    101.74125    101.74125            0            0            0            0    101.74125    1248.9887    1350.7299    12.672678    22.514702    14.597794    18.669766    43.704965    50.513466    12.612127     22.30075    14.235163 
  300400    313.60043    9.1942719    9.1942719            0            0            0            0    9.1942719     1220.827    1230.0213    12.672147    22.517928    14.603643    18.616722    44.027702    51.098582    12.612127     22.30075    14.235163 
  300600     310.0677     -6.74981     -6.74981            0            0            0            0     -6.74981    1207.0743    1200.3245    12.670658    22.520084    14.609203    18.467707    44.243336    51.654816    12.612127     22.30075    14.235163 
  300800    322.63023    206.72097    206.72097            0            0            0            0    206.72097    1255.9795    1462.7004    12.669926    22.521926    14.614674    18.394501      44.4276    52.202157    12.612127     22.30075    14.235163 
  301000    316.64334     77.32493     77.32493            0            0            0            0     77.32493    1232.6729    1309.9978    12.670876    22.523165    14.619225    18.489482    44.551594    52.657441    12.612127     22.30075    14.235163 
  301200    310.54764    120.45806    120.45806            0            0            0            0    120.45806    1208.9427    1329.4008    12.672078    22.522904    14.622615    18.609756    44.525522     52.99662    12.612127     22.30075    14.235163 
  301400    306.53855     95.17705     95.17705            0            0            0            0     95.17705    1193.3356    1288.5126    12.671767     22.52097    14.625962    18.578686    44.332003    53.331446    12.612127     22.30075    14.235163 
  301600    316.11072    116.45783    116.45783            0            0            0            0    116.45783    1230.5994    1347.0573    12.672476    22.517563    14.629363    18.649557    43.991181     53.67169    12.612127     22.30075    14.235163 
  301800    313.37346   -19.953559   -19.953559            0            0            0            0   -19.953559    1219.9434    1199.9899    12.673442    22.513126     14.63292    18.746261    43.547307    54.027542    12.612127     22.30075    14.235163 
  302000    316.69285   -13.797205   -13.797205            0            0            0            0   -13.797205    1232.8656    1219.0684    12.674361     22.50848    14.636506    18.838122    43.082456     54.38625    12.612127     22.30075    14.235163 
  302200    312.30719    48.508257    48.508257            0            0            0            0    48.508257    1215.7925    1264.3007    12.674683    22.503544    14.639991    18.870423    42.588717    54.734946    12.612127     22.30075    14.235163 
  302400    310.35355     118.8918     118.8918            0            0            0            0     118.8918    1208.1871    1327.0789    12.673128    22.498309    14.643171    18.714769    42.065002    55.053088    12.612127     22.30075    14.235163 
  302600    303.51438    14.728652    14.728652            0            0            0            0    14.728652    1181.5626    1196.2913    12.669581    22.493532    14.646648    18.359939    41.587041     55.40095    12.612127     22.30075    14.235163 
  302800     315.2199   -9.1154948   -9.1154948            0            0            0            0   -9.1154948    1227.1315     1218.016    12.665791    22.488025    14.650133    17.980779    41.036094    55.749578    12.612127     22.30075    14.235163 
  303000    323.78094    272.79871    272.79871            0            0            0            0    272.79871    1260.4591    1533.2578    12.662211    22.483757    14.653625    17.622618    40.609169    56.098857    12.612127     22.30075    14.235163 
  303200    310.73318     13.24359     13.24359            0            0            0            0     13.24359     1209.665    1222.9086    12.661141    22.484575     14.65689    17.515616    40.690938    56.425522    12.612127     22.30075    14.235163 
  303400    310.09089   -6.3409782   -6.3409782            0            0            0            0   -6.3409782    1207.1646    1200.8236     12.66091    22.486619    14.660093    17.492514    40.895461    56.745982    12.612127     22.30075    14.235163 
  303600    316.28454   -16.827832   -16.827832            0            0            0            0   -16.827832    1231.2761    1214.4483    12.660666    22.488144    14.663506    17.468081    41.048023    57.087378    12.612127     22.30075    14.235163 
  303800     306.9276    53.435908    53.435908            0            0            0            0    53.435908    1194.8501     1248.286    12.661506    22.489338    14.667222    17.552159    41.167485    57.459201    12.612127     22.30075    14.235163 
  304000    317.72779    16.051373    16.051373            0            0            0            0    16.051373    1236.8946     1252.946     12.66513    22.489989    14.671023    17.914656    41.232556    57.839402    12.612127     22.30075    14.235163 
  304200    300.29437    160.02184    160.02184            0            0            0            0    160.02184    1169.0273    1329.0492    12.669176    22.490054    14.674574    18.319418    41.239118    58.194731    12.612127     22.30075    14.235163 
  304400    310.78102    38.079951    38.079951            0            0            0            0    38.079951    1209.8512    1247.9312    12.671167    22.491003    14.678312     18.51867    41.334046    58.568601    12.612127     22.30075    14.235163 
  304600    317.64712    113.56205    113.56205            0            0            0            0    113.56205    1236.5805    1350.1426      12.6724    22.493239    14.682122    18.641994    41.557764    58.949818    12.612127     22.30075    14.235163 
  304800    316.95819    38.547678    38.547678            0            0            0            0    38.547678    1233.8985    1272.4462    12.670684    22.495134    14.684437    18.470363    41.747366     59.18136    12.612127     22.30075    14.235163 
  305000     327.8822    7.8025335    7.8025335            0            0            0            0    7.8025335     1276.425    1284.2276    12.667647     22.49678    14.686872    18.166511     41.91202    59.424978    12.612127     22.30075    14.235163 
  305200    295.90602     124.0475     124.0475            0            0            0            0     124.0475    1151.9438    1275.9913    12.664686    22.498255    14.689305     17.87028    42.059599    59.668393    12.612127     22.30075    14.235163 
  305400    313.37729    59.403915    59.403915            0            0            0            0    59.403915    1219.9584    1279.3623    12.662026    22.497241    14.692164    17.604196     41.95812    59.954393    12.612127     22.30075    14.235163 
  305600     310.2929    34.068613    34.068613            0            0            0            0    34.068613     1207.951    1242.0196    12.660622    22.495451    14.695181    17.463717    41.779033    60.256249    12.612127     22.30075    14.235163 
  305800    311.78372    49.016425    49.016425            0            0            0            0    49.016425    1213.7547    1262.7711    12.659384    22.494627    14.697343    17.339875    41.696612    60.472588    12.612127     22.30075    14.235163 
  306000    311.50601    71.575835    71.575835            0            0            0            0    71.575835    1212.6736    1284.2494    12.658814     22.49402    14.699251    17.282854    41.635888    60.663417    12.612127     22.30075    14.235163 
  306200    315.70634    62.324507    62.324507            0            0            0            0    62.324507    1229.0252    1291.3497    12.659576     22.49348     14.70116    17.359007    41.581834     60.85443    12.612127     22.30075    14.235163 
  306400     325.5371    47.013057    47.013057            0            0            0            0    47.013057    1267.2957    1314.3088    12.662249    22.493648    14.703598    17.626467    41.598646    61.098307    12.612127     22.30075    14.235163 
  306600    304.64639   -11.717177   -11.717177            0            0            0            0   -11.717177    1185.9695    1174.2523    12.666317    22.494146     14.70681    18.033455    41.648529    61.419626    12.612127     22.30075    14.235163 
  306800    309.07458    59.454714    59.454714            0            0            0            0    59.454714    1203.2081    1262.6629    12.670433    22.494864    14.710074    18.445169    41.720322    61.746186    12.612127     22.30075    14.235163 
  307000    326.67709    155.38034    155.38034            0            0            0            0    155.38034    1271.7336     1427.114      12.6737    22.496107    14.714147    18.771996    41.844676    62.153649    12.612127     22.30075    14.235163 
  307200     318.4016    138.46752    138.46752            0            0            0            0    138.46752    1239.5177    1377.9852    12.676912    22.496841    14.719113    19.093331    41.918064    62.650462    12.612127     22.30075    14.235163 
  307400    322.13892    196.31397    196.31397            0            0            0            0    196.31397    1254.0668    1450.3808    12.680902    22.499257    14.724115    19.492593    42.159785    63.150884    12.612127     22.30075    14.235163 
  307600    320.36551    18.488482    18.488482            0            0            0            0    18.488482     1247.163    1265.6515     12.68245    22.503433    14.728522    19.647382     42.57755    63.591766    12.612127     22.30075    14.235163 
  307800    311.67002    81.362832    81.362832            0            0            0            0    81.362832     1213.312    1294.6749    12.682614    22.506865    14.732876    19.663861    42.920946    64.027296    12.612127     22.30075    14.235163 
  308000    314.52495    3.9091064    3.9091064            0            0            0            0    3.9091064    1224.4261    1228.3352    12.680789    22.508728    14.736789     19.48126    43.107332    64.418816    12.612127     22.30075    14.235163 
  308200    308.56473    12.391752    12.391752            0            0            0            0    12.391752    1201.2233    1213.6151    12.677967    22.509953    14.740313    19.198937    43.229804    64.771367    12.612127     22.30075    14.235163 
  308400    315.01388     41.67093     41.67093            0            0            0            0     41.67093    1226.3295    1268.0004    12.674401    22.510752    14.743538    18.842137     43.30974    65.094032    12.612127     22.30075    14.235163 
  308600    311.37282    77.597587    77.597587            0            0            0            0    77.597587     1212.155    1289.7526    12.671262     22.50966    14.747252    18.528177    43.200499     65.46558    12.612127     22.30075    14.235163 
  308800    316.65473    164.55417    164.55417            0            0            0            0    164.55417    1232.7172    1397.2714    12.667697    22.507277     14.75114    18.171488    42.962167    65.854542    12.612127     22.30075    14.235163 
  309000    319.10788   -21.795901   -21.795901            0            0            0            0   -21.795901    1242.2672    1220.4713     12.66258      22.5055     14.75467    17.659591    42.784342    66.207691    12.612127     22.30075    14.235163 
  309200    307.93415    -22.22644    -22.22644            0            0            0            0    -22.22644    1198.7685    1176.5421    12.657518    22.503606    14.758273    17.153178    42.594907    66.568076    12.612127     22.30075    14.235163 
  309400    309.37183    104.43056    104.43056            0            0            0            0    104.43056    1204.3653    1308.7959    12.652589    22.501477    14.761883    16.660061    42.381889    66.929261    12.612127     22.30075    14.235163 
  309600    326.30796     103.4402     103.4402            0            0            0            0     103.4402    1270.2966    1373.7368    12.647073    22.498925    14.765157    16.108251    42.126547     67.25676    12.612127     22.30075    14.235163 
  309800    303.84987    103.80539    103.80539            0            0            0            0    103.80539    1182.8687    1286.6741    12.643115    22.497016    14.767663    15.712267    41.935599    67.507468    12.612127     22.30075    14.235163 
  310000    306.60034    282.78455    282.78455            0            0            0            0    282.78455    1193.5761    1476.3607    12.642052    22.496473    14.770033    15.605911    41.881279    67.744593    12.612127     22.30075    14.235163 
  310200    318.25224    53.932638    53.932638            0            0            0            0    53.932638    1238.9362    1292.8688       12.645    22.496851    14.770834    15.900841     41.91908    67.824723    12.612127     22.30075    14.235163 
  310400    309.46599   -1.8958649   -1.8958649            0            0            0            0   -1.8958649    1204.7319     1202.836    12.650373    22.497472    14.771554    16.438392    41.981206    67.896715    12.612127     22.30075    14.235163 
  310600    314.19324  -0.35810152  -0.35810152            0            0            0            0  -0.35810152    1223.1348    1222.7767    12.656517    22.497955    14.772493    17.053051    42.029529    67.990733    12.612127     22.30075    14.235163 
  310800    308.73274    43.484781    43.484781            0            0            0            0    43.484781    1201.8774    1245.3622    12.664252    22.499452    14.773423    17.826797    42.179264    68.083751    12.612127     22.30075    14.235163 
  311000    313.97249   -6.6787751   -6.6787751            0            0            0            0   -6.6787751    1222.2754    1215.5966    12.672832    22.502305    14.774094     18.68519    42.464678    68.150866    12.612127     22.30075    14.235163 
  311200    310.38547    77.669531    77.669531            0            0            0            0    77.669531    1208.3114    1285.9809    12.681453    22.506249    14.775702    19.547683     42.85931    68.311714    12.612127     22.30075    14.235163 
  311400    305.09276     156.0482     156.0482            0            0            0            0     156.0482    1187.7072    1343.7554    12.687324    22.509383    14.778627    20.135065    43.172866    68.604399    12.612127     22.30075    14.235163 
  311600    314.12076    38.777027    38.777027            0            0            0            0    38.777027    1222.8526    1261.6297    12.689209    22.510833    14.782132    20.323575    43.317894    68.954972    12.612127     22.30075    14.235163 
  311800     309.9365    97.590875    97.590875            0            0            0            0    97.590875    1206.5636    1304.1544    12.689431    22.511624    14.786305    20.345772    43.396978    69.372516    12.612127     22.30075    14.235163 
  312000     315.7145   0.80167261   0.80167261            0            0            0            0   0.80167261     1229.057    1229.8586    12.686843    22.512279     14.79005    20.086872    43.462525    69.747131    12.612127     22.30075    14.235163 
  312200    310.45699   -17.616433   -17.616433            0            0            0            0   -17.616433    1208.5898    1190.9734    12.682927    22.512561    14.793449    19.695149    43.490722    70.087185    12.612127     22.30075    14.235163 
  312400    312.58315    112.01586    112.01586            0            0            0            0    112.01586    1216.8668    1328.8827    12.678572    22.512811    14.796774    19.259426    43.515724    70.419854    12.612127     22.30075    14.235163 
  312600    322.23453    45.881223    45.881223            0            0            0            0    45.881223     1254.439    1300.3202    12.673382    22.513451    14.799744     18.74023    43.579789    70.716963    12.612127     22.30075    14.235163 
  312800    309.91505    62.559118    62.559118            0            0            0            0    62.559118      1206.48    1269.0392    12.667855    22.512483    14.801984    18.187329    43.482939    70.941006    12.612127     22.30075    14.235163 
  313000     308.8506   -22.015634   -22.015634            0            0            0            0   -22.015634    1202.3362    1180.3206    12.663151    22.510099    14.803646    17.716674    43.244461    71.107336    12.612127     22.30075    14.235163 
  313200    321.31461    50.745335    50.745335            0            0            0            0    50.745335    1250.8578    1301.6032    12.658747    22.507627     14.80517    17.276122    42.997125    71.259726    12.612127     22.30075    14.235163 
  313400    315.16886    102.52694    102.52694            0            0            0            0    102.52694    1226.9328    1329.4598    12.655308     22.50616    14.806515    16.932022    42.850348    71.394325    12.612127     22.30075    14.235163 
  313600    319.21888    20.061161    20.061161            0            0            0            0    20.061161    1242.6993    1262.7605    12.654218    22.504279    14.809134    16.822989    42.662203    71.656326    12.612127     22.30075    14.235163 
  313800    309.98455    99.729573    99.729573            0            0            0            0    99.729573    1206.7506    1306.4802    12.656011    22.501814    14.813111    17.002418    42.415636    72.054244    12.612127     22.30075    14.235163 
  314000    318.76008    77.131785    77.131785            0            0            0            0    77.131785    1240.9132     1318.045    12.661157    22.498589    14.817793     17.51725    42.092996     72.52256    12.612127     22.30075    14.235163 
  314200    311.52089    68.891453    68.891453            0            0            0            0    68.891453    1212.7315    1281.6229     12.66729    22.495554    14.822789    18.130778    41.789349     73.02239    12.612127     22.30075    14.235163 
  314400    311.71495    15.163099    15.163099            0            0            0            0    15.163099     1213.487    1228.6501    12.672656    22.494036    14.826997    18.667552    41.637454    73.443417    12.612127     22.30075    14.235163 
  314600    316.67745    210.95989    210.95989            0            0            0            0    210.95989    1232.8057    1443.7656    12.677811    22.494159    14.831289    19.183272    41.649746    73.872756    12.612127     22.30075    14.235163 
  314800    321.75408    79.912939    79.912939            0            0            0            0    79.912939    1252.5687    1332.4816    12.681166    22.494944    14.836728    19.519005     41.72831     74.41693    12.612127     22.30075    14.235163 
  315000    312.84102   -4.8104765   -4.8104765            0            0            0            0   -4.8104765    1217.8707    1213.0602    12.682281    22.494863    14.841865    19.630521    41.720199     74.93082    12.612127     22.30075    14.235163 
  315200    324.02676    1.8295551    1.8295551            0            0            0            0    1.8295551    1261.4161    1263.2456    12.683137    22.494851    14.846952    19.716129    41.719003    75.439707    12.612127     22.30075    14.235163 
  315400    317.17002   -18.205185   -18.205185            0            0            0            0   -18.205185    1234.7232     1216.518    12.684617    22.495135    14.852209    19.864242    41.747417    75.965671    12.612127     22.30075    14.235163 
  315600    304.49135    80.145823    80.145823            0            0            0            0    80.145823    1185.3659    1265.5117    12.686016      22.4957    14.857445    20.004209    41.803971    76.489469    12.612127     22.30075    14.235163 
  315800    314.44931    489.26612    489.26612            0            0            0            0    489.26612    1224.1316    1713.3978    12.685283    22.496641    14.862347    19.930848    41.898069    76.979925    12.612127     22.30075    14.235163 
  316000    315.24052    108.93604    108.93604            0            0            0            0    108.93604    1227.2118    1336.1478    12.681296    22.495183    14.866869    19.531983    41.752204    77.432281    12.612127     22.30075    14.235163 
  316200    312.17929    -13.42725    -13.42725            0            0            0            0    -13.42725    1215.2946    1201.8673      12.6772    22.494746    14.871414    19.122187    41.708461    77.886991    12.612127     22.30075    14.235163 
  316400    303.64454   -18.752249   -18.752249            0            0            0            0   -18.752249    1182.0694    1163.3171    12.673261    22.494688    14.875875    18.728137    41.702696    78.333252    12.612127     22.30075    14.235163 
  316600    325.48337   -17.733645   -17.733645            0            0            0            0   -17.733645    1267.0866    1249.3529    12.669394    22.494792    14.880402    18.341229    41.713129     78.78614    12.612127     22.30075    14.235163 
  316800    303.59969    5.0303029    5.0303029            0            0            0            0    5.0303029    1181.8948    1186.9251    12.665505    22.495156    14.885035     17.95223    41.749557    79.249642    12.612127     22.30075    14.235163 
  317000    312.10854    185.45591    185.45591            0            0            0            0    185.45591    1215.0192    1400.4751    12.661532    22.496986     14.88927    17.554767    41.932593    79.673341    12.612127     22.30075    14.235163 
  317200    305.36984     22.21065     22.21065            0            0            0            0     22.21065    1188.7858    1210.9965    12.659205    22.500506    14.891728     17.32192    42.284729    79.919173    12.612127     22.30075    14.235163 
  317400     318.2479    122.14706    122.14706            0            0            0            0    122.14706    1238.9193    1361.0664    12.659002    22.503386    14.893785     17.30166    42.572862    80.124952    12.612127     22.30075    14.235163 
  317600    310.27264    62.515958    62.515958            0            0            0            0    62.515958    1207.8721    1270.3881    12.660648    22.505504    14.896951    17.466281     42.78473    80.441698    12.612127     22.30075    14.235163 
  317800    311.41892   -23.896379   -23.896379            0            0            0            0   -23.896379    1212.3345    1188.4382    12.663872    22.506734    14.900608    17.788804    42.907815    80.807631    12.612127     22.30075    14.235163 
  318000    312.56835   -16.875651   -16.875651            0            0            0            0   -16.875651    1216.8092    1199.9335    12.667284    22.507895    14.904233     18.13016    43.023972    81.170281    12.612127     22.30075    14.235163 
  318200    322.66704    141.67132    141.67132            0            0            0            0    141.67132    1256.1227    1397.7941    12.670806    22.508717    14.907918    18.482558    43.106194    81.538876    12.612127     22.30075    14.235163 
  318400    311.69067    67.336577    67.336577            0            0            0            0    67.336577    1213.3924     1280.729    12.673154    22.508316    14.912772    18.717409    43.066071    82.024481    12.612127     22.30075    14.235163 
  318600    319.31355     79.82078     79.82078            0            0            0            0     79.82078    1243.0678    1322.8886    12.675933     22.50928    14.916594    18.995395    43.162527    82.406872    12.612127     22.30075    14.235163 
  318800     303.1854    40.743937    40.743937            0            0            0            0    40.743937     1180.282    1221.0259    12.679318    22.508628    14.919619    19.334059    43.097333    82.709527    12.612127     22.30075    14.235163 
  319000    318.62247      162.355      162.355            0            0            0            0      162.355    1240.3775    1402.7325    12.682021    22.506725    14.921654    19.604535    42.906932    82.913051    12.612127     22.30075    14.235163 
  319200    319.52701    266.96541    266.96541            0            0            0            0    266.96541    1243.8988    1510.8642    12.683368    22.503684    14.923763    19.739277    42.602638    83.124053    12.612127     22.30075    14.235163 
  319400    321.96547    177.49864    177.49864            0            0            0            0    177.49864    1253.3916    1430.8902    12.684367    22.502203    14.925085    19.839223    42.454495    83.256282    12.612127     22.30075    14.235163 
  319600    314.83816   -23.645444   -23.645444            0            0            0            0   -23.645444    1225.6454         1202    12.682559    22.500378    14.926074    19.658337     42.27193    83.355223    12.612127     22.30075    14.235163 
  319800     308.7273   -18.487174   -18.487174            0            0            0            0   -18.487174    1201.8562     1183.369    12.680119    22.498493    14.926969    19.414197    42.083317    83.444804    12.612127     22.30075    14.235163 
  320000    320.18249    18.730479    18.730479            0            0            0            0    18.730479    1246.4505     1265.181     12.67742    22.496478    14.927805    19.144195    41.881733    83.528432    12.612127     22.30075    14.235163 
  320200      320.725    179.05362    179.05362            0            0            0            0    179.05362    1248.5625    1427.6162    12.672806    22.494897    14.928923    18.682562    41.723641    83.640273    12.612127     22.30075    14.235163 
  320400    314.30958    99.334519    99.334519            0            0            0            0    99.334519    1223.5877    1322.9222    12.667595    22.493534    14.929764    18.161312     41.58729    83.724377    12.612127     22.30075    14.235163 
  320600    305.98455   -11.193084   -11.193084            0            0            0            0   -11.193084    1191.1789    1179.9858    12.664444    22.489654      14.9303    17.846042    41.199113    83.778005    12.612127     22.30075    14.235163 
  320800    320.22575    170.67908    170.67908            0            0            0            0    170.67908     1246.619    1417.2981    12.662104    22.486149    14.930853    17.611965    40.848439    83.833371    12.612127     22.30075    14.235163 
  321000     313.4369    229.90513    229.90513            0            0            0            0    229.90513    1220.1904    1450.0955    12.662511    22.484967    14.929923    17.652657    40.730243    83.740278    12.612127     22.30075    14.235163 
  321200    310.10101    43.875459    43.875459            0            0            0            0    43.875459     1207.204    1251.0794    12.664855    22.484953    14.927962    17.887165    40.728774    83.544163    12.612127     22.30075    14.235163 
  321400    328.45138    43.021512    43.021512            0            0            0            0    43.021512    1278.6408    1321.6623    12.667917    22.486207    14.925863    18.193514    40.854295    83.334104    12.612127     22.30075    14.235163 
  321600     305.6614    174.09432    174.09432            0            0            0            0    174.09432    1189.9208    1364.0152    12.671472    22.490112    14.922651    18.549106    41.244898     83.01282    12.612127     22.30075    14.235163 
  321800    323.71006    -10.69412    -10.69412            0            0            0            0    -10.69412    1260.1832     1249.489    12.675356    22.493495    14.918854    18.937707    41.583338     82.63295    12.612127     22.30075    14.235163 
  322000     304.6939     37.57797     37.57797            0            0            0            0     37.57797    1186.1544    1223.7324    12.679234    22.496545    14.914987    19.325708    41.888489    82.246103    12.612127     22.30075    14.235163 
  322200    316.09024    3.6817521    3.6817521            0            0            0            0    3.6817521    1230.5197    1234.2014    12.682973    22.499779     14.91106    19.699719    42.211984    81.853256    12.612127     22.30075    14.235163 
  322400    313.20737    77.912237    77.912237            0            0            0            0    77.912237    1219.2969    1297.2091    12.686215    22.502825    14.907203    20.024056     42.51679    81.467411    12.612127     22.30075    14.235163 
  322600    316.33093    125.55392    125.55392            0            0            0            0    125.55392    1231.4567    1357.0106    12.685789     22.50467    14.904426    19.981487    42.701311    81.189584    12.612127     22.30075    14.235163 
  322800     325.9808    130.81166    130.81166            0            0            0            0    130.81166     1269.023    1399.8347    12.682782    22.505469    14.903094    19.680661    42.781248    81.056306    12.612127     22.30075    14.235163 
  323000    315.47983    248.46997    248.46997            0            0            0            0    248.46997    1228.1434    1476.6133    12.679338    22.505332    14.902083     19.33612    42.767592    80.955186    12.612127     22.30075    14.235163 
  323200    316.84464   -26.851836   -26.851836            0            0            0            0   -26.851836    1233.4565    1206.6047    12.675236    22.503445    14.901754    18.925754     42.57881    80.922266    12.612127     22.30075    14.235163 
  323400    303.54688    20.208867    20.208867            0            0            0            0    20.208867    1181.6892     1201.898    12.671283    22.501173    14.901493    18.530261    42.351432    80.896124    12.612127     22.30075    14.235163 
  323600    314.70237  -0.48168328  -0.48168328            0            0            0            0  -0.48168328    1225.1168    1224.6351    12.668345     22.49811    14.901017    18.236321    42.045034    80.848545    12.612127     22.30075    14.235163 
  323800    313.97509    83.053975    83.053975            0            0            0            0    83.053975    1222.2855    1305.3395    12.666615    22.494328    14.900239    18.063277    41.666682    80.770652    12.612127     22.30075    14.235163 
  324000    316.68185    112.75383    112.75383            0            0            0            0    112.75383    1232.8228    1345.5766    12.665938    22.489704    14.898965    17.995517     41.20413    80.643183    12.612127     22.30075    14.235163 
  324200    310.11381     132.0347     132.0347            0            0            0            0     132.0347    1207.2538    1339.2885    12.663806    22.484247    14.898495    17.782197    40.658213    80.596205    12.612127     22.30075    14.235163 
  324400    310.81017    172.34929    172.34929            0            0            0            0    172.34929    1209.9647     1382.314    12.662879     22.48108    14.898619     17.68947    40.341372    80.608601    12.612127     22.30075    14.235163 
  324600      315.774    152.98794    152.98794            0            0            0            0    152.98794    1229.2886    1382.2765    12.663892    22.482089     14.89828     17.79088    40.442257    80.574721    12.612127     22.30075    14.235163 
  324800    314.92116    20.849447    20.849447            0            0            0            0    20.849447    1225.9685     1246.818    12.664834    22.484221    14.897811    17.885026    40.655545    80.527808    12.612127     22.30075    14.235163 
  325000    324.28012    42.528613    42.528613            0            0            0            0    42.528613    1262.4024     1304.931    12.665674    22.486935    14.897677    17.969058     40.92704    80.514364    12.612127     22.30075    14.235163 
  325200     309.6425    74.633685    74.633685            0            0            0            0    74.633685     1205.419    1280.0527     12.66662    22.491288    14.897318    18.063704    41.362587    80.478464    12.612127     22.30075    14.235163 
  325400    317.72593    112.62037    112.62037            0            0            0            0    112.62037    1236.8873    1349.5077     12.66755    22.497197    14.897102    18.156806    41.953704    80.456834    12.612127     22.30075    14.235163 
  325600    322.57404   -5.0797754   -5.0797754            0            0            0            0   -5.0797754    1255.7607    1250.6809    12.670374    22.501938     14.89712    18.439291    42.428024    80.458592    12.612127     22.30075    14.235163 
  325800    312.08103    121.73189    121.73189            0            0            0            0    121.73189    1214.9121     1336.644     12.67317    22.505704     14.89732    18.718999     42.80481     80.47866    12.612127     22.30075    14.235163 
  326000    322.04644    22.574456    22.574456            0            0            0            0    22.574456    1253.7068    1276.2812    12.673819    22.507406    14.896861    18.783972    42.975002    80.432688    12.612127     22.30075    14.235163 
  326200    311.04054    155.12034    155.12034            0            0            0            0    155.12034    1210.8615    1365.9818     12.67387    22.508971    14.895863    18.789061    43.131619    80.332904    12.612127     22.30075    14.235163 
  326400    321.74007    123.81022    123.81022            0            0            0            0    123.81022    1252.5141    1376.3244    12.675906    22.508813    14.894142     18.99275    43.115802    80.160757    12.612127     22.30075    14.235163 
  326600    306.15931    245.52472    245.52472            0            0            0            0    245.52472    1191.8592    1437.3839    12.678242    22.506457    14.892554    19.226431    42.880123    80.001802    12.612127     22.30075    14.235163 
  326800    308.49398    12.697784    12.697784            0            0            0            0    12.697784    1200.9479    1213.6457    12.678103    22.505529    14.891346     19.21255     42.78721    79.880988    12.612127     22.30075    14.235163 
  327000      320.112   -14.142382   -14.142382            0            0            0            0   -14.142382    1246.1762    1232.0338    12.677386    22.505246    14.889939    19.140813    42.758954    79.740281    12.612127     22.30075    14.235163 
  327200    311.40357   -11.163679   -11.163679            0            0            0            0   -11.163679    1212.2748    1201.1111    12.676526    22.505149    14.888424    19.054796    42.749202    79.588713    12.612127     22.30075    14.235163 
  327400    312.70362    205.17973    205.17973            0            0            0            0    205.17973    1217.3358    1422.5155     12.67497    22.504538    14.886693     18.89914    42.688125    79.415455    12.612127     22.30075    14.235163 
  327600    314.10877     112.8161     112.8161            0            0            0            0     112.8161     1222.806    1335.6221    12.673153    22.504085    14.886773    18.717292    42.642784    79.423516    12.612127     22.30075    14.235163 
  327800     317.0758    370.58406    370.58406            0            0            0            0    370.58406    1234.3564    1604.9404    12.672249    22.504486    14.888174    18.626857    42.682925    79.563624    12.612127     22.30075    14.235163 
  328000    317.20614   -2.0734947   -2.0734947            0            0            0            0   -2.0734947    1234.8638    1232.7903    12.671919    22.503833    14.888842    18.593829    42.617576    79.630457    12.612127     22.30075    14.235163 
  328200    312.22242   -3.6625465   -3.6625465            0            0            0            0   -3.6625465    1215.4625    1211.7999    12.671972     22.50276    14.889479    18.599142    42.510214    79.694216    12.612127     22.30075    14.235163 
  328400    310.41194    2.7848526    2.7848526            0            0            0            0    2.7848526    1208.4144    1211.1992    12.671671    22.501344    14.890154    18.569101    42.368596    79.761697    12.612127     22.30075    14.235163 
  328600    312.69098    35.434131    35.434131            0            0            0            0    35.434131    1217.2866    1252.7207    12.670612    22.499331    14.890912    18.463097    42.167175    79.837545    12.612127     22.30075    14.235163 
  328800    307.49944    27.604296    27.604296            0            0            0            0    27.604296    1197.0762    1224.6805     12.66831    22.497007    14.891255    18.232832    41.934655     79.87192    12.612127     22.30075    14.235163 
  329000    315.54114    558.96135    558.96135            0            0            0            0    558.96135    1228.3821    1787.3434    12.665173    22.497064     14.89174    17.918967    41.940369    79.920397    12.612127     22.30075    14.235163 
  329200    315.69166    240.62418    240.62418            0            0            0            0    240.62418    1228.9681    1469.5922    12.665442    22.500094    14.892203    17.945921    42.243517    79.966728    12.612127     22.30075    14.235163 
  329400    306.71577    12.755005    12.755005            0            0            0            0    12.755005    1194.0255    1206.7805    12.668321    22.500021    14.892377    18.233889    42.236272      79.9841    12.612127     22.30075    14.235163 
  329600    313.44843    -0.611687    -0.611687            0            0            0            0    -0.611687    1220.2353    1219.6236    12.671572     22.49964    14.892689    18.559127    42.198077    80.015363    12.612127     22.30075    14.235163 
  329800    315.32061   -8.5615455   -8.5615455            0            0            0            0   -8.5615455    1227.5235     1218.962    12.674617    22.499446    14.893158     18.86377    42.178744    80.062266    12.612127     22.30075    14.235163 
  330000    310.32862    7.8368066    7.8368066            0            0            0            0    7.8368066    1208.0901    1215.9269    12.677344    22.498411    14.894313     19.13658    42.075139    80.177793    12.612127     22.30075    14.235163 
  330200    325.72516     144.1842     144.1842            0            0            0            0     144.1842    1268.0278     1412.212    12.679413    22.495591    14.896756     19.34355    41.793064    80.422188    12.612127     22.30075    14.235163 
  330400    305.97043    105.49423    105.49423            0            0            0            0    105.49423    1191.1239    1296.6181    12.681785    22.494654    14.898195    19.580887    41.699268    80.566224    12.612127     22.30075    14.235163 
  330600     302.2689     96.66209     96.66209            0            0            0            0     96.66209    1176.7141    1273.3762    12.684014    22.496318     14.89902    19.803913    41.865771    80.648765    12.612127     22.30075    14.235163 
  330800    313.28161    265.59713    265.59713            0            0            0            0    265.59713    1219.5858     1485.183    12.684461    22.497685    14.899341    19.848616     42.00253     80.68087    12.612127     22.30075    14.235163 
  331000     316.5509    74.426691    74.426691            0            0            0            0    74.426691     1232.313    1306.7397    12.681593    22.498795    14.899163    19.561675    42.113559    80.663001    12.612127     22.30075    14.235163 
  331200    310.17067    49.314078    49.314078            0            0            0            0    49.314078    1207.4752    1256.7892    12.677531    22.499905     14.89985    19.155345    42.224632    80.731719    12.612127     22.30075    14.235163 
  331400    304.62788    22.891487    22.891487            0            0            0            0    22.891487    1185.8974    1208.7889    12.673607    22.501312    14.900584     18.76273    42.365384    80.805169    12.612127     22.30075    14.235163 
  331600    318.73813    103.51242    103.51242            0            0            0            0    103.51242    1240.8278    1344.3402    12.670007    22.503387    14.900892    18.402578    42.572948    80.836036    12.612127     22.30075    14.235163 
  331800     312.0418    1.1119219    1.1119219            0            0            0            0    1.1119219    1214.7594    1215.8713    12.667476    22.504122    14.900758    18.149344    42.646541    80.822572    12.612127     22.30075    14.235163 
  332000    318.93572    77.872491    77.872491            0            0            0            0    77.872491     1241.597    1319.4695    12.665005    22.504291    14.900515    17.902188    42.663428    80.798259    12.612127     22.30075    14.235163 
  332200    308.42067     44.88477     44.88477            0            0            0            0     44.88477    1200.6625    1245.5473    12.664314    22.503426    14.900849    17.833014    42.576829    80.831666    12.612127     22.30075    14.235163 
  332400    310.67826    111.70652    111.70652            0            0            0            0    111.70652    1209.4512    1321.1577     12.66477    22.502296    14.901742     17.87868    42.463872     80.92099    12.612127     22.30075    14.235163 
  332600    311.32543    89.671358    89.671358            0            0            0            0    89.671358    1211.9706    1301.6419    12.667935    22.500958     14.90295    18.195304    42.330013    81.041836    12.612127     22.30075    14.235163 
  332800     322.9773    88.373988    88.373988            0            0            0            0    88.373988    1257.3306    1345.7046    12.672834    22.499727      14.9052    18.685401    42.206767    81.266983    12.612127     22.30075    14.235163 
  333000     298.9109    34.511422    34.511422            0            0            0            0    34.511422    1163.6416     1198.153    12.679254    22.498044    14.907798    19.327707    42.038492    81.526896    12.612127     22.30075    14.235163 
  333200    314.27043     127.5854     127.5854            0            0            0            0     127.5854    1223.4353    1351.0207    12.685327    22.495789    14.909879    19.935225    41.812833    81.735071    12.612127     22.30075    14.235163 
  333400     307.2882    144.57055    144.57055            0            0            0            0    144.57055    1196.2539    1340.8244    12.688817    22.493009    14.912368    20.284332    41.534723    81.984123    12.612127     22.30075    14.235163 
  333600    315.99276    58.902045    58.902045            0            0            0            0    58.902045    1230.1402    1289.0422    12.688931    22.492062     14.91582    20.295789     41.43995    82.329443    12.612127     22.30075    14.235163 
  333800    318.63204    67.918048    67.918048            0            0            0            0    67.918048    1240.4148    1308.3328    12.686019    22.491509    14.919285    20.004485    41.384698    82.676116    12.612127     22.30075    14.235163 
  334000    313.21232    29.652714    29.652714            0            0            0            0    29.652714    1219.3161    1248.9688    12.680452    22.490676     14.92257    19.447574    41.301384     83.00469    12.612127     22.30075    14.235163 
  334200     306.3658     32.42557     32.42557            0            0            0            0     32.42557     1192.663    1225.0886    12.674437    22.488923    14.926208    18.845749    41.125973    83.368698    12.612127     22.30075    14.235163 
  334400    331.27421   -1.0358769   -1.0358769            0            0            0            0   -1.0358769    1289.6299    1288.5941    12.669086    22.487415    14.930197     18.31045    40.975107    83.767755    12.612127     22.30075    14.235163 
  334600    304.95796    82.312376    82.312376            0            0            0            0    82.312376    1187.1824    1269.4948    12.663739      22.4867    14.934652    17.775476    40.903548    84.213459    12.612127     22.30075    14.235163 
  334800    320.55526    149.76913    149.76913            0            0            0            0    149.76913    1247.9017    1397.6709    12.658565    22.487728    14.939798    17.257955    41.006395    84.728235    12.612127     22.30075    14.235163 
  335000    301.87441    313.80446    313.80446            0            0            0            0    313.80446    1175.1783    1488.9828    12.654753    22.490376    14.945949    16.876578    41.271316    85.343555    12.612127     22.30075    14.235163 
  335200    306.59281    43.422131    43.422131            0            0            0            0    43.422131    1193.5468    1236.9689    12.654367    22.494193    14.951957     16.83797    41.653168    85.944686    12.612127     22.30075    14.235163 
  335400    305.81519    2.6044743    2.6044743            0            0            0            0    2.6044743    1190.5195     1193.124    12.656064    22.498464    14.958027    17.007689    42.080492    86.551916    12.612127     22.30075    14.235163 
  335600    316.77486   -3.7510818   -3.7510818            0            0            0            0   -3.7510818    1233.1849    1229.4338    12.658461    22.502368    14.964196    17.247531     42.47099    87.169025    12.612127     22.30075    14.235163 
  335800    301.34751   -15.999997   -15.999997            0            0            0            0   -15.999997    1173.1271    1157.1271    12.660736    22.506035    14.970428    17.475104    42.837866    87.792522    12.612127     22.30075    14.235163 
  336000    330.11829    17.085297    17.085297            0            0            0            0    17.085297      1285.13    1302.2153    12.662775    22.509745    14.976717    17.679088    43.209021    88.421732    12.612127     22.30075    14.235163 
  336200    308.80712     28.26821     28.26821            0            0            0            0     28.26821     1202.167    1230.4352    12.665164    22.511968    14.983613    17.918094    43.431442     89.11158    12.612127     22.30075    14.235163 
  336400     314.8154    196.19642    196.19642            0            0            0            0    196.19642    1225.5568    1421.7532    12.668371     22.51299    14.991547    18.238936    43.533717    89.905348    12.612127     22.30075    14.235163 
  336600    315.04307    25.587073    25.587073            0            0            0            0    25.587073    1226.4431    1252.0302    12.670833    22.512171     15.00071    18.485208    43.451787       90.822    12.612127     22.30075    14.235163 
  336800    298.85756    154.67447    154.67447            0            0            0            0    154.67447    1163.4339    1318.1084     12.67246    22.510633    15.009655    18.648034    43.297918    91.716887    12.612127     22.30075    14.235163 
  337000    311.04366    9.3157987    9.3157987            0            0            0            0    9.3157987    1210.8737    1220.1895    12.672996    22.509719    15.017837    18.701604    43.206467    92.535383    12.612127     22.30075    14.235163 
  337200    322.72136   -11.951376   -11.951376            0            0            0            0   -11.951376    1256.3342    1244.3828    12.673644    22.508989    15.025327    18.766441    43.133447    93.284726    12.612127     22.30075    14.235163 
  337400    303.70871   -8.0420419   -8.0420419            0            0            0            0   -8.0420419    1182.3192    1174.2771    12.674173    22.507957    15.032761    18.819371    43.030157    94.028454    12.612127     22.30075    14.235163 
  337600    319.23717    9.0856441    9.0856441            0            0            0            0    9.0856441    1242.7705    1251.8561    12.674356    22.506639    15.040087    18.837714     42.89832    94.761298    12.612127     22.30075    14.235163 
  337800    308.21771    38.797223    38.797223            0            0            0            0    38.797223    1199.8724    1238.6696    12.673966    22.504809    15.046977    18.798631     42.71518    95.450637    12.612127     22.30075    14.235163 
  338000    317.44887    64.638753    64.638753            0            0            0            0    64.638753    1235.8088    1300.4475    12.672916    22.502099    15.053428    18.693618    42.444123    96.096035    12.612127     22.30075    14.235163 
  338200    304.13777    43.240932    43.240932            0            0            0            0    43.240932    1183.9895    1227.2304    12.672108    22.499243    15.060245     18.61276    42.158426    96.778012    12.612127     22.30075    14.235163 
  338400    308.18251    227.01997    227.01997            0            0            0            0    227.01997    1199.7354    1426.7553    12.673121    22.496657    15.067338    18.714079    41.899681    97.487612    12.612127     22.30075    14.235163 
  338600    300.20455     70.78922     70.78922            0            0            0            0     70.78922    1168.6777    1239.4669    12.676573    22.496904    15.073323    19.059499    41.924377    98.086334    12.612127     22.30075    14.235163 
  338800    317.43515    2.6451291    2.6451291            0            0            0            0    2.6451291    1235.7553    1238.4005    12.678335    22.496396    15.078709    19.235779    41.873534    98.625178    12.612127     22.30075    14.235163 
  339000    293.98182    30.893249    30.893249            0            0            0            0    30.893249     1144.453    1175.3462     12.67953    22.495425    15.083848    19.355258    41.776453    99.139301    12.612127     22.30075    14.235163 
  339200    333.46241    30.704716    30.704716            0            0            0            0    30.704716    1298.1485    1328.8532    12.681939    22.494751     15.08936    19.596284    41.709001    99.690678    12.612127     22.30075    14.235163 
  339400    300.88181     78.96017     78.96017            0            0            0            0     78.96017    1171.3142    1250.2744     12.68559    22.494823    15.095137    19.961495    41.716253    100.26869    12.612127     22.30075    14.235163 
  339600    317.57957     18.63031     18.63031            0            0            0            0     18.63031    1236.3175    1254.9478    12.689012    22.496744    15.100397    20.303902     41.90837    100.79491    12.612127     22.30075    14.235163 
  339800    314.94006    246.95539    246.95539            0            0            0            0    246.95539    1226.0421    1472.9975     12.69098    22.499589    15.105002    20.500748    42.192997    101.25561    12.612127     22.30075    14.235163 
  340000    309.02053    15.764575    15.764575            0            0            0            0    15.764575    1202.9977    1218.7623    12.689839    22.501487    15.108161    20.386572    42.382887    101.57159    12.612127     22.30075    14.235163 
  340200    315.28028     42.76031     42.76031            0            0            0            0     42.76031    1227.3666    1270.1269    12.687378    22.502218    15.110719    20.140391     42.45599    101.82748    12.612127     22.30075    14.235163 
  340400     314.3085    62.853817    62.853817            0            0            0            0    62.853817    1223.5835    1286.4373    12.684965    22.502657    15.112954     19.89904    42.499965    102.05112    12.612127     22.30075    14.235163 
  340600    317.40753    69.043484    69.043484            0            0            0            0    69.043484    1235.6478    1304.6913    12.682604     22.50282     15.11432    19.662839    42.516258    102.18774    12.612127     22.30075    14.235163 
  340800    320.11157    63.476072    63.476072            0            0            0            0    63.476072    1246.1745    1309.6505    12.680795    22.501992    15.115266    19.481869    42.433418    102.28245    12.612127     22.30075    14.235163 
  341000    304.19619    231.36031    231.36031            0            0            0            0    231.36031    1184.2169    1415.5772    12.677683    22.499873    15.116177    19.170544    42.221457    102.37358    12.612127     22.30075    14.235163 
  341200     315.3671    141.18113    141.18113            0            0            0            0    141.18113    1227.7045    1368.8857    12.673243    22.494851    15.119024    18.726366    41.718965    102.65834    12.612127     22.30075    14.235163 
  341400     319.4276    19.669938    19.669938            0            0            0            0    19.669938    1243.5118    1263.1818    12.671122    22.491032    15.122995    18.514087    41.336952    103.05564    12.612127     22.30075    14.235163 
  341600    302.12992    19.422967    19.422967            0            0            0            0    19.422967     1176.173     1195.596    12.670069    22.487928    15.127086    18.408815    41.026428    103.46486    12.612127     22.30075    14.235163 
  341800    319.77155    123.88775    123.88775            0            0            0            0    123.88775    1244.8508    1368.7385    12.668404    22.486098    15.132267    18.242218     40.84331    103.98323    12.612127     22.30075    14.235163 
  342000     317.5098  -0.60160711  -0.60160711            0            0            0            0  -0.60160711    1236.0459    1235.4443    12.667244    22.485972    15.137876    18.126194    40.830773    104.54432    12.612127     22.30075    14.235163 
  342200    318.63837    87.259575    87.259575            0            0            0            0    87.259575    1240.4394     1327.699    12.665834    22.486754    15.142125    17.985102     40.90895    104.96942    12.612127     22.30075    14.235163 
  342400    312.74908   -16.992945   -16.992945            0            0            0            0   -16.992945    1217.5128    1200.5198    12.665277    22.486778     15.14471    17.929348    40.911403    105.22803    12.612127     22.30075    14.235163 
  342600    314.49219    53.623274    53.623274            0            0            0            0    53.623274    1224.2986    1277.9219    12.665639    22.486491     15.14705     17.96559    40.882671    105.46211    12.612127     22.30075    14.235163 
  342800    309.82424    77.251035    77.251035            0            0            0            0    77.251035    1206.1265    1283.3776    12.666764    22.489177    15.148898     18.07811    41.151421    105.64699    12.612127     22.30075    14.235163 
  343000    324.51086    52.431755    52.431755            0            0            0            0    52.431755    1263.3006    1315.7324    12.668566    22.495147     15.15007    18.258461    41.748611    105.76427    12.612127     22.30075    14.235163 
  343200      305.963    27.983578    27.983578            0            0            0            0    27.983578     1191.095    1219.0786    12.671374    22.501529    15.150603    18.539346    42.387079    105.81755    12.612127     22.30075    14.235163 
  343400     321.5603    218.77071    218.77071            0            0            0            0    218.77071    1251.8143     1470.585    12.674748    22.506679    15.150932    18.876883    42.902278    105.85055    12.612127     22.30075    14.235163 
  343600    311.46204   -12.739221   -12.739221            0            0            0            0   -12.739221    1212.5024    1199.7632    12.675551    22.510398    15.150825    18.957239    43.274327    105.83977    12.612127     22.30075    14.235163 
  343800    322.34407   -14.881527   -14.881527            0            0            0            0   -14.881527    1254.8654    1239.9839    12.675806    22.513507    15.150591    18.982738    43.585442    105.81637    12.612127     22.30075    14.235163 
  344000    303.92658    -5.829421    -5.829421            0            0            0            0    -5.829421    1183.1673    1177.3379    12.676007    22.516169    15.150426    19.002829    43.851734    105.79988    12.612127     22.30075    14.235163 
  344200    322.09831    119.00449    119.00449            0            0            0            0    119.00449    1253.9087    1372.9132     12.67571    22.518023    15.150668    18.973123    44.037196    105.82405    12.612127     22.30075    14.235163 
  344400    310.37813   -9.2824908   -9.2824908            0            0            0            0   -9.2824908    1208.2828    1199.0003    12.674623    22.517516    15.152173    18.864415    43.986421    105.97465    12.612127     22.30075    14.235163 
  344600    316.30052    133.16507    133.16507            0            0            0            0    133.16507    1231.3383    1364.5033    12.672908    22.516633    15.154014    18.692789    43.898172    106.15879    12.612127     22.30075    14.235163 
  344800    308.42431    212.12308    212.12308            0            0            0            0    212.12308    1200.6767    1412.7998    12.669983    22.514277    15.156041    18.400205    43.662383    106.36162    12.612127     22.30075    14.235163 
  345000    307.14701    27.179244    27.179244            0            0            0            0    27.179244    1195.7043    1222.8835    12.667827    22.508991    15.156962    18.184511      43.1336    106.45378    12.612127     22.30075    14.235163 
  345200    316.28306    51.568574    51.568574            0            0            0            0    51.568574    1231.2703    1282.8389    12.667047    22.504001    15.156742    18.106437    42.634378     106.4317    12.612127     22.30075    14.235163 
  345400    311.31347   -24.679866   -24.679866            0            0            0            0   -24.679866     1211.924    1187.2442    12.668118     22.50002    15.157494    18.213658    42.236144    106.50698    12.612127     22.30075    14.235163 
  345600    312.21194   -18.208099   -18.208099            0            0            0            0   -18.208099    1215.4217    1197.2136    12.669775    22.496358    15.158514    18.379421    41.869817    106.60899    12.612127     22.30075    14.235163 
  345800    327.34852    23.139512    23.139512            0            0            0            0    23.139512    1274.3475     1297.487    12.671775    22.492431    15.159531     18.57945    41.476875     106.7108    12.612127     22.30075    14.235163 
  346000    320.30369    148.40629    148.40629            0            0            0            0    148.40629    1246.9224    1395.3287    12.674155    22.487948    15.160615    18.817529    41.028404    106.81917    12.612127     22.30075    14.235163 
  346200    312.29777     231.4104     231.4104            0            0            0            0     231.4104    1215.7558    1447.1662     12.67447    22.484193    15.162264    18.849081     40.65281     106.9842    12.612127     22.30075    14.235163 
  346400    309.35445    87.892767    87.892767            0            0            0            0    87.892767    1204.2977    1292.1904     12.67254    22.484184    15.164509    18.655962    40.651829    107.20882    12.612127     22.30075    14.235163 
  346600    325.05463    7.3437947    7.3437947            0            0            0            0    7.3437947    1265.4175    1272.7613    12.672147    22.487217    15.166893     18.61668    40.955274    107.44724    12.612127     22.30075    14.235163 
  346800    301.13647    105.05812    105.05812            0            0            0            0    105.05812    1172.3056    1277.3637    12.672902    22.491939     15.16905    18.692253     41.42767    107.66308    12.612127     22.30075    14.235163 
  347000     316.0204    138.23615    138.23615            0            0            0            0    138.23615    1230.2478     1368.484    12.672926    22.496565     15.17163    18.694606    41.890485     107.9212    12.612127     22.30075    14.235163 
  347200    312.62587    141.63163    141.63163            0            0            0            0    141.63163    1217.0331    1358.6647    12.671561    22.498583    15.175589    18.558003    42.092384     108.3172    12.612127     22.30075    14.235163 
  347400    325.67752    -7.940426    -7.940426            0            0            0            0    -7.940426    1267.8424    1259.9019    12.671795     22.49835    15.178956    18.581434    42.069091    108.65411    12.612127     22.30075    14.235163 
  347600    308.25214    17.774422    17.774422            0            0            0            0    17.774422    1200.0064    1217.7809    12.672733    22.497528    15.181862     18.67534     41.98684    108.94482    12.612127     22.30075    14.235163 
  347800    312.78154    13.761464    13.761464            0            0            0            0    13.761464    1217.6391    1231.4006     12.67433    22.497047    15.184839    18.835036    41.938656    109.24265    12.612127     22.30075    14.235163 
  348000    317.19471    79.766039    79.766039            0            0            0            0    79.766039    1234.8193    1314.5854    12.675352    22.497011    15.188104    18.937294    41.935126    109.56924    12.612127     22.30075    14.235163 
  348200    316.38901    84.411685    84.411685            0            0            0            0    84.411685    1231.6828    1316.0945     12.67515    22.496047    15.191624    18.917137    41.838659    109.92141    12.612127     22.30075    14.235163 
  348400    306.99378    4.2282082    4.2282082            0            0            0            0    4.2282082    1195.1077    1199.3359    12.673876    22.493583    15.194471    18.789604    41.592195    110.20626    12.612127     22.30075    14.235163 
  348600    322.05848    68.360974    68.360974            0            0            0            0    68.360974    1253.7537    1322.1147    12.673073     22.49151    15.197395     18.70928    41.384792    110.49876    12.612127     22.30075    14.235163 
  348800    315.17747    84.312124    84.312124            0            0            0            0    84.312124    1226.9663    1311.2784    12.674255    22.491236    15.199392    18.827549     41.35739    110.69852    12.612127     22.30075    14.235163 
  349000    318.20622    91.087945    91.087945            0            0            0            0    91.087945    1238.7571     1329.845    12.676552    22.491946    15.201325    19.057344    41.428391    110.89188    12.612127     22.30075    14.235163 
  349200    319.36325    21.670046    21.670046            0            0            0            0    21.670046    1243.2613    1264.9313    12.678447    22.492816    15.203182    19.246969    41.515457    111.07774    12.612127     22.30075    14.235163 
  349400    307.84403   -16.066329   -16.066329            0            0            0            0   -16.066329    1198.4177    1182.3514    12.679639    22.493936    15.204822     19.36621    41.627425    111.24172    12.612127     22.30075    14.235163 
  349600    314.65799    2.8749471    2.8749471            0            0            0            0    2.8749471     1224.944     1227.819    12.680475    22.494998    15.206362    19.449795    41.733766    111.39587    12.612127     22.30075    14.235163 
  349800    312.35609    120.75085    120.75085            0            0            0            0    120.75085    1215.9829    1336.7337    12.680237    22.496655    15.208152    19.426039    41.899444     111.5749    12.612127     22.30075    14.235163 
  350000    306.83677    112.37067    112.37067            0            0            0            0    112.37067    1194.4965    1306.8672    12.678624    22.499627    15.209317    19.264618    42.196824    111.69147    12.612127     22.30075    14.235163 
  350200    319.07761    15.798418    15.798418            0            0            0            0    15.798418    1242.1493    1257.9478    12.678265    22.502883    15.209128    19.228735    42.522524    111.67255    12.612127     22.30075    14.235163 
  350400    303.39649    36.895829    36.895829            0            0            0            0    36.895829    1181.1037    1217.9995    12.677417    22.506047    15.208634    19.143911     42.83906    111.62312    12.612127     22.30075    14.235163 
  350600    321.00609    51.182039    51.182039            0            0            0            0    51.182039    1249.6568    1300.8388    12.676422    22.509223       15.208    19.044361    43.156849    111.55968    12.612127     22.30075    14.235163 
  350800    312.39992    116.32322    116.32322            0            0            0            0    116.32322    1216.1535    1332.4767    12.675288    22.510923    15.207663    18.930901    43.326845    111.52601    12.612127     22.30075    14.235163 
  351000    321.89096   -19.684843   -19.684843            0            0            0            0   -19.684843    1253.1015    1233.4167    12.674827    22.510136    15.206975    18.884802    43.248129    111.45716    12.612127     22.30075    14.235163 
  351200     310.8601   -6.2258197   -6.2258197            0            0            0            0   -6.2258197    1210.1591    1203.9332    12.674708    22.508848    15.205762    18.872913    43.119252    111.33579    12.612127     22.30075    14.235163 
  351400    315.19145    47.495705    47.495705            0            0            0            0    47.495705    1227.0207    1274.5165    12.673485    22.506842    15.204254    18.750541    42.918568    111.18499    12.612127     22.30075    14.235163 
  351600    314.44241    23.178491    23.178491            0            0            0            0    23.178491    1224.1048    1247.2833    12.670672    22.503804    15.202463    18.469092    42.614654     111.0058    12.612127     22.30075    14.235163 
  351800    328.69883    49.465498    49.465498            0            0            0            0    49.465498    1279.6041    1329.0696     12.66871    22.500759    15.201055    18.272832    42.310037    110.86491    12.612127     22.30075    14.235163 
  352000    299.13365    66.268863    66.268863            0            0            0            0    66.268863    1164.5087    1230.7776    12.668406    22.498461     15.20027    18.242382    42.080196    110.78635    12.612127     22.30075    14.235163 
  352200    315.52524    172.06938    172.06938            0            0            0            0    172.06938    1228.3202    1400.3896     12.66756    22.495279    15.199806     18.15774    41.761808    110.73999    12.612127     22.30075    14.235163 
  352400    315.30129     -4.82527     -4.82527            0            0            0            0     -4.82527    1227.4484    1222.6231    12.667338    22.494734    15.199897    18.135547    41.707264    110.74908    12.612127     22.30075    14.235163 
  352600    311.25214   -5.3067898   -5.3067898            0            0            0            0   -5.3067898    1211.6853    1206.3785    12.668827    22.496472    15.199935    18.284538    41.881181    110.75285    12.612127     22.30075    14.235163 
  352800    328.67272    33.089083    33.089083            0            0            0            0    33.089083    1279.5025    1312.5916    12.671752    22.499763    15.199705    18.577205    42.210398    110.72985    12.612127     22.30075    14.235163 
  353000     318.1784    47.231052    47.231052            0            0            0            0    47.231052    1238.6488    1285.8798     12.67424    22.503963    15.199878    18.826101    42.630581    110.74714    12.612127     22.30075    14.235163 
  353200    319.10799   -23.688002   -23.688002            0            0            0            0   -23.688002    1242.2676    1218.5796    12.675731    22.508738    15.200394    18.975181     43.10828    110.79877    12.612127     22.30075    14.235163 
  353400    311.34128    16.757244    16.757244            0            0            0            0    16.757244    1212.0323    1228.7895    12.677222    22.512729    15.201044    19.124406    43.507588    110.86377    12.612127     22.30075    14.235163 
  353600    309.29229    26.370328    26.370328            0            0            0            0    26.370328    1204.0557     1230.426    12.678649    22.513928    15.201897    19.267105    43.627523    110.94911    12.612127     22.30075    14.235163 
  353800    317.27552     258.5545     258.5545            0            0            0            0     258.5545    1235.1339    1493.6884    12.679838    22.512857    15.202874    19.386077    43.520407    111.04691    12.612127     22.30075    14.235163 
  354000    312.42662    50.878888    50.878888            0            0            0            0    50.878888    1216.2574    1267.1363    12.679318    22.506936    15.204006    19.334061    42.928056     111.1601    12.612127     22.30075    14.235163 
  354200    317.49926    56.798735    56.798735            0            0            0            0    56.798735    1236.0049    1292.8037    12.678404    22.500976    15.206116    19.242688    42.331771    111.37125    12.612127     22.30075    14.235163 
  354400    321.24981    147.31866    147.31866            0            0            0            0    147.31866    1250.6056    1397.9242    12.678415    22.496714    15.208784    19.243711    41.905363    111.63816    12.612127     22.30075    14.235163 
  354600     316.7035   -9.9292911   -9.9292911            0            0            0            0   -9.9292911    1232.9071    1222.9778    12.679448    22.495422    15.210873    19.347043    41.776089    111.84714    12.612127     22.30075    14.235163 
  354800    305.64135    21.862961    21.862961            0            0            0            0    21.862961    1189.8428    1211.7058    12.680693    22.494339     15.21272    19.471663    41.667797    112.03193    12.612127     22.30075    14.235163 
  355000    313.59673   -9.9195771   -9.9195771            0            0            0            0   -9.9195771    1220.8126     1210.893    12.681078     22.49384    15.213692    19.510171    41.617834    112.12915    12.612127     22.30075    14.235163 
  355200    312.27875  -0.58344002  -0.58344002            0            0            0            0  -0.58344002    1215.6818    1215.0983    12.680411    22.494124    15.214354    19.443442    41.646309    112.19542    12.612127     22.30075    14.235163 
  355400    316.79776    210.56749    210.56749            0            0            0            0    210.56749     1233.274    1443.8415    12.678849    22.494957    15.215246    19.287169    41.729648    112.28463    12.612127     22.30075    14.235163 
  355600    313.10978     143.3062     143.3062            0            0            0            0     143.3062    1218.9169    1362.2231    12.677045    22.494847    15.215765    19.106706    41.718647    112.33657    12.612127     22.30075    14.235163 
  355800    306.98373    29.019134    29.019134            0            0            0            0    29.019134    1195.0686    1224.0877    12.675517    22.494105    15.216782    18.953848     41.64434    112.43829    12.612127     22.30075    14.235163 
  356000    304.87191    16.474232    16.474232            0            0            0            0    16.474232    1186.8474    1203.3216    12.673243    22.494595    15.217921    18.726355    41.693351    112.55218    12.612127     22.30075    14.235163 
  356200    316.83998    4.1988032    4.1988032            0            0            0            0    4.1988032    1233.4384    1237.6372    12.671882     22.49617    15.219753    18.590159    41.851004    112.73547    12.612127     22.30075    14.235163 
  356400    319.58452    66.133874    66.133874   