LAMMPS (30 Jul 2016)

# ----------------- Init Section -----------------

units real
processors 1 1 1
newton off
atom_style full
atom_modify sort 0 10.0

# ----------------- Atom Definition Section -----------------

read_data "MgMOF74-Pressure50000.data"
  orthogonal box = (0.4447 0.31425 -0.401771) to (26.5587 45.5442 27.2652)
  1 by 1 by 1 MPI processor grid
  reading atoms ...
  1307 atoms
  0 = max # of 1-2 neighbors
  0 = max # of 1-3 neighbors
  0 = max # of 1-4 neighbors
  1 = max # of special neighbors

# ----------------- Settings Section -----------------

#include "MgMOF74-Pressure50000.in.settings"

# ----------------- Run Section -----------------

# define groups
group GUEST type 1
11 atoms in group GUEST
group MOF type 2 3 4 5 6 7 8 9 10
1296 atoms in group MOF

# define computes
compute comT all com
compute comG GUEST com
compute comM MOF com

# settings
timestep           0.5
thermo             200
thermo_style       custom step temp epair emol etotal c_comT[1] c_comT[2] c_comT[3] c_comG[1] c_comG[2] c_comG[3] c_comM[1] c_comM[2] c_comM[3]
restart            2000000 sim.restart

# reset box to start at 0
change_box         all x delta $(-xlo) $(-xlo) y delta $(-ylo) $(-ylo) z delta $(-zlo) $(-zlo) remap units box
change_box         all x delta -0.44469999999999998419 $(-xlo) y delta $(-ylo) $(-ylo) z delta $(-zlo) $(-zlo) remap units box
change_box         all x delta -0.44469999999999998419 -0.44469999999999998419 y delta $(-ylo) $(-ylo) z delta $(-zlo) $(-zlo) remap units box
change_box         all x delta -0.44469999999999998419 -0.44469999999999998419 y delta -0.3142499999999999738 $(-ylo) z delta $(-zlo) $(-zlo) remap units box
change_box         all x delta -0.44469999999999998419 -0.44469999999999998419 y delta -0.3142499999999999738 -0.3142499999999999738 z delta $(-zlo) $(-zlo) remap units box
change_box         all x delta -0.44469999999999998419 -0.44469999999999998419 y delta -0.3142499999999999738 -0.3142499999999999738 z delta 0.40177099999999998925 $(-zlo) remap units box
change_box         all x delta -0.44469999999999998419 -0.44469999999999998419 y delta -0.3142499999999999738 -0.3142499999999999738 z delta 0.40177099999999998925 0.40177099999999998925 remap units box
  orthogonal box = (0 0.31425 -0.401771) to (26.114 45.5442 27.2652)
  orthogonal box = (0 0 -0.401771) to (26.114 45.23 27.2652)
  orthogonal box = (0 0 0) to (26.114 45.23 27.667)
write_data         data_changebox.data

# get rid of overlapping atoms
run                0
WARNING: No fixes defined, atoms won't move (../verlet.cpp:55)
Memory usage per processor = 0.478851 Mbytes
Step Temp E_pair E_mol TotEng comT[1] comT[2] comT[3] comG[1] comG[2] comG[3] comM[1] comM[2] comM[3] 
       0            0            0            0            0    12.683318    22.424053    14.189073    19.734246    34.636249    9.6241346    12.612127     22.30075    14.235163 
Loop time of 1.19209e-06 on 1 procs for 0 steps with 1307 atoms

0.0% CPU use with 1 MPI tasks x no OpenMP threads

MPI task timing breakdown:
Section |  min time  |  avg time  |  max time  |%varavg| %total
---------------------------------------------------------------
Pair    | 0          | 0          | 0          |   0.0 |  0.00
Bond    | 0          | 0          | 0          |   0.0 |  0.00
Neigh   | 0          | 0          | 0          |   0.0 |  0.00
Comm    | 0          | 0          | 0          |   0.0 |  0.00
Output  | 0          | 0          | 0          |   0.0 |  0.00
Modify  | 0          | 0          | 0          |   0.0 |  0.00
Other   |            | 1.192e-06  |            |       |100.00

Nlocal:    1307 ave 1307 max 1307 min
Histogram: 1 0 0 0 0 0 0 0 0 0
Nghost:    0 ave 0 max 0 min
Histogram: 1 0 0 0 0 0 0 0 0 0
Neighs:    0 ave 0 max 0 min
Histogram: 1 0 0 0 0 0 0 0 0 0

Total # of neighbors = 0
Ave neighs/atom = 0
Ave special neighs/atom = 0
Neighbor list builds = 0
Dangerous builds = 0
velocity           GUEST create 313 1738
fix                1 GUEST nvt temp 313 313 100.0
pair_style         soft 5.0
pair_coeff         * * 0.0 5.0
kspace_style       none
variable           prefactor equal ramp(1.0,20.0)
fix                2 all adapt 1 pair soft a * * v_prefactor
run                2000
Neighbor list info ...
  1 neighbor list requests
  update every 1 steps, delay 10 steps, check yes
  max neighbors/atom: 2000, page size: 100000
  master list distance cutoff = 7
  ghost atom cutoff = 7
  binsize = 3.5 -> bins = 8 13 8
Memory usage per processor = 5.44173 Mbytes
Step Temp E_pair E_mol TotEng comT[1] comT[2] comT[3] comG[1] comG[2] comG[3] comM[1] comM[2] comM[3] 
       0    2.3966309    8995.3087            0    9004.6386    12.683318    22.424053    14.189073    19.734246    34.636249    9.6241346    12.612127     22.30075    14.235163 
     200    4.5023721    26074.309            0    26091.836    12.683332     22.42382    14.189083    19.735612    34.612932    9.6251655    12.612127     22.30075    14.235163 
     400    21.062518    42979.691            0    43061.686    12.683493    22.421737    14.188964    19.751736    34.404557    9.6133009    12.612127     22.30075    14.235163 
     600    17.760017    59769.623            0    59838.762    12.683645    22.419594    14.188718     19.76697    34.190192    9.5886352    12.612127     22.30075    14.235163 
     800    5.4882568    76557.718            0    76579.083     12.68363      22.4156    14.188317    19.765425    33.790547    9.5485559    12.612127     22.30075    14.235163 
    1000   0.94478664    93470.842            0     93474.52    12.683665      22.4137    14.188006    19.768993    33.600542    9.5174109    12.612127     22.30075    14.235163 
    1200   0.70808681    110384.61            0    110387.37    12.683686    22.412593    14.187824      19.7711    33.489783    9.4992001    12.612127     22.30075    14.235163 
    1400    1.8727031    127298.38            0    127305.67    12.683712    22.411236    14.187601    19.773682    33.354039    9.4768812    12.612127     22.30075    14.235163 
    1600    3.6324607    144216.31            0    144230.45     12.68376    22.408922      14.1872    19.778468    33.122517    9.4367989    12.612127     22.30075    14.235163 
    1800    4.4255859       161126            0    161143.23    12.683951    22.409155    14.186058    19.797544    33.145804    9.3225315    12.612127     22.30075    14.235163 
    2000    1.6587189    178042.66            0    178049.12    12.684152    22.411047     14.18485    19.817661    33.335061     9.201683    12.612127     22.30075    14.235163 
Loop time of 2.84159 on 1 procs for 2000 steps with 1307 atoms

Performance: 30.405 ns/day, 0.789 hours/ns, 703.830 timesteps/s
99.8% CPU use with 1 MPI tasks x no OpenMP threads

MPI task timing breakdown:
Section |  min time  |  avg time  |  max time  |%varavg| %total
---------------------------------------------------------------
Pair    | 2.748      | 2.748      | 2.748      |   0.0 | 96.71
Bond    | 0.00011468 | 0.00011468 | 0.00011468 |   0.0 |  0.00
Neigh   | 0.057803   | 0.057803   | 0.057803   |   0.0 |  2.03
Comm    | 0.011995   | 0.011995   | 0.011995   |   0.0 |  0.42
Output  | 0.00047088 | 0.00047088 | 0.00047088 |   0.0 |  0.02
Modify  | 0.015394   | 0.015394   | 0.015394   |   0.0 |  0.54
Other   |            | 0.007843   |            |       |  0.28

Nlocal:    1307 ave 1307 max 1307 min
Histogram: 1 0 0 0 0 0 0 0 0 0
Nghost:    2723 ave 2723 max 2723 min
Histogram: 1 0 0 0 0 0 0 0 0 0
Neighs:    53112 ave 53112 max 53112 min
Histogram: 1 0 0 0 0 0 0 0 0 0

Total # of neighbors = 53112
Ave neighs/atom = 40.6366
Ave special neighs/atom = 0
Neighbor list builds = 20
Dangerous builds = 0
unfix              2
write_data         data_overlap.data

# reset force field parameters
# Set 1-2, 1-3, and 1-4 pairwise interactions to zero; not needed if no bonded terms
#special_bonds      lj/coul 0.0 0.0 0.0
kspace_style       pppm/disp 1.0e-6
include "MgMOF74-Pressure50000.in.settings"
# UFF parameters for all atoms not defined by force field
pair_style         hybrid lj/long/coul/long cut long 12.8 buck/long/coul/long cut long 12.8
pair_modify        mix arithmetic shift yes
pair_coeff         7 7 lj/long/coul/long 0.111 2.691
pair_coeff         2 2 lj/long/coul/long 0.105 3.431
pair_coeff         3 3 lj/long/coul/long 0.105 3.431
pair_coeff         4 4 lj/long/coul/long 0.105 3.431
pair_coeff         5 5 lj/long/coul/long 0.105 3.431
pair_coeff         6 6 lj/long/coul/long 0.044 2.571
pair_coeff         8 8 lj/long/coul/long 0.060 3.118
pair_coeff         9 9 lj/long/coul/long 0.060 3.118
pair_coeff         10 10 lj/long/coul/long 0.060 3.118
pair_coeff         1 1 lj/long/coul/long 0.294 3.730
# Lennard-Jones parameters from force field
pair_coeff         1 6 lj/long/coul/long 0.114 3.15
# Buckingham parameters from force field
pair_coeff         1 7 buck/long/coul/long 503735.46 4.915 869.75957
pair_coeff         1 8 buck/long/coul/long 36618.413 2.965 943.43844
pair_coeff         1 9 buck/long/coul/long 40336.705 3.265 943.43844
pair_coeff         1 10 buck/long/coul/long 20010.424 2.790 943.43844
pair_coeff         1 2 buck/long/coul/long 151480.54 3.995 1627.7890
pair_coeff         1 3 buck/long/coul/long 70571.228 3.280 1627.7890
pair_coeff         1 4 buck/long/coul/long 460219.42 4.370 1627.7890
pair_coeff         1 5 buck/long/coul/long 5085.8640 2.315 1627.7890

# melt crystalline guest molecules
unfix              1
run                0
WARNING: No fixes defined, atoms won't move (../verlet.cpp:55)
PPPMDisp initialization ...
  Coulomb G vector (1/distance) = 0.264777
  Coulomb grid = 30 50 30
  Coulomb stencil order = 5
  Coulomb estimated absolute RMS force accuracy = 0.000346238
  Coulomb estimated relative force accuracy = 1.04269e-06
  using double precision FFTs
  3d grid and FFT values/proc = 78033 45000
Neighbor list info ...
  3 neighbor list requests
  update every 1 steps, delay 10 steps, check yes
  max neighbors/atom: 2000, page size: 100000
  master list distance cutoff = 14.8
  ghost atom cutoff = 14.8
  binsize = 7.4 -> bins = 4 7 4
Memory usage per processor = 12.3721 Mbytes
Step Temp E_pair E_mol TotEng comT[1] comT[2] comT[3] comG[1] comG[2] comG[3] comM[1] comM[2] comM[3] 
    2000    1.6587189     60258162            0     60258168    12.684152    22.411047     14.18485    19.817661    33.335061     9.201683    12.612127     22.30075    14.235163 
Loop time of 0 on 1 procs for 0 steps with 1307 atoms

0.0% CPU use with 1 MPI tasks x no OpenMP threads

MPI task timing breakdown:
Section |  min time  |  avg time  |  max time  |%varavg| %total
---------------------------------------------------------------
Pair    | 0          | 0          | 0          |   0.0 |  0.00
Bond    | 0          | 0          | 0          |   0.0 |  0.00
Kspace  | 0          | 0          | 0          |   0.0 |  0.00
Neigh   | 0          | 0          | 0          |   0.0 |  0.00
Comm    | 0          | 0          | 0          |   0.0 |  0.00
Output  | 0          | 0          | 0          |   0.0 |  0.00
Modify  | 0          | 0          | 0          |   0.0 |  0.00
Other   |            | 0          |            |       |  0.00

Nlocal:    1307 ave 1307 max 1307 min
Histogram: 1 0 0 0 0 0 0 0 0 0
Nghost:    7927 ave 7927 max 7927 min
Histogram: 1 0 0 0 0 0 0 0 0 0
Neighs:    491314 ave 491314 max 491314 min
Histogram: 1 0 0 0 0 0 0 0 0 0

Total # of neighbors = 491314
Ave neighs/atom = 375.91
Ave special neighs/atom = 0
Neighbor list builds = 0
Dangerous builds = 0
velocity           GUEST create 1000 1738
fix                3 GUEST nvt temp 1000 1000 100.0
run                4000
PPPMDisp initialization ...
  Coulomb G vector (1/distance) = 0.264777
  Coulomb grid = 30 50 30
  Coulomb stencil order = 5
  Coulomb estimated absolute RMS force accuracy = 0.000346238
  Coulomb estimated relative force accuracy = 1.04269e-06
  using double precision FFTs
  3d grid and FFT values/proc = 78033 45000
Memory usage per processor = 12.3721 Mbytes
Step Temp E_pair E_mol TotEng comT[1] comT[2] comT[3] comG[1] comG[2] comG[3] comM[1] comM[2] comM[3] 
    2000    7.6569678     60258162            0     60258191    12.684152    22.411047     14.18485    19.817661    33.335061     9.201683    12.612127     22.30075    14.235163 
    2200    848.53379     59214350            0     59217653    12.683354    22.410345    14.187834    19.737804    33.264808    9.5002053    12.612127     22.30075    14.235163 
    2400    727.72579     59214550            0     59217383    12.683362    22.410442    14.188424    19.738609    33.274539    9.5592467    12.612127     22.30075    14.235163 
    2600     744.0771     59212328            0     59215224    12.683316     22.41032    14.188111    19.734089    33.262389    9.5279621    12.612127     22.30075    14.235163 
    2800    820.71968     59212325            0     59215520    12.683407    22.410453      14.1884    19.743131    33.275701    9.5568251    12.612127     22.30075    14.235163 
    3000    793.49068     59213376            0     59216465    12.683361    22.410429    14.188313    19.738554    33.273214    9.5481636    12.612127     22.30075    14.235163 
    3200    278.85403     59214483            0     59215569    12.683142    22.410261    14.187712    19.716689    33.256423    9.4880042    12.612127     22.30075    14.235163 
    3400    797.63292     59212877            0     59215982    12.683334    22.410425    14.187473    19.735831    33.272816    9.4640952    12.612127     22.30075    14.235163 
    3600    642.36611     59213629            0     59216130     12.68325    22.410273    14.188271    19.727487    33.257652    9.5439146    12.612127     22.30075    14.235163 
    3800    686.92689     59214012            0     59216686    12.683605    22.410421    14.187673    19.762935    33.272497     9.484088    12.612127     22.30075    14.235163 
    4000    533.51746     59213332            0     59215409     12.68348    22.410282    14.187968    19.750502    33.258526    9.5135901    12.612127     22.30075    14.235163 
    4200    416.67557     59214762            0     59216384    12.683296    22.410281    14.187683    19.732003    33.258438    9.4851503    12.612127     22.30075    14.235163 
    4400    617.10684     59214042            0     59216444    12.683345    22.410409    14.187373    19.736938    33.271294    9.4541181    12.612127     22.30075    14.235163 
    4600    847.48372     59214462            0     59217761    12.683331    22.410391    14.188125    19.735595    33.269493    9.5293684    12.612127     22.30075    14.235163 
    4800    835.01566     59214406            0     59217657    12.683278    22.410156    14.187825    19.730228     33.24592     9.499316    12.612127     22.30075    14.235163 
    5000    494.36286     59213087            0     59215011    12.683473    22.410373    14.188264    19.749757     33.26767    9.5432249    12.612127     22.30075    14.235163 
    5200    903.52614     59213278            0     59216795    12.683308    22.410197    14.188043    19.733259     33.25008     9.521183    12.612127     22.30075    14.235163 
    5400    469.56834     59213093            0     59214921    12.683443    22.410349    14.188325    19.746778    33.265277    9.5493419    12.612127     22.30075    14.235163 
    5600    412.58709     59213864            0     59215470    12.683389    22.410386    14.188185     19.74133    33.268967    9.5353877    12.612127     22.30075    14.235163 
    5800    331.90716     59216392            0     59217684    12.683473    22.410493    14.188359    19.749802    33.279662    9.5527148    12.612127     22.30075    14.235163 
    6000    579.49725     59214075            0     59216331    12.683309    22.410306     14.18782    19.733329    33.260963    9.4988188    12.612127     22.30075    14.235163 
Loop time of 49.3145 on 1 procs for 4000 steps with 1307 atoms

Performance: 3.504 ns/day, 6.849 hours/ns, 81.112 timesteps/s
100.0% CPU use with 1 MPI tasks x no OpenMP threads

MPI task timing breakdown:
Section |  min time  |  avg time  |  max time  |%varavg| %total
---------------------------------------------------------------
Pair    | 25.482     | 25.482     | 25.482     |  -nan | 51.67
Bond    | 0.00054741 | 0.00054741 | 0.00054741 |   0.0 |  0.00
Kspace  | 23.625     | 23.625     | 23.625     |  -nan | 47.91
Neigh   | 0.051133   | 0.051133   | 0.051133   |   0.0 |  0.10
Comm    | 0.089398   | 0.089398   | 0.089398   |   0.0 |  0.18
Output  | 0.0010111  | 0.0010111  | 0.0010111  |   0.0 |  0.00
Modify  | 0.034841   | 0.034841   | 0.034841   |   0.0 |  0.07
Other   |            | 0.03044    |            |       |  0.06

Nlocal:    1307 ave 1307 max 1307 min
Histogram: 1 0 0 0 0 0 0 0 0 0
Nghost:    7931 ave 7931 max 7931 min
Histogram: 1 0 0 0 0 0 0 0 0 0
Neighs:    491512 ave 491512 max 491512 min
Histogram: 1 0 0 0 0 0 0 0 0 0

Total # of neighbors = 491512
Ave neighs/atom = 376.061
Ave special neighs/atom = 0
Neighbor list builds = 3
Dangerous builds = 1
write_data         data_melt.data
PPPMDisp initialization ...
  Coulomb G vector (1/distance) = 0.264777
  Coulomb grid = 30 50 30
  Coulomb stencil order = 5
  Coulomb estimated absolute RMS force accuracy = 0.000346238
  Coulomb estimated relative force accuracy = 1.04269e-06
  using double precision FFTs
  3d grid and FFT values/proc = 78033 45000
unfix              3
fix                4 GUEST nvt temp 313 313 100.0

# get MOF COM
compute            MOFCOM MOF com
variable           MOFCOM1 equal c_MOFCOM[1]
variable           MOFCOM2 equal c_MOFCOM[2]
variable           MOFCOM3 equal c_MOFCOM[3]
thermo_style       custom step temp epair emol etotal c_comT[1] c_comT[2] c_comT[3] c_comG[1] c_comG[2] c_comG[3] c_comM[1] c_comM[2] c_comM[3] c_MOFCOM[1] c_MOFCOM[2] c_MOFCOM[3]

# don't make MOF flexible
run                0
PPPMDisp initialization ...
  Coulomb G vector (1/distance) = 0.264777
  Coulomb grid = 30 50 30
  Coulomb stencil order = 5
  Coulomb estimated absolute RMS force accuracy = 0.000346238
  Coulomb estimated relative force accuracy = 1.04269e-06
  using double precision FFTs
  3d grid and FFT values/proc = 78033 45000
Memory usage per processor = 12.3721 Mbytes
Step Temp E_pair E_mol TotEng comT[1] comT[2] comT[3] comG[1] comG[2] comG[3] comM[1] comM[2] comM[3] MOFCOM[1 MOFCOM[2 MOFCOM[3 
    6000    579.49725     59214075            0     59216331    12.683309    22.410306     14.18782    19.733329    33.260963    9.4988188    12.612127     22.30075    14.235163    12.612127     22.30075    14.235163 
Loop time of 0 on 1 procs for 0 steps with 1307 atoms

0.0% CPU use with 1 MPI tasks x no OpenMP threads

MPI task timing breakdown:
Section |  min time  |  avg time  |  max time  |%varavg| %total
---------------------------------------------------------------
Pair    | 0          | 0          | 0          |   0.0 |  0.00
Bond    | 0          | 0          | 0          |   0.0 |  0.00
Kspace  | 0          | 0          | 0          |   0.0 |  0.00
Neigh   | 0          | 0          | 0          |   0.0 |  0.00
Comm    | 0          | 0          | 0          |   0.0 |  0.00
Output  | 0          | 0          | 0          |   0.0 |  0.00
Modify  | 0          | 0          | 0          |   0.0 |  0.00
Other   |            | 0          |            |       |  0.00

Nlocal:    1307 ave 1307 max 1307 min
Histogram: 1 0 0 0 0 0 0 0 0 0
Nghost:    7931 ave 7931 max 7931 min
Histogram: 1 0 0 0 0 0 0 0 0 0
Neighs:    491522 ave 491522 max 491522 min
Histogram: 1 0 0 0 0 0 0 0 0 0

Total # of neighbors = 491522
Ave neighs/atom = 376.069
Ave special neighs/atom = 0
Neighbor list builds = 0
Dangerous builds = 0
velocity           GUEST create 313 38564
uncompute          MOFCOM
thermo_style       custom step temp epair emol etotal c_comT[1] c_comT[2] c_comT[3] c_comG[1] c_comG[2] c_comG[3] c_comM[1] c_comM[2] c_comM[3]
# fix                8 MOF recenter INIT INIT INIT shift all # Efrem says: technically should do this to get the diffusion coefficient correct, but not sure it works properly on rigid molecules, and it doesn't make a difference in practice because the drift is so small

# equilibration
run                100000
PPPMDisp initialization ...
  Coulomb G vector (1/distance) = 0.264777
  Coulomb grid = 30 50 30
  Coulomb stencil order = 5
  Coulomb estimated absolute RMS force accuracy = 0.000346238
  Coulomb estimated relative force accuracy = 1.04269e-06
  using double precision FFTs
  3d grid and FFT values/proc = 78033 45000
Memory usage per processor = 12.3721 Mbytes
Step Temp E_pair E_mol TotEng comT[1] comT[2] comT[3] comG[1] comG[2] comG[3] comM[1] comM[2] comM[3] 
    6000    2.3966309     59214075            0     59214084    12.683309    22.410306     14.18782    19.733329    33.260963    9.4988188    12.612127     22.30075    14.235163 
    6200    667.73332     59213997            0     59216596    12.683353    22.410387    14.188403    19.737796    33.269062    9.5571699    12.612127     22.30075    14.235163 
    6400    861.02858     59213350            0     59216702     12.68336    22.410564    14.187739    19.738409    33.286743    9.4907555    12.612127     22.30075    14.235163 
    6600    628.42296     59213845            0     59216292    12.683261     22.41034    14.188203    19.728497    33.264397    9.5371928    12.612127     22.30075    14.235163 
    6800    588.40844     59211740            0     59214031    12.683206    22.410321    14.188489    19.723064    33.262465     9.565798    12.612127     22.30075    14.235163 
    7000    632.84253     59212588            0     59215051    12.683353    22.410354    14.187927    19.737742    33.265804    9.5095206    12.612127     22.30075    14.235163 
    7200    330.96367     59213093            0     59214381    12.683303    22.410347    14.188271    19.732714    33.265079    9.5439062    12.612127     22.30075    14.235163 
    7400    405.17726     59211637            0     59213214    12.683454     22.41036    14.188114    19.747831    33.266375    9.5282218    12.612127     22.30075    14.235163 
    7600    562.84451     59213041            0     59215232    12.683292    22.410313    14.187912    19.731602    33.261663    9.5080698    12.612127     22.30075    14.235163 
    7800    521.30206     59211717            0     59213746    12.683185    22.410508    14.188064    19.720958    33.281125    9.5231936    12.612127     22.30075    14.235163 
    8000    377.19423     59211425            0     59212893    12.683287    22.410379    14.188373    19.731155    33.268279    9.5541259    12.612127     22.30075    14.235163 
    8200    300.03246     59211467            0     59212635    12.683271    22.410417    14.188134    19.729554     33.27211     9.530249    12.612127     22.30075    14.235163 
    8400    506.53916     59212467            0     59214439    12.683339    22.410321    14.187949    19.736395    33.262423    9.5117067    12.612127     22.30075    14.235163 
    8600    537.58679     59213665            0     59215757    12.683219     22.41029    14.187857    19.724379    33.259331      9.50254    12.612127     22.30075    14.235163 
    8800    404.80014     59213273            0     59214849    12.683264    22.410251    14.188039    19.728837    33.255489      9.52071    12.612127     22.30075    14.235163 
    9000    542.81565     59211935            0     59214048    12.683307    22.410281    14.187782    19.733193    33.258419     9.495009    12.612127     22.30075    14.235163 
    9200    275.87228     59213620            0     59214694    12.683217    22.410397    14.187729     19.72416    33.270101     9.489722    12.612127     22.30075    14.235163 
    9400    525.53922     59211123            0     59213169     12.68324    22.410355    14.188176    19.726412    33.265891     9.534433    12.612127     22.30075    14.235163 
    9600    504.20054     59212936            0     59214899    12.683232    22.410393    14.187934    19.725625    33.269668    9.5102834    12.612127     22.30075    14.235163 
    9800    334.60543     59213310            0     59214612     12.68331    22.410365    14.188058    19.733419     33.26682    9.5226127    12.612127     22.30075    14.235163 
   10000     286.6158     59215005            0     59216121    12.683292    22.410498    14.188259    19.731691    33.280137    9.5427589    12.612127     22.30075    14.235163 
   10200    284.34671     59212381            0     59213488    12.683366    22.410237    14.188458    19.739012    33.254061    9.5627062    12.612127     22.30075    14.235163 
   10400     279.9397     59213353            0     59214443    12.683228     22.41031    14.187515     19.72526    33.261344    9.4682958    12.612127     22.30075    14.235163 
   10600    400.68226     59212047            0     59213607    12.683395    22.410183    14.188489    19.741964     33.24864    9.5657395    12.612127     22.30075    14.235163 
   10800    308.74997     59212453            0     59213655     12.68335    22.410263    14.188343    19.737431    33.256703    9.5511816    12.612127     22.30075    14.235163 
   11000    246.98392     59211137            0     59212099    12.683469    22.410264    14.188144    19.749347    33.256734    9.5312925    12.612127     22.30075    14.235163 
   11200     224.0297     59212147            0     59213019    12.683258     22.41034    14.188188    19.728228     33.26433    9.5356556    12.612127     22.30075    14.235163 
   11400    166.46936     59213520            0     59214168    12.683373    22.410271    14.187895    19.739797    33.257467    9.5063121    12.612127     22.30075    14.235163 
   11600    462.87866     59212046            0     59213848      12.6834    22.410365    14.188156    19.742465    33.266888    9.5324867    12.612127     22.30075    14.235163 
   11800    223.52827     59211366            0     59212236    12.683232     22.41039     14.18812    19.725674     33.26936    9.5288683    12.612127     22.30075    14.235163 
   12000    369.44034     59210703            0     59212141    12.683133    22.410398    14.188146    19.715769    33.270139    9.5314038    12.612127     22.30075    14.235163 
   12200    341.10385     59211914            0     59213242    12.683254    22.410333    14.187917    19.727842    33.263671    9.5085327    12.612127     22.30075    14.235163 
   12400    302.30441     59213853            0     59215030    12.683376    22.410386    14.188218    19.740003    33.268959    9.5386701    12.612127     22.30075    14.235163 
   12600    373.57521     59210757            0     59212211    12.683418    22.410369    14.188172    19.744203    33.267217    9.5340698    12.612127     22.30075    14.235163 
   12800    264.53214     59213002            0     59214032    12.683326    22.410437    14.187978     19.73505    33.274017    9.5146166    12.612127     22.30075    14.235163 
   13000    369.83996     59212908            0     59214348    12.683389    22.410298    14.188201    19.741356    33.260111    9.5369732    12.612127     22.30075    14.235163 
   13200    270.96432     59212729            0     59213784    12.683219    22.410301    14.188573     19.72436    33.260448    9.5741521    12.612127     22.30075    14.235163 
   13400    201.49077     59212307            0     59213092    12.683209     22.41032    14.188252    19.723349    33.262335    9.5420322    12.612127     22.30075    14.235163 
   13600      519.691     59212053            0     59214076    12.683155    22.410512    14.187903     19.71798    33.281608    9.5071418    12.612127     22.30075    14.235163 
   13800    401.36956     59213080            0     59214642    12.683312    22.410386    14.187528    19.733631    33.268945    9.4696314    12.612127     22.30075    14.235163 
   14000    179.44405     59213563            0     59214262    12.683306    22.410434    14.188351    19.733034    33.273801    9.5519892    12.612127     22.30075    14.235163 
   14200    398.89136     59211670            0     59213223    12.683245     22.41034    14.187796    19.726895    33.264318    9.4964542    12.612127     22.30075    14.235163 
   14400    284.46263     59214210            0     59215318    12.683387    22.410266    14.187862    19.741197    33.256988    9.5030166    12.612127     22.30075    14.235163 
   14600    254.44487     59212937            0     59213928    12.683228    22.410431    14.188499    19.725259     33.27348    9.5667526    12.612127     22.30075    14.235163 
   14800    438.73599     59212241            0     59213949    12.683304    22.410357    14.188586    19.732844    33.266096    9.5754513    12.612127     22.30075    14.235163 
   15000    354.79278     59213143            0     59214524    12.683323    22.410318    14.188624    19.734793    33.262126    9.5792583    12.612127     22.30075    14.235163 
   15200    315.30546     59212530            0     59213757    12.683317     22.41035    14.187932    19.734147    33.265351    9.5100747    12.612127     22.30075    14.235163 
   15400     399.2412     59212893            0     59214448    12.683358    22.410311    14.187828     19.73828    33.261445    9.4996293    12.612127     22.30075    14.235163 
   15600      443.198     59212712            0     59214437    12.683349    22.410374    14.188283    19.737385    33.267763    9.5451673    12.612127     22.30075    14.235163 
   15800    629.49769     59211411            0     59213862    12.683266    22.410333    14.188179    19.729041    33.263678     9.534784    12.612127     22.30075    14.235163 
   16000     184.5551     59213222            0     59213940    12.683319    22.410249    14.188073    19.734388    33.255302    9.5241128    12.612127     22.30075    14.235163 
   16200    245.87048     59213510            0     59214467    12.683315    22.410354    14.188019    19.733973    33.265732    9.5187605    12.612127     22.30075    14.235163 
   16400    311.45464     59214637            0     59215850    12.683371    22.410322    14.187557    19.739504    33.262583    9.4725399    12.612127     22.30075    14.235163 
   16600     545.0125     59211691            0     59213813    12.683333    22.410301    14.187835    19.735721    33.260478    9.5003028    12.612127     22.30075    14.235163 
   16800    345.93721     59212156            0     59213502     12.68325      22.4105    14.187818    19.727454    33.280354    9.4985875    12.612127     22.30075    14.235163 
   17000    206.32531     59211502            0     59212306    12.683282    22.410326     14.18841    19.730616    33.262913    9.5579009    12.612127     22.30075    14.235163 
   17200    226.30387     59213086            0     59213967    12.683315     22.41027    14.187797    19.733902    33.257389    9.4964981    12.612127     22.30075    14.235163 
   17400     428.6655     59212868            0     59214537    12.683229    22.410288     14.18801    19.725338    33.259194    9.5178082    12.612127     22.30075    14.235163 
   17600    360.58434     59211089            0     59212493    12.683313    22.410417    14.188077    19.733786    33.272093    9.5245244    12.612127     22.30075    14.235163 
   17800     245.2467     59212199            0     59213154    12.683294    22.410391    14.187927    19.731809     33.26943    9.5095727    12.612127     22.30075    14.235163 
   18000    643.15596     59214024            0     59216527    12.683295    22.410305    14.187285    19.731959     33.26082    9.4453331    12.612127     22.30075    14.235163 
   18200    333.70718     59213246            0     59214545     12.68328    22.410468    14.187469    19.730412    33.277179    9.4637419    12.612127     22.30075    14.235163 
   18400    367.47712     59212351            0     59213782    12.683352    22.410371    14.187932     19.73764    33.267477    9.5100225    12.612127     22.30075    14.235163 
   18600    228.91023     59214250            0     59215141    12.683394    22.410381    14.188225    19.741891    33.268445    9.5393708    12.612127     22.30075    14.235163 
   18800    425.52121     59213829            0     59215485    12.683268    22.410268    14.188001    19.729287     33.25717    9.5169489    12.612127     22.30075    14.235163 
   19000    743.18059     59212045            0     59214938    12.683346    22.410308     14.18764     19.73705    33.261125    9.4808061    12.612127     22.30075    14.235163 
   19200     381.0973     59211792            0     59213276    12.683322    22.410421    14.188125    19.734619    33.272448    9.5293453    12.612127     22.30075    14.235163 
   19400    286.15722     59211787            0     59212901    12.683264    22.410394    14.187746    19.728856    33.269751    9.4914354    12.612127     22.30075    14.235163 
   19600    426.24393     59212471            0     59214130    12.683332    22.410349      14.1881    19.735601    33.265216    9.5268287    12.612127     22.30075    14.235163 
   19800    213.29996     59213236            0     59214066    12.683361     22.41046    14.188062    19.738519    33.276345    9.5230616    12.612127     22.30075    14.235163 
   20000    311.97019     59211599            0     59212813    12.683309    22.410307    14.188086    19.733361    33.261067    9.5253948    12.612127     22.30075    14.235163 
   20200    351.35372     59212797            0     59214164    12.683387    22.410248    14.187926    19.741192     33.25512    9.5094266    12.612127     22.30075    14.235163 
   20400    258.15184     59214157            0     59215162    12.683364    22.410332    14.188316    19.738867    33.263516    9.5484228    12.612127     22.30075    14.235163 
   20600    457.86296     59212060            0     59213843    12.683376    22.410358    14.187755    19.740066     33.26615    9.4923098    12.612127     22.30075    14.235163 
   20800     353.7258     59213738            0     59215115    12.683321    22.410382    14.188006    19.734586    33.268547    9.5174281    12.612127     22.30075    14.235163 
   21000    146.78556     59212948            0     59213519     12.68326    22.410336    14.187446     19.72842    33.263987    9.4613928    12.612127     22.30075    14.235163 
   21200    441.13043     59212330            0     59214047    12.683309    22.410341    14.187856    19.733311    33.264463    9.5024109    12.612127     22.30075    14.235163 
   21400    186.32551     59213789            0     59214514    12.683344     22.41034    14.187992    19.736885    33.264326     9.516047    12.612127     22.30075    14.235163 
   21600    294.95188     59211683            0     59212831    12.683294    22.410408     14.18781    19.731837    33.271176    9.4978476    12.612127     22.30075    14.235163 
   21800    319.14491     59215058            0     59216300    12.683297     22.41033    14.187362    19.732164    33.263338    9.4529966    12.612127     22.30075    14.235163 
   22000    283.15062     59214530            0     59215632    12.683372    22.410332    14.188449    19.739687    33.263602     9.561772    12.612127     22.30075    14.235163 
   22200    359.36545     59212255            0     59213654    12.683246    22.410326    14.187714    19.727034    33.262977    9.4882635    12.612127     22.30075    14.235163 
   22400    378.58304     59212300            0     59213774     12.68335    22.410341    14.188403    19.737461    33.264499    9.5571527    12.612127     22.30075    14.235163 
   22600    408.94875     59212136            0     59213728    12.683345    22.410414    14.188564    19.736991    33.271777    9.5732677    12.612127     22.30075    14.235163 
   22800     257.9485     59211114            0     59212118    12.683322    22.410417    14.188199    19.734685    33.272037    9.5367815    12.612127     22.30075    14.235163 
   23000    447.07378     59211948            0     59213689    12.683289    22.410358    14.188064    19.731391    33.266174    9.5232222    12.612127     22.30075    14.235163 
   23200    274.00244     59212494            0     59213561    12.683388    22.410409    14.187668    19.741216    33.271231    9.4836394    12.612127     22.30075    14.235163 
   23400    270.79577     59213236            0     59214290    12.683308    22.410464    14.187251    19.733243    33.276756    9.4419167    12.612127     22.30075    14.235163 
   23600    442.25336     59212374            0     59214096    12.683324    22.410313    14.188223    19.734886    33.261673    9.5391004    12.612127     22.30075    14.235163 
   23800    302.23384     59213499            0     59214676    12.683272    22.410355    14.188086    19.729684     33.26586    9.5254209    12.612127     22.30075    14.235163 
   24000    389.48468     59212197            0     59213713    12.683338    22.410407    14.188004    19.736221    33.271102    9.5172833    12.612127     22.30075    14.235163 
   24200    670.39406     59212280            0     59214890    12.683419    22.410329    14.188167    19.744369    33.263299    9.5335304    12.612127     22.30075    14.235163 
   24400    268.01385     59211175            0     59212219    12.683244     22.41033    14.187925    19.726885    33.263319    9.5093198    12.612127     22.30075    14.235163 
   24600    231.27822     59213809            0     59214709    12.683344    22.410448    14.188198    19.736819    33.275143    9.5366182    12.612127     22.30075    14.235163 
   24800    477.35098     59213588            0     59215446    12.683346    22.410367    14.188885    19.737061    33.267106    9.6053993    12.612127     22.30075    14.235163 
   25000    487.34026     59212741            0     59214638     12.68335    22.410377    14.187597    19.737443    33.268059    9.4764942    12.612127     22.30075    14.235163 
   25200     200.9859     59213713            0     59214495    12.683245    22.410409    14.187362    19.726955    33.271214    9.4530465    12.612127     22.30075    14.235163 
   25400    437.88054     59214022            0     59215726    12.683274    22.410312    14.188147    19.729893     33.26151    9.5315166    12.612127     22.30075    14.235163 
   25600     331.0136     59212416            0     59213704    12.683336    22.410374    14.188158    19.736034    33.267722    9.5326223    12.612127     22.30075    14.235163 
   25800    259.30548     59212097            0     59213106    12.683238    22.410342    14.188167    19.726229    33.264551    9.5335121    12.612127     22.30075    14.235163 
   26000    231.78219     59212995            0     59213897    12.683315    22.410286    14.188414    19.733929    33.258924    9.5582933    12.612127     22.30075    14.235163 
   26200    393.28376     59212511            0     59214042    12.683313    22.410381    14.188125    19.733707    33.268491    9.5293779    12.612127     22.30075    14.235163 
   26400    428.64633     59214472            0     59216140    12.683343    22.410376    14.187794    19.736775    33.268003    9.4962593    12.612127     22.30075    14.235163 
   26600    434.97605     59212102            0     59213795    12.683299    22.410318    14.187672    19.732369    33.262204     9.484022    12.612127     22.30075    14.235163 
   26800    182.79644     59211320            0     59212031    12.683355    22.410296    14.188327    19.737903    33.259928    9.5495067    12.612127     22.30075    14.235163 
   27000    285.82877     59211723            0     59212835    12.683317    22.410382    14.188202    19.734171    33.268577    9.5370284    12.612127     22.30075    14.235163 
   27200    350.97354     59213188            0     59214554    12.683342    22.410305    14.187877    19.736641    33.260812    9.5044843    12.612127     22.30075    14.235163 
   27400    180.77276     59212546            0     59213250    12.683348    22.410231    14.187962    19.737217    33.253467    9.5130343    12.612127     22.30075    14.235163 
   27600    393.64122     59213728            0     59215260    12.683231    22.410337     14.18798    19.725507    33.264091     9.514872    12.612127     22.30075    14.235163 
   27800    264.23018     59214517            0     59215546    12.683291    22.410298    14.187131    19.731523    33.260126    9.4299411    12.612127     22.30075    14.235163 
   28000    615.60215     59212338            0     59214734    12.683354    22.410363    14.187723    19.737852    33.266702    9.4891358    12.612127     22.30075    14.235163 
   28200    236.69809     59212936            0     59213858    12.683398    22.410351    14.188933    19.742217    33.265421    9.6101641    12.612127     22.30075    14.235163 
   28400     282.6211     59211944            0     59213044    12.683216    22.410314    14.188209    19.724039    33.261744    9.5377682    12.612127     22.30075    14.235163 
   28600    184.58039     59214678            0     59215397    12.683311    22.410383    14.187802    19.733538    33.268703    9.4970465    12.612127     22.30075    14.235163 
   28800    163.85561     59210273            0     59210911    12.683376    22.410426    14.188056    19.740021    33.273009    9.5224641    12.612127     22.30075    14.235163 
   29000    469.08314     59212112            0     59213938    12.683374    22.410367    14.188265    19.739806    33.267103    9.5433441    12.612127     22.30075    14.235163 
   29200    520.28954     59211731            0     59213757    12.683312    22.410307    14.188212    19.733629    33.261014    9.5380763    12.612127     22.30075    14.235163 
   29400    382.12799     59213028            0     59214516    12.683418    22.410334    14.187402     19.74425    33.263789    9.4570567    12.612127     22.30075    14.235163 
   29600    327.64769     59214763            0     59216038    12.683292    22.410361    14.187991    19.731643    33.266473    9.5159286    12.612127     22.30075    14.235163 
   29800     513.1844     59212896            0     59214893    12.683307    22.410364    14.188311    19.733156    33.266769    9.5479733    12.612127     22.30075    14.235163 
   30000    475.92943     59213555            0     59215408    12.683302    22.410343    14.187703    19.732652    33.264707    9.4871491    12.612127     22.30075    14.235163 
   30200    300.29414     59213318            0     59214487    12.683296    22.410283    14.187647     19.73203    33.258613     9.481531    12.612127     22.30075    14.235163 
   30400    552.87177     59210878            0     59213030    12.683321    22.410413    14.188454    19.734531    33.271694     9.562211    12.612127     22.30075    14.235163 
   30600    268.04533     59213627            0     59214670    12.683354    22.410355    14.188069    19.737834    33.265821    9.5236989    12.612127     22.30075    14.235163 
   30800    234.27842     59213215            0     59214127    12.683303    22.410295    14.188459    19.732754    33.259849     9.562748    12.612127     22.30075    14.235163 
   31000    200.56678     59213717            0     59214498    12.683315    22.410328    14.188304    19.733971     33.26315    9.5472794    12.612127     22.30075    14.235163 
   31200    388.52642     59212433            0     59213946    12.683302    22.410357    14.188818    19.732669    33.266059    9.5986824    12.612127     22.30075    14.235163 
   31400    240.30073     59211865            0     59212801     12.68332    22.410372    14.187375    19.734432    33.267531    9.4542935    12.612127     22.30075    14.235163 
   31600     317.8459     59213357            0     59214594    12.683354    22.410338    14.187624    19.737859    33.264142    9.4792084    12.612127     22.30075    14.235163 
   31800    335.23906     59212793            0     59214098    12.683349    22.410376    14.187493    19.737383    33.267987    9.4661097    12.612127     22.30075    14.235163 
   32000    537.93532     59212873            0     59214967    12.683353    22.410387    14.187629    19.737774     33.26909    9.4796818    12.612127     22.30075    14.235163 
   32200    257.16574     59212283            0     59213284    12.683282    22.410384    14.188491    19.730609     33.26878    9.5659218    12.612127     22.30075    14.235163 
   32400     183.2636     59212513            0     59213226    12.683337    22.410388    14.187507    19.736153    33.269191    9.4674916    12.612127     22.30075    14.235163 
   32600    183.29514     59212177            0     59212891    12.683284    22.410392    14.187626    19.730837    33.269539    9.4794514    12.612127     22.30075    14.235163 
   32800    404.18076     59212870            0     59214444    12.683365    22.410363    14.187307    19.738977    33.266655    9.4474794    12.612127     22.30075    14.235163 
   33000    283.67468     59213559            0     59214663    12.683317    22.410253    14.188395    19.734122     33.25561    9.5563837    12.612127     22.30075    14.235163 
   33200    523.48796     59212560            0     59214598    12.683394    22.410355     14.18789    19.741829     33.26589    9.5058164    12.612127     22.30075    14.235163 
   33400    204.57014     59211896            0     59212693    12.683348    22.410351    14.188099    19.737289    33.265414    9.5267419    12.612127     22.30075    14.235163 
   33600    316.55164     59214459            0     59215691    12.683341    22.410327    14.188747    19.736595    33.263065     9.591586    12.612127     22.30075    14.235163 
   33800     211.0694     59212422            0     59213244    12.683266    22.410305    14.187949    19.729093    33.260851    9.5117395    12.612127     22.30075    14.235163 
   34000    328.28113     59212208            0     59213486    12.683279    22.410365    14.188144    19.730321    33.266828    9.5312914    12.612127     22.30075    14.235163 
   34200    258.35451     59212154            0     59213160    12.683351    22.410411    14.187839    19.737597    33.271438    9.5007151    12.612127     22.30075    14.235163 
   34400    217.47883     59212168            0     59213014    12.683349    22.410288    14.188216    19.737315      33.2592     9.538491    12.612127     22.30075    14.235163 
   34600    341.65809     59212946            0     59214276    12.683289     22.41037    14.188139    19.731323    33.267393    9.5307301    12.612127     22.30075    14.235163 
   34800    122.34211     59213162            0     59213638    12.683394     22.41038    14.187614    19.741853    33.268363    9.4781948    12.612127     22.30075    14.235163 
   35000    248.86957     59214129            0     59215098     12.68334    22.410365    14.188127    19.736486    33.266869    9.5295413    12.612127     22.30075    14.235163 
   35200    260.98382     59212919            0     59213935    12.683356    22.410379    14.187869    19.738067    33.268277    9.5037406    12.612127     22.30075    14.235163 
   35400    267.20396     59211649            0     59212689    12.683372    22.410386    14.187711    19.739645    33.268911    9.4879732    12.612127     22.30075    14.235163 
   35600    247.87453     59213820            0     59214785    12.683336    22.410383    14.187759    19.736078    33.268623    9.4927335    12.612127     22.30075    14.235163 
   35800     445.8776     59212497            0     59214233    12.683171    22.410314    14.187639    19.719568    33.261797     9.480714    12.612127     22.30075    14.235163 
   36000    450.21913     59212422            0     59214175     12.68328    22.410339    14.187635    19.730484    33.264294    9.4803624    12.612127     22.30075    14.235163 
   36200    423.63725     59213626            0     59215275    12.683188    22.410299    14.187774    19.721266    33.260213    9.4942435    12.612127     22.30075    14.235163 
   36400    350.71659     59213039            0     59214404    12.683327     22.41037    14.187261    19.735137    33.267316    9.4428713    12.612127     22.30075    14.235163 
   36600    296.99006     59213082            0     59214239    12.683235     22.41037    14.187765    19.725894    33.267365    9.4933171    12.612127     22.30075    14.235163 
   36800    225.45885     59214094            0     59214971    12.683421    22.410399    14.187853    19.744552    33.270229    9.5020846    12.612127     22.30075    14.235163 
   37000    552.78855     59212525            0     59214677    12.683279    22.410352    14.188569    19.730391      33.2656    9.5738103    12.612127     22.30075    14.235163 
   37200    264.81981     59211830            0     59212860    12.683324     22.41035    14.188444    19.734851    33.265317    9.5612107    12.612127     22.30075    14.235163 
   37400    390.96265     59213248            0     59214770    12.683321    22.410324    14.187664    19.734514    33.262756    9.4832014    12.612127     22.30075    14.235163 
   37600    244.01806     59214835            0     59215785    12.683329    22.410318    14.187337    19.735343    33.262194    9.4504625    12.612127     22.30075    14.235163 
   37800    265.92758     59212517            0     59213553    12.683304     22.41038    14.187995    19.732803    33.268357    9.5163826    12.612127     22.30075    14.235163 
   38000    247.80533     59213257            0     59214222    12.683263    22.410384    14.187789    19.728795    33.268719    9.4957394    12.612127     22.30075    14.235163 
   38200    478.61254     59213881            0     59215745    12.683285    22.410318    14.187618    19.730968    33.262182    9.4786292    12.612127     22.30075    14.235163 
   38400    392.95335     59213131            0     59214661    12.683292    22.410369    14.188204    19.731651    33.267222    9.5372647    12.612127     22.30075    14.235163 
   38600    248.95404     59212201            0     59213171    12.683275    22.410331    14.187606    19.729985    33.263431    9.4774102    12.612127     22.30075    14.235163 
   38800    283.46566     59213427            0     59214531     12.68333    22.410319     14.18766    19.735447     33.26224    9.4827954    12.612127     22.30075    14.235163 
   39000    354.42307     59211903            0     59213283    12.683241    22.410315    14.188774     19.72658    33.261819    9.5942993    12.612127     22.30075    14.235163 
   39200    291.68333     59213788            0     59214923    12.683319    22.410311    14.186891    19.734397    33.261411    9.4059195    12.612127     22.30075    14.235163 
   39400    341.50266     59210778            0     59212108     12.68329    22.410316    14.188316    19.731414    33.261957    9.5484381    12.612127     22.30075    14.235163 
   39600    193.24971     59215349            0     59216101    12.683309    22.410348    14.188206    19.733378    33.265177    9.5374009    12.612127     22.30075    14.235163 
   39800    298.32221     59212761            0     59213922    12.683316    22.410362     14.18737    19.734048    33.266529    9.4537637    12.612127     22.30075    14.235163 
   40000    245.72191     59211369            0     59212326     12.68328    22.410336    14.188342    19.730463    33.263991    9.5510655    12.612127     22.30075    14.235163 
   40200    476.55603     59213053            0     59214908    12.683348    22.410326    14.188208    19.737299    33.263006    9.5375985    12.612127     22.30075    14.235163 
   40400     396.1664     59212442            0     59213985    12.683297    22.410322    14.188473    19.732164    33.262583    9.5641935    12.612127     22.30075    14.235163 
   40600    187.98364     59212600            0     59213332    12.683245    22.410264    14.188209    19.726914    33.256746    9.5377075    12.612127     22.30075    14.235163 
   40800    416.66709     59213551            0     59215173    12.683338    22.410396    14.187681    19.736235    33.269949    9.4849526    12.612127     22.30075    14.235163 
   41000    401.81277     59213459            0     59215024    12.683369    22.410375    14.189136    19.739345    33.267815    9.6304927    12.612127     22.30075    14.235163 
   41200    332.36875     59211679            0     59212972    12.683362    22.410375    14.188279    19.738601    33.267875    9.5447139    12.612127     22.30075    14.235163 
   41400    247.90259     59212119            0     59213084    12.683318    22.410346    14.188217     19.73422     33.26492    9.5385112    12.612127     22.30075    14.235163 
   41600    304.02509     59211296            0     59212480    12.683283    22.410286    14.188364    19.730761    33.258912     9.553298    12.612127     22.30075    14.235163 
   41800    366.49256     59212423            0     59213850    12.683334     22.41038    14.187823    19.735877    33.268409    9.4991035    12.612127     22.30075    14.235163 
   42000    124.15063     59212261            0     59212744    12.683429    22.410387    14.187663    19.745348    33.269045    9.4831255    12.612127     22.30075    14.235163 
   42200    276.43352     59214179            0     59215255    12.683398    22.410307    14.188156    19.742212    33.261054    9.5324322    12.612127     22.30075    14.235163 
   42400     508.6562     59213137            0     59215117    12.683383    22.410349    14.188403    19.740769    33.265281    9.5571477    12.612127     22.30075    14.235163 
   42600    221.15709     59214656            0     59215517    12.683289    22.410311    14.187851    19.731389    33.261413    9.5019781    12.612127     22.30075    14.235163 
   42800    243.54961     59213640            0     59214588    12.683245    22.410357    14.187156    19.726958     33.26608    9.4323735    12.612127     22.30075    14.235163 
   43000    347.82415     59214813            0     59216167    12.683325    22.410361    14.188857    19.734935    33.266409    9.6026191    12.612127     22.30075    14.235163 
   43200    254.24139     59213771            0     59214761     12.68333    22.410405    14.188484    19.735439    33.270888    9.5652831    12.612127     22.30075    14.235163 
   43400    280.71842     59210908            0     59212001    12.683359    22.410354    14.187767    19.738371    33.265767    9.4935658    12.612127     22.30075    14.235163 
   43600    228.70506     59212656            0     59213546    12.683314    22.410369     14.18817    19.733849    33.267295     9.533832    12.612127     22.30075    14.235163 
   43800    266.89704     59213163            0     59214202     12.68334    22.410424     14.18748    19.736425    33.272726    9.4648265    12.612127     22.30075    14.235163 
   44000    174.22699     59213742            0     59214420    12.683337    22.410298    14.188039    19.736116    33.260202    9.5207809    12.612127     22.30075    14.235163 
   44200    206.57696     59213788            0     59214593     12.68326    22.410359     14.18837    19.728398    33.266292    9.5538295    12.612127     22.30075    14.235163 
   44400    303.02296     59214070            0     59215250    12.683299    22.410368    14.188142    19.732324    33.267178     9.531093    12.612127     22.30075    14.235163 
   44600    261.73435     59214589            0     59215607    12.683253    22.410349    14.187437    19.727793    33.265233    9.4605019    12.612127     22.30075    14.235163 
   44800    386.12983     59211894            0     59213397    12.683303    22.410355    14.187824    19.732726    33.265821    9.4992311    12.612127     22.30075    14.235163 
   45000    306.37682     59213380            0     59214573    12.683285     22.41036    14.187901     19.73093    33.266408    9.5068955    12.612127     22.30075    14.235163 
   45200    226.32422     59210979            0     59211860    12.683305    22.410362    14.187787    19.732957    33.266606    9.4955424    12.612127     22.30075    14.235163 
   45400    270.63983     59211915            0     59212968    12.683372    22.410318     14.18823    19.739609    33.262156    9.5398298    12.612127     22.30075    14.235163 
   45600    298.85842     59213062            0     59214225    12.683403    22.410367    14.188657    19.742798    33.267015    9.5825412    12.612127     22.30075    14.235163 
   45800    406.00919     59213231            0     59214811    12.683332    22.410328    14.188021    19.735693    33.263205    9.5189734    12.612127     22.30075    14.235163 
   46000    233.27023     59213181            0     59214089    12.683355    22.410362    14.187526    19.737974    33.266511    9.4693853    12.612127     22.30075    14.235163 
   46200     213.5523     59213933            0     59214764    12.683322    22.410388    14.187982    19.734682     33.26913    9.5150045    12.612127     22.30075    14.235163 
   46400     124.3024     59213965            0     59214449    12.683323    22.410393    14.187125    19.734731    33.269654     9.429302    12.612127     22.30075    14.235163 
   46600     315.6769     59212468            0     59213697    12.683391    22.410321    14.188006    19.741599    33.262484    9.5174729    12.612127     22.30075    14.235163 
   46800    302.91927     59212236            0     59213415    12.683453    22.410341    14.188098    19.747716    33.264419    9.5266538    12.612127     22.30075    14.235163 
   47000    294.06838     59212611            0     59213756    12.683297    22.410343    14.188246      19.7321    33.264684    9.5414394    12.612127     22.30075    14.235163 
   47200     307.5936     59213590            0     59214787    12.683289    22.410333    14.187614    19.731374    33.263696    9.4781939    12.612127     22.30075    14.235163 
   47400    291.29683     59212315            0     59213449    12.683326    22.410453    14.188459    19.735082    33.275637    9.5627618    12.612127     22.30075    14.235163 
   47600    400.53228     59212166            0     59213725    12.683332    22.410422     14.18796    19.735683    33.272526    9.5128366    12.612127     22.30075    14.235163 
   47800    353.86344     59212182            0     59213559    12.683309    22.410329    14.188374    19.733302    33.263307    9.5542289    12.612127     22.30075    14.235163 
   48000     369.2483     59212565            0     59214002    12.683338    22.410372    14.187905    19.736241    33.267603    9.5073009    12.612127     22.30075    14.235163 
   48200    179.93828     59213986            0     59214686     12.68342    22.410328    14.188383    19.744466    33.263204    9.5551251    12.612127     22.30075    14.235163 
   48400    259.79617     59211095            0     59212106    12.683352    22.410405    14.188009    19.737661    33.270827    9.5177347    12.612127     22.30075    14.235163 
   48600    315.62043     59213172            0     59214401    12.683239    22.410304    14.188129    19.726374     33.26072     9.529733    12.612127     22.30075    14.235163 
   48800    285.82234     59211827            0     59212940    12.683271    22.410338    14.188014    19.729561     33.26416    9.5182115    12.612127     22.30075    14.235163 
   49000    227.27044     59214171            0     59215056    12.683307    22.410399    14.188267    19.733179    33.270242      9.54351    12.612127     22.30075    14.235163 
   49200    413.83171     59212333            0     59213944    12.683423    22.410331    14.188334    19.744735     33.26343     9.550268    12.612127     22.30075    14.235163 
   49400    309.92934     59214879            0     59216086    12.683348    22.410355    14.187644    19.737278    33.265834     9.481201    12.612127     22.30075    14.235163 
   49600    306.91353     59213678            0     59214873    12.683302    22.410389    14.188083    19.732657    33.269296    9.5251575    12.612127     22.30075    14.235163 
   49800    457.46768     59214656            0     59216437    12.683329    22.410373    14.187558    19.735361    33.267659    9.4725836    12.612127     22.30075    14.235163 
   50000    326.39469     59214441            0     59215712     12.68335     22.41035    14.186897    19.737466    33.265383    9.4064483    12.612127     22.30075    14.235163 
   50200    240.22009     59212033            0     59212968    12.683323    22.410358     14.18745    19.734727    33.266191    9.4617761    12.612127     22.30075    14.235163 
   50400    323.03862     59212122            0     59213380    12.683287    22.410337    14.187722     19.73115    33.264044    9.4889979    12.612127     22.30075    14.235163 
   50600    205.94402     59214297            0     59215098    12.683302    22.410482     14.18854    19.732677    33.278597    9.5708998    12.612127     22.30075    14.235163 
   50800    312.55518     59214330            0     59215547    12.683282      22.4104    14.188294    19.730605    33.270346    9.5462248    12.612127     22.30075    14.235163 
   51000    256.18102     59211937            0     59212934    12.683331    22.410287    14.187504    19.735579    33.259008    9.4672556    12.612127     22.30075    14.235163 
   51200    169.79887     59214229            0     59214890    12.683301    22.410292    14.188031    19.732584    33.259571    9.5199676    12.612127     22.30075    14.235163 
   51400    175.20187     59214581            0     59215263    12.683389    22.410384    14.187377    19.741391    33.268718    9.4545616    12.612127     22.30075    14.235163 
   51600    276.79006     59212538            0     59213616    12.683275    22.410343    14.188251    19.729912    33.264613    9.5419546    12.612127     22.30075    14.235163 
   51800    259.40404     59213733            0     59214743    12.683336    22.410398    14.187785    19.736036    33.270125    9.4953496    12.612127     22.30075    14.235163 
   52000    261.19369     59214065            0     59215082    12.683267    22.410347    14.187196    19.729189    33.265016     9.436387    12.612127     22.30075    14.235163 
   52200    344.01473     59213943            0     59215282    12.683338    22.410437    14.187347    19.736262    33.274025    9.4514788    12.612127     22.30075    14.235163 
   52400    386.73218     59213310            0     59214815    12.683342    22.410296    14.187676    19.736605     33.25996    9.4844282    12.612127     22.30075    14.235163 
   52600    544.90614     59211910            0     59214032    12.683307    22.410384    14.187636    19.733127    33.268801    9.4804438    12.612127     22.30075    14.235163 
   52800    319.51465     59213272            0     59214516    12.683377    22.410316    14.188421    19.740117    33.261936    9.5589739    12.612127     22.30075    14.235163 
   53000    298.06001     59213986            0     59215146    12.683388    22.410313     14.18772    19.741299    33.261629    9.4887788    12.612127     22.30075    14.235163 
   53200    190.14875     59211231            0     59211971    12.683296    22.410377    14.188339    19.732096     33.26807    9.5507573    12.612127     22.30075    14.235163 
   53400    224.41019     59212137            0     59213011    12.683297    22.410317    14.188264    19.732187    33.262045    9.5432752    12.612127     22.30075    14.235163 
   53600    159.77219     59215104            0     59215726    12.683353    22.410294    14.187971    19.737713    33.259731    9.5139753    12.612127     22.30075    14.235163 
   53800    343.29568     59211720            0     59213056    12.683287    22.410373    14.188074    19.731145    33.267703    9.5241926    12.612127     22.30075    14.235163 
   54000    282.40717     59213925            0     59215025    12.683258    22.410318    14.187545    19.728295    33.262148    9.4713251    12.612127     22.30075    14.235163 
   54200    324.40275     59213475            0     59214738    12.683333    22.410386     14.18824    19.735769    33.268951    9.5408803    12.612127     22.30075    14.235163 
   54400     184.1796     59212749            0     59213466    12.683337    22.410306    14.187337    19.736134    33.261003    9.4505472    12.612127     22.30075    14.235163 
   54600    346.63075     59212263            0     59213613    12.683283    22.410341    14.187959    19.730776    33.264468    9.5127743    12.612127     22.30075    14.235163 
   54800    175.42122     59211947            0     59212630    12.683312    22.410348    14.188633    19.733691    33.265191    9.5801722    12.612127     22.30075    14.235163 
   55000    244.42976     59214033            0     59214985    12.683248    22.410352    14.187677    19.727197    33.265571    9.4845706    12.612127     22.30075    14.235163 
   55200    420.79578     59213811            0     59215449     12.68328    22.410403    14.188464    19.730467    33.270695    9.5632154    12.612127     22.30075    14.235163 
   55400    378.44994     59213036            0     59214510    12.683369    22.410354    14.187352    19.739386    33.265734    9.4519952    12.612127     22.30075    14.235163 
   55600    387.90227     59214537            0     59216047    12.683335     22.41036    14.187802    19.735931     33.26634    9.4970143    12.612127     22.30075    14.235163 
   55800     258.1038     59212553            0     59213557    12.683351    22.410295    14.187906    19.737585    33.259879    9.5074229    12.612127     22.30075    14.235163 
   56000    272.41439     59211437            0     59212497    12.683303     22.41043    14.188302    19.732763    33.273338    9.5470675    12.612127     22.30075    14.235163 
   56200    353.28011     59213906            0     59215282    12.683315    22.410357    14.187528    19.733977    33.266048    9.4695782    12.612127     22.30075    14.235163 
   56400    201.95883     59213227            0     59214013    12.683321    22.410364    14.188156    19.734531    33.266765    9.5324479    12.612127     22.30075    14.235163 
   56600    166.24198     59212797            0     59213444    12.683313    22.410361    14.187815    19.733737    33.266477    9.4983113    12.612127     22.30075    14.235163 
   56800    586.34773     59212150            0     59214432    12.683287      22.4103    14.188716    19.731141    33.260362     9.588506    12.612127     22.30075    14.235163 
   57000    383.63414     59212252            0     59213745    12.683369    22.410314    14.188007    19.739395    33.261806    9.5175691    12.612127     22.30075    14.235163 
   57200    292.24902     59212260            0     59213397    12.683305    22.410398    14.187699    19.732966    33.270136    9.4867673    12.612127     22.30075    14.235163 
   57400    522.23497     59211701            0     59213734    12.683274    22.410315    14.187876    19.729888    33.261814    9.5044777    12.612127     22.30075    14.235163 
   57600    325.37002     59212771            0     59214037    12.683268    22.410373    14.187892    19.729207    33.267638    9.5060376    12.612127     22.30075    14.235163 
   57800     168.0647     59212632            0     59213286    12.683315    22.410392    14.187699    19.733973    33.269607     9.486691    12.612127     22.30075    14.235163 
   58000    185.26177     59212688            0     59213410    12.683328    22.410335    14.188198    19.735261    33.263851    9.5366493    12.612127     22.30075    14.235163 
   58200    306.88203     59213437            0     59214631    12.683329    22.410319    14.187603    19.735397    33.262292    9.4771372    12.612127     22.30075    14.235163 
   58400    293.30236     59213694            0     59214836    12.683332    22.410275    14.187429    19.735605    33.257847    9.4596761    12.612127     22.30075    14.235163 
   58600    158.02819     59213433            0     59214048    12.683383    22.410402    14.188039    19.740797    33.270529     9.520778    12.612127     22.30075    14.235163 
   58800     175.9077     59214172            0     59214857    12.683305    22.410416    14.187791    19.732955    33.271981    9.4959777    12.612127     22.30075    14.235163 
   59000    302.79767     59212228            0     59213407    12.683283    22.410453    14.187584     19.73075    33.275663    9.4752254    12.612127     22.30075    14.235163 
   59200    242.72226     59214525            0     59215470    12.683336    22.410422    14.188441    19.736016    33.272527    9.5609643    12.612127     22.30075    14.235163 
   59400    218.51802     59212497            0     59213347    12.683342    22.410363    14.187542     19.73669    33.266653    9.4709961    12.612127     22.30075    14.235163 
   59600    507.96074     59212369            0     59214346    12.683311    22.410303    14.188023     19.73358    33.260675    9.5191892    12.612127     22.30075    14.235163 
   59800    228.54321     59213345            0     59214235    12.683323    22.410361    14.187731    19.734751    33.266427    9.4898839    12.612127     22.30075    14.235163 
   60000    278.59021     59213737            0     59214821    12.683294    22.410354    14.187552    19.731885    33.265708    9.4720208    12.612127     22.30075    14.235163 
   60200    274.73406     59213056            0     59214125    12.683289    22.410386    14.187672    19.731324    33.268939    9.4840156    12.612127     22.30075    14.235163 
   60400    283.91762     59214057            0     59215162     12.68332    22.410341    14.188137    19.734461    33.264476    9.5305838    12.612127     22.30075    14.235163 
   60600    318.74118     59212287            0     59213528     12.68334    22.410375    14.187902    19.736477    33.267882    9.5070042    12.612127     22.30075    14.235163 
   60800     216.9292     59213144            0     59213989    12.683328    22.410345    14.187666    19.735237    33.264863    9.4834596    12.612127     22.30075    14.235163 
   61000    251.53072     59213561            0     59214540    12.683304     22.41029    14.188105    19.732893    33.259336    9.5272991    12.612127     22.30075    14.235163 
   61200    204.94575     59213962            0     59214760    12.683409    22.410271    14.188206    19.743327    33.257481    9.5374076    12.612127     22.30075    14.235163 
   61400    210.20761     59213534            0     59214352    12.683286     22.41034    14.187767     19.73105    33.264317    9.4934974    12.612127     22.30075    14.235163 
   61600    247.93866     59213016            0     59213981    12.683318    22.410401    14.188069    19.734212    33.270433    9.5237106    12.612127     22.30075    14.235163 
   61800    208.21269     59213905            0     59214715     12.68333    22.410336    14.188545    19.735432    33.263999    9.5713242    12.612127     22.30075    14.235163 
   62000     390.0356     59213862            0     59215380    12.683296    22.410361    14.188377    19.732041    33.266417     9.554572    12.612127     22.30075    14.235163 
   62200    292.40811     59215146            0     59216284    12.683394     22.41037    14.187661    19.741821    33.267398    9.4829249    12.612127     22.30075    14.235163 
   62400    264.80181     59212964            0     59213995    12.683351    22.410371     14.18725    19.737577    33.267422    9.4417932    12.612127     22.30075    14.235163 
   62600     240.6103     59211374            0     59212310    12.683304    22.410341    14.187782    19.732844    33.264463    9.4950732    12.612127     22.30075    14.235163 
   62800    154.31826     59212973            0     59213574    12.683206    22.410326    14.187368    19.723077    33.262988    9.4535756    12.612127     22.30075    14.235163 
   63000    181.80635     59212920            0     59213628    12.683323    22.410375    14.187318    19.734793    33.267868    9.4485718    12.612127     22.30075    14.235163 
   63200     216.2692     59213174            0     59214016     12.68331    22.410382    14.187165    19.733478    33.268539    9.4332683    12.612127     22.30075    14.235163 
   63400    128.52348     59212101            0     59212602    12.683362    22.410324    14.187992    19.738603    33.262729     9.516046    12.612127     22.30075    14.235163 
   63600    458.29617     59212710            0     59214494      12.6833    22.410356    14.188146    19.732432    33.265915    9.5314596    12.612127     22.30075    14.235163 
   63800    430.97511     59211263            0     59212940    12.683288    22.410449    14.188306    19.731253    33.275312    9.5474091    12.612127     22.30075    14.235163 
   64000    328.06294     59212767            0     59214044    12.683327    22.410384    14.187739    19.735122    33.268761    9.4907413    12.612127     22.30075    14.235163 
   64200    162.73512     59212422            0     59213056     12.68331    22.410343    14.187717    19.733489     33.26469    9.4885632    12.612127     22.30075    14.235163 
   64400    404.05191     59213837            0     59215410    12.683353    22.410394    14.187619    19.737767    33.269747     9.478723    12.612127     22.30075    14.235163 
   64600    239.34962     59212953            0     59213885    12.683278    22.410352    14.188087    19.730212    33.265557    9.5255099    12.612127     22.30075    14.235163 
   64800    351.25194     59212558            0     59213925    12.683294    22.410426    14.188337    19.731821    33.272927    9.5505574    12.612127     22.30075    14.235163 
   65000    312.66712     59212108            0     59213325    12.683352    22.410378    14.188095    19.737642    33.268172    9.5263201    12.612127     22.30075    14.235163 
   65200    193.48708     59213038            0     59213791    12.683328    22.410281    14.187864    19.735216    33.258488    9.5032282    12.612127     22.30075    14.235163 
   65400    220.80932     59214415            0     59215275    12.683332    22.410352    14.188005     19.73564    33.265529    9.5173818    12.612127     22.30075    14.235163 
   65600    253.77103     59212243            0     59213231    12.683326    22.410302    14.188062    19.735095    33.260576    9.5230813    12.612127     22.30075    14.235163 
   65800    201.18792     59211762            0     59212545    12.683375    22.410395    14.187802     19.73993    33.269908     9.497051    12.612127     22.30075    14.235163 
   66000    123.63884     59213392            0     59213874    12.683346    22.410411     14.18783    19.737026    33.271446     9.499782    12.612127     22.30075    14.235163 
   66200    441.16089     59212383            0     59214100    12.683289     22.41034     14.18825    19.731385    33.264312    9.5418582    12.612127     22.30075    14.235163 
   66400    166.58426     59213560            0     59214209    12.683334     22.41035    14.188209    19.735862    33.265353    9.5377818    12.612127     22.30075    14.235163 
   66600    262.12645     59210839            0     59211860     12.68332    22.410377    14.187798    19.734422    33.268057    9.4966711    12.612127     22.30075    14.235163 
   66800    377.92524     59212626            0     59214097    12.683259    22.410355    14.188785    19.728322    33.265903    9.5953225    12.612127     22.30075    14.235163 
   67000    401.30091     59210512            0     59212074    12.683372    22.410364    14.188145    19.739664    33.266741    9.5313627    12.612127     22.30075    14.235163 
   67200     148.6314     59212760            0     59213339    12.683303    22.410365    14.187846    19.732764    33.266878    9.5014462    12.612127     22.30075    14.235163 
   67400    293.76348     59214735            0     59215879    12.683325    22.410291    14.187955    19.734912    33.259464    9.5123041    12.612127     22.30075    14.235163 
   67600    452.69694     59212953            0     59214715    12.683272    22.410344    14.187215    19.729651    33.264792    9.4383439    12.612127     22.30075    14.235163 
   67800    450.35562     59211989            0     59213742    12.683329    22.410328     14.18779    19.735333    33.263116    9.4958354    12.612127     22.30075    14.235163 
   68000    219.66159     59211811            0     59212666    12.683333    22.410292    14.187512    19.735773    33.259557    9.4680449    12.612127     22.30075    14.235163 
   68200     291.9269     59212280            0     59213416    12.683258    22.410355    14.188554    19.728255    33.265852    9.5722442    12.612127     22.30075    14.235163 
   68400    256.41093     59211392            0     59212390    12.683305    22.410342    14.188013    19.732994    33.264585    9.5181259    12.612127     22.30075    14.235163 
   68600    337.83666     59214014            0     59215329    12.683313     22.41035    14.187253    19.733711    33.265392    9.4421061    12.612127     22.30075    14.235163 
   68800    325.21146     59213913            0     59215179    12.683371    22.410338    14.187375    19.739561    33.264152    9.4543481    12.612127     22.30075    14.235163 
   69000    235.59707     59212067            0     59212985    12.683369    22.410318    14.188248    19.739316     33.26216    9.5416936    12.612127     22.30075    14.235163 
   69200    147.20186     59213096            0     59213669    12.683322    22.410384    14.188379    19.734615     33.26872    9.5547739    12.612127     22.30075    14.235163 
   69400    280.49704     59213770            0     59214862    12.683276    22.410395    14.187646    19.730041    33.269851    9.4813997    12.612127     22.30075    14.235163 
   69600     236.8178     59212328            0     59213250    12.683238    22.410329    14.188104    19.726206    33.263273     9.527248    12.612127     22.30075    14.235163 
   69800    274.60728     59213785            0     59214854    12.683314    22.410363    14.188251    19.733806    33.266632    9.5419009    12.612127     22.30075    14.235163 
   70000    88.169728     59213999            0     59214342     12.68333    22.410405    14.187777    19.735421    33.270841    9.4945158    12.612127     22.30075    14.235163 
   70200    244.23436     59213340            0     59214291    12.683333    22.410356    14.188569    19.735788    33.266001    9.5737938    12.612127     22.30075    14.235163 
   70400     219.1177     59212282            0     59213135    12.683285    22.410386    14.187467    19.730965    33.268928    9.4634694    12.612127     22.30075    14.235163 
   70600    513.99329     59212434            0     59214435    12.683325    22.410347    14.187711    19.734909    33.265015     9.487951    12.612127     22.30075    14.235163 
   70800    326.47601     59214394            0     59215665    12.683356    22.410323    14.187406    19.738007    33.262644    9.4574212    12.612127     22.30075    14.235163 
   71000    261.22938     59212139            0     59213156    12.683314    22.410339    14.187599    19.733874    33.264225    9.4767018    12.612127     22.30075    14.235163 
   71200    271.90311     59212694            0     59213753    12.683309    22.410367    14.187711    19.733356    33.267096    9.4879109    12.612127     22.30075    14.235163 
   71400     313.3535     59211677            0     59212897    12.683332    22.410328    14.188253    19.735651    33.263195    9.5421845    12.612127     22.30075    14.235163 
   71600    317.10406     59213541            0     59214775    12.683334    22.410341    14.188737    19.735823    33.264412    9.5905257    12.612127     22.30075    14.235163 
   71800    250.53673     59214251            0     59215226     12.68325     22.41038     14.18811    19.727437    33.268313    9.5278163    12.612127     22.30075    14.235163 
   72000    494.83678     59212608            0     59214534    12.683318    22.410288    14.188155    19.734259    33.259174    9.5323344    12.612127     22.30075    14.235163 
   72200    309.39772     59214113            0     59215317    12.683373    22.410326    14.187656     19.73978    33.262977    9.4823918    12.612127     22.30075    14.235163 
   72400    256.62038     59212704            0     59213703    12.683357    22.410371    14.187466    19.738129     33.26745    9.4633743    12.612127     22.30075    14.235163 
   72600    125.41446     59215102            0     59215590    12.683357    22.410399    14.187692    19.738188    33.270232    9.4860325    12.612127     22.30075    14.235163 
   72800    225.33589     59214445            0     59215322    12.683365    22.410322    14.187762    19.738912    33.262543    9.4930774    12.612127     22.30075    14.235163 
   73000    317.19216     59213193            0     59214428    12.683331    22.410314    14.187643    19.735577    33.261726    9.4810917    12.612127     22.30075    14.235163 
   73200    228.28152     59214136            0     59215024    12.683279    22.410382    14.187614    19.730362    33.268546    9.4782583    12.612127     22.30075    14.235163 
   73400     261.6266     59213361            0     59214379    12.683297    22.410283    14.188579    19.732147    33.258654    9.5748112    12.612127     22.30075    14.235163 
   73600    239.28743     59215353            0     59216284    12.683275     22.41034    14.188569    19.729978    33.264338     9.573731    12.612127     22.30075    14.235163 
   73800    202.72015     59212818            0     59213607    12.683327    22.410357    14.188353    19.735187    33.266022    9.5521097    12.612127     22.30075    14.235163 
   74000    179.68327     59213573            0     59214272    12.683328    22.410354    14.187716    19.735236    33.265735    9.4884535    12.612127     22.30075    14.235163 
   74200    206.31195     59215255            0     59216058    12.683331    22.410368    14.187989    19.735584    33.267207    9.5156993    12.612127     22.30075    14.235163 
   74400    204.86659     59214627            0     59215425    12.683312    22.410348     14.18815    19.733695    33.265193    9.5318578    12.612127     22.30075    14.235163 
   74600    200.13196     59213711            0     59214490    12.683346    22.410291    14.187916    19.737031    33.259458    9.5084372    12.612127     22.30075    14.235163 
   74800    79.483632     59214411            0     59214720    12.683337    22.410335     14.18719    19.736117     33.26389    9.4358015    12.612127     22.30075    14.235163 
   75000    278.45165     59210770            0     59211854    12.683273    22.410401    14.188061    19.729708    33.270449    9.5229733    12.612127     22.30075    14.235163 
   75200    168.37032     59212129            0     59212784    12.683321    22.410337    14.188103    19.734547    33.264073    9.5271586    12.612127     22.30075    14.235163 
   75400    215.02138     59211991            0     59212828    12.683315    22.410331    14.188522    19.733914    33.263414    9.5690146    12.612127     22.30075    14.235163 
   75600    235.36226     59214777            0     59215693    12.683301    22.410363    14.188398    19.732522    33.266708    9.5566727    12.612127     22.30075    14.235163 
   75800    352.23816     59210666            0     59212038    12.683288    22.410405    14.188031    19.731278    33.270815    9.5199573    12.612127     22.30075    14.235163 
   76000    222.31307     59212208            0     59213073    12.683314    22.410376    14.188401    19.733799    33.267975    9.5569544    12.612127     22.30075    14.235163 
   76200    398.15362     59214016            0     59215566    12.683314    22.410351    14.188681    19.733842     33.26549     9.584957    12.612127     22.30075    14.235163 
   76400    331.45354     59211987            0     59213277    12.683333    22.410417    14.188066    19.735784    33.272061    9.5234347    12.612127     22.30075    14.235163 
   76600     187.5683     59213002            0     59213732    12.683336    22.410351    14.187902    19.736066    33.265433    9.5070015    12.612127     22.30075    14.235163 
   76800    365.30376     59213106            0     59214528     12.68327     22.41029    14.187836    19.729428    33.259327    9.5004502    12.612127     22.30075    14.235163 
   77000    276.66402     59214447            0     59215524    12.683342    22.410364    14.188013    19.736604    33.266738    9.5181643    12.612127     22.30075    14.235163 
   77200    289.80992     59211358            0     59212486    12.683306    22.410301    14.188141    19.733056    33.260496    9.5309278    12.612127     22.30075    14.235163 
   77400    204.34898     59213820            0     59214616    12.683316    22.410353    14.187601    19.734009    33.265689    9.4769413    12.612127     22.30075    14.235163 
   77600    279.52295     59212848            0     59213936    12.683369    22.410376    14.187473    19.739313    33.267957    9.4641015    12.612127     22.30075    14.235163 
   77800    220.48616     59215174            0     59216033    12.683323    22.410305    14.188539    19.734761    33.260898    9.5708047    12.612127     22.30075    14.235163 
   78000    186.25382     59214643            0     59215368    12.683363    22.410415    14.188149    19.738784    33.271843     9.531743    12.612127     22.30075    14.235163 
   78200    213.88337     59211541            0     59212373    12.683292    22.410374    14.187957    19.731663     33.26774    9.5125465    12.612127     22.30075    14.235163 
   78400    172.37389     59212033            0     59212704    12.683348    22.410384    14.188095    19.737237    33.268767    9.5262956    12.612127     22.30075    14.235163 
   78600    293.90911     59213917            0     59215061    12.683299     22.41033     14.18851    19.732332    33.263341     9.567852    12.612127     22.30075    14.235163 
   78800    562.84997     59211413            0     59213604    12.683336    22.410355    14.188326       19.736    33.265881    9.5494346    12.612127     22.30075    14.235163 
   79000    360.68252     59211957            0     59213361    12.683344    22.410353    14.188369     19.73689    33.265663    9.5537354    12.612127     22.30075    14.235163 
   79200    221.85928     59213387            0     59214251    12.683348    22.410336    14.188388     19.73728    33.263985    9.5556785    12.612127     22.30075    14.235163 
   79400    252.34606     59212856            0     59213839    12.683312    22.410288    14.187262    19.733625    33.259143    9.4430148    12.612127     22.30075    14.235163 
   79600      435.796     59213012            0     59214709    12.683334    22.410345    14.187863    19.735823    33.264903    9.5031623    12.612127     22.30075    14.235163 
   79800     287.6838     59212340            0     59213460    12.683339    22.410327    14.188146    19.736326    33.263083    9.5314167    12.612127     22.30075    14.235163 
   80000    201.17468     59211786            0     59212569    12.683309    22.410383    14.188205    19.733309    33.268694    9.5373201    12.612127     22.30075    14.235163 
   80200    159.50642     59211504            0     59212125    12.683297    22.410362    14.187851    19.732182    33.266598    9.5019399    12.612127     22.30075    14.235163 
   80400    152.81284     59212239            0     59212834    12.683243    22.410369    14.188439    19.726753    33.267279    9.5608024    12.612127     22.30075    14.235163 
   80600    171.02274     59213071            0     59213737    12.683301    22.410289    14.187488     19.73251    33.259245    9.4656536    12.612127     22.30075    14.235163 
   80800     118.8736     59212509            0     59212972    12.683328    22.410328    14.187897    19.735297    33.263139    9.5065181    12.612127     22.30075    14.235163 
   81000    128.89675     59212197            0     59212698    12.683284    22.410373    14.187951    19.730828     33.26764    9.5119034    12.612127     22.30075    14.235163 
   81200    265.31678     59212432            0     59213465    12.683253    22.410271    14.187877    19.727787    33.257481    9.5045359    12.612127     22.30075    14.235163 
   81400    172.66937     59213073            0     59213746    12.683376    22.410305    14.187638    19.740007    33.260832    9.4806035    12.612127     22.30075    14.235163 
   81600    326.56178     59212193            0     59213464     12.68332     22.41036    14.187582    19.734471    33.266376     9.475025    12.612127     22.30075    14.235163 
   81800    225.67524     59213540            0     59214419    12.683308    22.410333    14.187617    19.733219    33.263642    9.4784916    12.612127     22.30075    14.235163 
   82000    326.49097     59213205            0     59214476    12.683315     22.41035    14.187853    19.733907    33.265325    9.5021672    12.612127     22.30075    14.235163 
   82200    380.10444     59211948            0     59213428    12.683286    22.410405    14.187436    19.731082    33.270849     9.460462    12.612127     22.30075    14.235163 
   82400    280.32219     59212961            0     59214053    12.683291    22.410322    14.187863    19.731577    33.262568    9.5031579    12.612127     22.30075    14.235163 
   82600    292.37838     59210448            0     59211586    12.683298    22.410391    14.188336    19.732277    33.269418     9.550501    12.612127     22.30075    14.235163 
   82800     253.4604     59212144            0     59213131    12.683326     22.41035    14.187744    19.735077    33.265325    9.4912232    12.612127     22.30075    14.235163 
   83000     298.5122     59213523            0     59214685    12.683255    22.410326    14.187876    19.727919     33.26295       9.5044    12.612127     22.30075    14.235163 
   83200    144.86315     59216113            0     59216677    12.683401    22.410355    14.187637    19.742529    33.265864    9.4804992    12.612127     22.30075    14.235163 
   83400    131.02724     59213379            0     59213889    12.683295    22.410477    14.188365    19.731979     33.27807    9.5533287    12.612127     22.30075    14.235163 
   83600     107.4092     59213319            0     59213737    12.683216    22.410358    14.187741    19.724025    33.266186    9.4909237    12.612127     22.30075    14.235163 
   83800    382.79499     59213218            0     59214708    12.683268     22.41043    14.187477    19.729287    33.273344    9.4645366    12.612127     22.30075    14.235163 
   84000    251.02118     59213622            0     59214599    12.683341    22.410394    14.188284    19.736578    33.269808    9.5452468    12.612127     22.30075    14.235163 
   84200    147.53827     59213252            0     59213826    12.683258    22.410373    14.188345    19.728248    33.267636    9.5513196    12.612127     22.30075    14.235163 
   84400    385.79962     59214605            0     59216107    12.683258    22.410363    14.188266    19.728222    33.266689    9.5434828    12.612127     22.30075    14.235163 
   84600    421.48349     59211868            0     59213509    12.683339    22.410358    14.187666    19.736316    33.266171    9.4834568    12.612127     22.30075    14.235163 
   84800    105.87547     59212462            0     59212874    12.683279    22.410374    14.187386    19.730364    33.267773    9.4554445    12.612127     22.30075    14.235163 
   85000    236.13559     59213108            0     59214028    12.683307    22.410344    14.189194    19.733118    33.264732    9.6362727    12.612127     22.30075    14.235163 
   85200    441.08317     59213015            0     59214732    12.683355    22.410323    14.187718     19.73791    33.262647     9.488648    12.612127     22.30075    14.235163 
   85400    197.38045     59213264            0     59214032    12.683312    22.410422    14.188447    19.733691    33.272606    9.5615425    12.612127     22.30075    14.235163 
   85600    401.80886     59213504            0     59215068    12.683312    22.410306    14.187833    19.733684    33.260976    9.5001555    12.612127     22.30075    14.235163 
   85800    299.13391     59212180            0     59213344    12.683238    22.410353    14.188109     19.72625    33.265673    9.5277229    12.612127     22.30075    14.235163 
   86000    118.35423     59214731            0     59215192    12.683332    22.410365    14.187616     19.73563    33.266891    9.4784319    12.612127     22.30075    14.235163 
   86200     168.0729     59213679            0     59214333    12.683301    22.410367    14.188253    19.732596    33.267078    9.5421344    12.612127     22.30075    14.235163 
   86400    163.22983     59212557            0     59213193    12.683337    22.410346    14.187527    19.736194    33.264952    9.4695311    12.612127     22.30075    14.235163 
   86600    353.97536     59211609            0     59212987    12.683303    22.410345    14.188006    19.732737    33.264829    9.5174119    12.612127     22.30075    14.235163 
   86800    122.47484     59213170            0     59213647    12.683277    22.410343    14.188019     19.73011    33.264627    9.5187563    12.612127     22.30075    14.235163 
   87000    94.593116     59213735            0     59214104    12.683264    22.410327    14.187517    19.728866    33.263047    9.4684966    12.612127     22.30075    14.235163 
   87200    162.48887     59214089            0     59214721    12.683368    22.410359     14.18783    19.739273    33.266279    9.4998695    12.612127     22.30075    14.235163 
   87400    197.92688     59211877            0     59212647    12.683374     22.41034    14.188066    19.739834    33.264385    9.5234113    12.612127     22.30075    14.235163 
   87600    287.46636     59211493            0     59212612    12.683305    22.410317    14.188272    19.732905    33.262046    9.5440227    12.612127     22.30075    14.235163 
   87800    324.07906     59212047            0     59213309    12.683353    22.410345     14.18769    19.737745    33.264827    9.4858213    12.612127     22.30075    14.235163 
   88000    241.04533     59212782            0     59213720    12.683336    22.410305    14.187771     19.73609    33.260807    9.4938842    12.612127     22.30075    14.235163 
   88200    433.27145     59212012            0     59213699    12.683298    22.410418    14.187801    19.732283    33.272154     9.496967    12.612127     22.30075    14.235163 
   88400    209.66628     59211963            0     59212780     12.68333     22.41033    14.187771    19.735484     33.26336    9.4939043    12.612127     22.30075    14.235163 
   88600    476.40508     59213238            0     59215093    12.683274    22.410313    14.186897    19.729802    33.261624    9.4064695    12.612127     22.30075    14.235163 
   88800    451.97528     59212210            0     59213970    12.683306    22.410334    14.187507     19.73306    33.263743    9.4675548    12.612127     22.30075    14.235163 
   89000    362.50839     59213375            0     59214786    12.683304    22.410368    14.187337    19.732827    33.267203    9.4504845    12.612127     22.30075    14.235163 
   89200    199.44807     59215084            0     59215861    12.683283    22.410413    14.187441    19.730708    33.271678    9.4609478    12.612127     22.30075    14.235163 
   89400    171.36541     59214145            0     59214812    12.683301    22.410346     14.18821    19.732579    33.265006    9.5378092    12.612127     22.30075    14.235163 
   89600    371.44544     59214073            0     59215519    12.683323    22.410367    14.187597    19.734706     33.26709    9.4765364    12.612127     22.30075    14.235163 
   89800    161.84693     59214161            0     59214791    12.683366      22.4104    14.188058    19.739081    33.270406    9.5226647    12.612127     22.30075    14.235163 
   90000    310.64848     59212759            0     59213969    12.683336    22.410303    14.187513    19.736063    33.260676    9.4680815    12.612127     22.30075    14.235163 
   90200    150.80402     59214431            0     59215018    12.683317    22.410361      14.1878    19.734151    33.266505    9.4968449    12.612127     22.30075    14.235163 
   90400     452.8495     59211498            0     59213261    12.683273    22.410363    14.187704    19.729761    33.266647    9.4872197    12.612127     22.30075    14.235163 
   90600    245.89015     59213933            0     59214890    12.683257    22.410357    14.188194    19.728183     33.26602    9.5362047    12.612127     22.30075    14.235163 
   90800    302.06641     59212962            0     59214138    12.683343    22.410363    14.188196    19.736768    33.266667    9.5364194    12.612127     22.30075    14.235163 
   91000    262.56581     59213695            0     59214717    12.683264    22.410297    14.187639     19.72881    33.260031    9.4806772    12.612127     22.30075    14.235163 
   91200    170.23802     59214093            0     59214756    12.683263    22.410345    14.187581    19.728756    33.264825    9.4748826    12.612127     22.30075    14.235163 
   91400    305.08784     59213312            0     59214500    12.683296    22.410333    14.187712    19.732043    33.263645     9.488045    12.612127     22.30075    14.235163 
   91600    141.93684     59212975            0     59213527    12.683256    22.410344    14.187862    19.728009    33.264772    9.5030556    12.612127     22.30075    14.235163 
   91800    356.03427     59213354            0     59214740    12.683326    22.410336      14.1878    19.735088    33.263985    9.4967973    12.612127     22.30075    14.235163 
   92000    233.40149     59212511            0     59213420    12.683225     22.41032    14.188033     19.72498    33.262349    9.5201844    12.612127     22.30075    14.235163 
   92200    230.32438     59213935            0     59214832    12.683345    22.410385    14.188009    19.736921    33.268829    9.5177328    12.612127     22.30075    14.235163 
   92400    252.30323     59212871            0     59213853    12.683321    22.410398     14.18741    19.734535    33.270167    9.4577658    12.612127     22.30075    14.235163 
   92600    286.61179     59210424            0     59211539    12.683316    22.410353    14.188147    19.734033    33.265694    9.5315901    12.612127     22.30075    14.235163 
   92800    187.78356     59211011            0     59211742    12.683316     22.41034     14.18791    19.734061    33.264332    9.5078818    12.612127     22.30075    14.235163 
   93000    178.02214     59214921            0     59215614    12.683305    22.410357    14.187416    19.732932    33.266014    9.4583996    12.612127     22.30075    14.235163 
   93200     202.7744     59212797            0     59213587    12.683279    22.410332     14.18727    19.730383    33.263519    9.4438514    12.612127     22.30075    14.235163 
   93400    376.37228     59213369            0     59214834    12.683275     22.41037    14.187291    19.729954    33.267382    9.4459256    12.612127     22.30075    14.235163 
   93600    685.40958     59212292            0     59214960    12.683326    22.410359    14.187655    19.735087    33.266308    9.4823003    12.612127     22.30075    14.235163 
   93800    206.15737     59214104            0     59214907    12.683305    22.410348    14.188671    19.732989    33.265187    9.5839988    12.612127     22.30075    14.235163 
   94000    308.48192     59213308            0     59214509    12.683292    22.410373    14.188223    19.731671    33.267679    9.5391459    12.612127     22.30075    14.235163 
   94200    144.08144     59213904            0     59214465      12.6833    22.410335    14.187914    19.732484    33.263874    9.5082112    12.612127     22.30075    14.235163 
   94400     117.8363     59212124            0     59212583    12.683285    22.410371    14.188416    19.730899    33.267432    9.5585007    12.612127     22.30075    14.235163 
   94600    183.83379     59211803            0     59212518    12.683264    22.410324    14.187461    19.728844    33.262761    9.4628909    12.612127     22.30075    14.235163 
   94800    451.32711     59211524            0     59213281    12.683314    22.410334    14.188173    19.733877    33.263767    9.5341572    12.612127     22.30075    14.235163 
   95000    175.20873     59213968            0     59214650    12.683312    22.410371    14.187651    19.733687    33.267464     9.481961    12.612127     22.30075    14.235163 
   95200    225.41576     59210564            0     59211441    12.683343    22.410338    14.188037    19.736732    33.264157     9.520551    12.612127     22.30075    14.235163 
   95400    187.96926     59213890            0     59214622    12.683326    22.410359    14.187897    19.735007    33.266259    9.5065824    12.612127     22.30075    14.235163 
   95600    242.63061     59213555            0     59214500    12.683346    22.410324    14.188035    19.737029    33.262743    9.5202992    12.612127     22.30075    14.235163 
   95800    423.05249     59212421            0     59214067    12.683342    22.410351    14.188157    19.736618    33.265498    9.5325667    12.612127     22.30075    14.235163 
   96000    173.51345     59213466            0     59214141    12.683336    22.410362    14.188134    19.736067    33.266516    9.5302837    12.612127     22.30075    14.235163 
   96200    287.68921     59210758            0     59211878    12.683337    22.410384     14.18806    19.736168    33.268782    9.5228678    12.612127     22.30075    14.235163 
   96400    295.41294     59213903            0     59215053    12.683262    22.410343    14.188112     19.72867    33.264645    9.5280126    12.612127     22.30075    14.235163 
   96600     217.9157     59213479            0     59214328    12.683334    22.410388    14.187554    19.735891    33.269194    9.4722236    12.612127     22.30075    14.235163 
   96800    195.85189     59213584            0     59214346    12.683332    22.410354     14.18796    19.735618     33.26574    9.5128128    12.612127     22.30075    14.235163 
   97000    174.81022     59213329            0     59214009    12.683333    22.410355    14.187815    19.735791    33.265839    9.4983229    12.612127     22.30075    14.235163 
   97200    218.89234     59215358            0     59216211    12.683266     22.41032    14.186816    19.729037    33.262314    9.3984318    12.612127     22.30075    14.235163 
   97400    250.06641     59211515            0     59212488    12.683279    22.410318    14.188111    19.730344    33.262185    9.5279583    12.612127     22.30075    14.235163 
   97600    176.04391     59212178            0     59212864    12.683348    22.410389    14.187526    19.737212    33.269292    9.4694386    12.612127     22.30075    14.235163 
   97800    294.00168     59213264            0     59214409     12.68336    22.410371    14.187838    19.738473    33.267447    9.5006225    12.612127     22.30075    14.235163 
   98000    336.85415     59213022            0     59214334    12.683308    22.410357    14.187799    19.733282    33.266068     9.496687    12.612127     22.30075    14.235163 
   98200    254.25533     59213653            0     59214642    12.683358    22.410318    14.187593    19.738209    33.262197    9.4761173    12.612127     22.30075    14.235163 
   98400    263.51832     59213569            0     59214595    12.683329    22.410372    14.188094     19.73539    33.267541    9.5262245    12.612127     22.30075    14.235163 
   98600    270.92809     59212334            0     59213388    12.683326    22.410352    14.188023    19.735065    33.265606    9.5191288    12.612127     22.30075    14.235163 
   98800    214.53022     59213374            0     59214209    12.683255    22.410328    14.188248    19.727952    33.263153    9.5416124    12.612127     22.30075    14.235163 
   99000    344.41355     59212597            0     59213937    12.683284    22.410425    14.187513     19.73085    33.272822     9.468096    12.612127     22.30075    14.235163 
   99200     388.5531     59211820            0     59213332    12.683303    22.410325    14.188085    19.732758    33.262883    9.5253682    12.612127     22.30075    14.235163 
   99400    343.58619     59211198            0     59212535    12.683317    22.410368    14.188105     19.73413    33.267172    9.5273737    12.612127     22.30075    14.235163 
   99600    355.71763     59212387            0     59213771    12.683386    22.410367    14.187644    19.741023    33.267037    9.4812388    12.612127     22.30075    14.235163 
   99800    163.66982     59212767            0     59213404    12.683336    22.410326    14.187882     19.73609    33.262997    9.5049914    12.612127     22.30075    14.235163 
  100000    267.47715     59212248            0     59213289    12.683333    22.410341    14.187909    19.735741    33.264452    9.5076862    12.612127     22.30075    14.235163 
  100200    147.42983     59213091            0     59213665    12.683386    22.410346    14.187426    19.741093    33.264921    9.4594632    12.612127     22.30075    14.235163 
  100400    236.75537     59214177            0     59215098    12.683343     22.41037    14.186866    19.736746    33.267315    9.4034057    12.612127     22.30075    14.235163 
  100600    293.72709     59212762            0     59213906    12.683317    22.410323    14.187416    19.734184    33.262628    9.4584007    12.612127     22.30075    14.235163 
  100800     360.5154     59210896            0     59212299    12.683331    22.410391    14.187838    19.735518    33.269467    9.5006101    12.612127     22.30075    14.235163 
  101000    382.87842     59214935            0     59216425    12.683321    22.410356    14.186975    19.734508    33.265988     9.414258    12.612127     22.30075    14.235163 
  101200    246.74465     59212948            0     59213909    12.683337    22.410356    14.187671    19.736118    33.265966    9.4839436    12.612127     22.30075    14.235163 
  101400    303.22846     59213968            0     59215149    12.683337    22.410313    14.188309    19.736181    33.261646    9.5477284    12.612127     22.30075    14.235163 
  101600    264.46412     59210660            0     59211690    12.683327    22.410394    14.187866    19.735101    33.269729    9.5034402    12.612127     22.30075    14.235163 
  101800    252.72877     59210445            0     59211429    12.683286    22.410366    14.188167    19.731053    33.267003    9.5335785    12.612127     22.30075    14.235163 
  102000    105.62573     59213835            0     59214246    12.683298    22.410356    14.187247    19.732283    33.265957     9.441544    12.612127     22.30075    14.235163 
  102200    150.83832     59214328            0     59214915    12.683377    22.410436    14.187456    19.740137    33.273928    9.4624281    12.612127     22.30075    14.235163 
  102400    112.21037     59211845            0     59212282    12.683349    22.410313    14.188163    19.737354     33.26163    9.5331146    12.612127     22.30075    14.235163 
  102600    258.72159     59211869            0     59212876    12.683327    22.410412    14.187871    19.735183    33.271542     9.503897    12.612127     22.30075    14.235163 
  102800     209.4039     59212707            0     59213522    12.683256     22.41037    14.187765    19.728039    33.267369    9.4933353    12.612127     22.30075    14.235163 
  103000    360.56949     59213377            0     59214781     12.68334    22.410375    14.188086    19.736402    33.267876    9.5254841    12.612127     22.30075    14.235163 
  103200    365.63602     59213149            0     59214572    12.683279    22.410383    14.188325    19.730326    33.268662    9.5493172    12.612127     22.30075    14.235163 
  103400    234.49343     59212769            0     59213682    12.683285     22.41032    14.187536    19.730897    33.262376    9.4703971    12.612127     22.30075    14.235163 
  103600     245.2581     59210637            0     59211592    12.683355    22.410302    14.188262    19.737982    33.260516    9.5429998    12.612127     22.30075    14.235163 
  103800    163.53495     59212405            0     59213042    12.683362    22.410375    14.188295    19.738662    33.267821    9.5463057    12.612127     22.30075    14.235163 
  104000    190.74668     59211138            0     59211881    12.683293    22.410403    14.188115    19.731699     33.27071    9.5283302    12.612127     22.30075    14.235163 
  104200    220.01802     59212464            0     59213321    12.683332     22.41032    14.188053    19.735688    33.262371    9.5221254    12.612127     22.30075    14.235163 
  104400    170.26086     59212695            0     59213357    12.683434     22.41037    14.187658    19.745807    33.267377    9.4826453    12.612127     22.30075    14.235163 
  104600    269.82672     59212535            0     59213586    12.683331    22.410361    14.188205     19.73558    33.266455    9.5373178    12.612127     22.30075    14.235163 
  104800    250.03095     59214093            0     59215066    12.683318    22.410396    14.188072    19.734259    33.269997    9.5240387    12.612127     22.30075    14.235163 
  105000    321.70572     59211355            0     59212607    12.683313    22.410349    14.187864    19.733733    33.265231    9.5032692    12.612127     22.30075    14.235163 
  105200     251.6099     59213308            0     59214287    12.683276    22.410353    14.187917    19.730023     33.26568    9.5085032    12.612127     22.30075    14.235163 
  105400    208.50729     59213645            0     59214457    12.683286    22.410363     14.18827    19.730997    33.266629    9.5438995    12.612127     22.30075    14.235163 
  105600    105.09084     59213481            0     59213890    12.683334    22.410338    14.187972    19.735824    33.264126    9.5140868    12.612127     22.30075    14.235163 
  105800    318.92333     59211424            0     59212666    12.683319     22.41036    14.187934    19.734323    33.266314    9.5102814    12.612127     22.30075    14.235163 
  106000    270.42958     59212034            0     59213086    12.683338    22.410345    14.188503    19.736204    33.264862    9.5672012    12.612127     22.30075    14.235163 
Loop time of 1272.83 on 1 procs for 100000 steps with 1307 atoms

Performance: 3.394 ns/day, 7.071 hours/ns, 78.565 timesteps/s
100.0% CPU use with 1 MPI tasks x no OpenMP threads

MPI task timing breakdown:
Section |  min time  |  avg time  |  max time  |%varavg| %total
---------------------------------------------------------------
Pair    | 643.11     | 643.11     | 643.11     |   0.0 | 50.53
Bond    | 0.018655   | 0.018655   | 0.018655   |   0.0 |  0.00
Kspace  | 625.2      | 625.2      | 625.2      |   0.0 | 49.12
Neigh   | 0          | 0          | 0          |   0.0 |  0.00
Comm    | 2.6479     | 2.6479     | 2.6479     |   0.0 |  0.21
Output  | 0.027157   | 0.027157   | 0.027157   |   0.0 |  0.00
Modify  | 0.91897    | 0.91897    | 0.91897    |   0.0 |  0.07
Other   |            | 0.9029     |            |       |  0.07

Nlocal:    1307 ave 1307 max 1307 min
Histogram: 1 0 0 0 0 0 0 0 0 0
Nghost:    7931 ave 7931 max 7931 min
Histogram: 1 0 0 0 0 0 0 0 0 0
Neighs:    491522 ave 491522 max 491522 min
Histogram: 1 0 0 0 0 0 0 0 0 0

Total # of neighbors = 491522
Ave neighs/atom = 376.069
Ave special neighs/atom = 0
Neighbor list builds = 0
Dangerous builds = 0
write_data         data_nvt_eq.data
PPPMDisp initialization ...
  Coulomb G vector (1/distance) = 0.264777
  Coulomb grid = 30 50 30
  Coulomb stencil order = 5
  Coulomb estimated absolute RMS force accuracy = 0.000346238
  Coulomb estimated relative force accuracy = 1.04269e-06
  using double precision FFTs
  3d grid and FFT values/proc = 78033 45000

# data collection
reset_timestep     0
fix                5 GUEST ave/time 1 1 10 f_4[1] f_4[2] f_4[3] f_4[13] f_4[14] f_4[15] file traj.CofMs
ERROR: Fix ave/time fix vector is accessed out-of-range (../fix_ave_time.cpp:226)
