LAMMPS (30 Jul 2016)

# ----------------- Init Section -----------------

units real
processors 1 1 1
newton off
atom_style full
atom_modify sort 0 10.0

# ----------------- Atom Definition Section -----------------

read_data "MgMOF74-Pressure50000.data"
  orthogonal box = (0.4447 0.31425 -0.401771) to (26.5587 45.5442 27.2652)
  1 by 1 by 1 MPI processor grid
  reading atoms ...
  1307 atoms
  0 = max # of 1-2 neighbors
  0 = max # of 1-3 neighbors
  0 = max # of 1-4 neighbors
  1 = max # of special neighbors

# ----------------- Settings Section -----------------

#include "MgMOF74-Pressure50000.in.settings"

# ----------------- Run Section -----------------

# define groups
group GUEST type 1
11 atoms in group GUEST
group MOF type 2 3 4 5 6 7 8 9 10
1296 atoms in group MOF

# define computes
compute comT all com
compute comG GUEST com
compute comM MOF com

# settings
timestep           0.5
thermo             200
thermo_style       custom step temp epair emol etotal c_comT[1] c_comT[2] c_comT[3] c_comG[1] c_comG[2] c_comG[3] c_comM[1] c_comM[2] c_comM[3]
restart            2000000 sim.restart

# reset box to start at 0
change_box         all x delta $(-xlo) $(-xlo) y delta $(-ylo) $(-ylo) z delta $(-zlo) $(-zlo) remap units box
change_box         all x delta -0.44469999999999998419 $(-xlo) y delta $(-ylo) $(-ylo) z delta $(-zlo) $(-zlo) remap units box
change_box         all x delta -0.44469999999999998419 -0.44469999999999998419 y delta $(-ylo) $(-ylo) z delta $(-zlo) $(-zlo) remap units box
change_box         all x delta -0.44469999999999998419 -0.44469999999999998419 y delta -0.3142499999999999738 $(-ylo) z delta $(-zlo) $(-zlo) remap units box
change_box         all x delta -0.44469999999999998419 -0.44469999999999998419 y delta -0.3142499999999999738 -0.3142499999999999738 z delta $(-zlo) $(-zlo) remap units box
change_box         all x delta -0.44469999999999998419 -0.44469999999999998419 y delta -0.3142499999999999738 -0.3142499999999999738 z delta 0.40177099999999998925 $(-zlo) remap units box
change_box         all x delta -0.44469999999999998419 -0.44469999999999998419 y delta -0.3142499999999999738 -0.3142499999999999738 z delta 0.40177099999999998925 0.40177099999999998925 remap units box
  orthogonal box = (0 0.31425 -0.401771) to (26.114 45.5442 27.2652)
  orthogonal box = (0 0 -0.401771) to (26.114 45.23 27.2652)
  orthogonal box = (0 0 0) to (26.114 45.23 27.667)
write_data         data_changebox.data

# get rid of overlapping atoms
run                0
WARNING: No fixes defined, atoms won't move (../verlet.cpp:55)
Memory usage per processor = 0.478851 Mbytes
Step Temp E_pair E_mol TotEng comT[1] comT[2] comT[3] comG[1] comG[2] comG[3] comM[1] comM[2] comM[3] 
       0            0            0            0            0    12.683318    22.424053    14.189073    19.734246    34.636249    9.6241346    12.612127     22.30075    14.235163 
Loop time of 9.53674e-07 on 1 procs for 0 steps with 1307 atoms

0.0% CPU use with 1 MPI tasks x no OpenMP threads

MPI task timing breakdown:
Section |  min time  |  avg time  |  max time  |%varavg| %total
---------------------------------------------------------------
Pair    | 0          | 0          | 0          |   0.0 |  0.00
Bond    | 0          | 0          | 0          |   0.0 |  0.00
Neigh   | 0          | 0          | 0          |   0.0 |  0.00
Comm    | 0          | 0          | 0          |   0.0 |  0.00
Output  | 0          | 0          | 0          |   0.0 |  0.00
Modify  | 0          | 0          | 0          |   0.0 |  0.00
Other   |            | 9.537e-07  |            |       |100.00

Nlocal:    1307 ave 1307 max 1307 min
Histogram: 1 0 0 0 0 0 0 0 0 0
Nghost:    0 ave 0 max 0 min
Histogram: 1 0 0 0 0 0 0 0 0 0
Neighs:    0 ave 0 max 0 min
Histogram: 1 0 0 0 0 0 0 0 0 0

Total # of neighbors = 0
Ave neighs/atom = 0
Ave special neighs/atom = 0
Neighbor list builds = 0
Dangerous builds = 0
velocity           GUEST create 313 1738
fix                1 GUEST nvt temp 313 313 100.0
pair_style         soft 5.0
pair_coeff         * * 0.0 5.0
kspace_style       none
variable           prefactor equal ramp(1.0,20.0)
fix                2 all adapt 1 pair soft a * * v_prefactor
run                2000
Neighbor list info ...
  1 neighbor list requests
  update every 1 steps, delay 10 steps, check yes
  max neighbors/atom: 2000, page size: 100000
  master list distance cutoff = 7
  ghost atom cutoff = 7
  binsize = 3.5 -> bins = 8 13 8
Memory usage per processor = 5.44173 Mbytes
Step Temp E_pair E_mol TotEng comT[1] comT[2] comT[3] comG[1] comG[2] comG[3] comM[1] comM[2] comM[3] 
       0    2.3966309    8995.3087            0    9004.6386    12.683318    22.424053    14.189073    19.734246    34.636249    9.6241346    12.612127     22.30075    14.235163 
     200    4.5023721    26074.309            0    26091.836    12.683332     22.42382    14.189083    19.735612    34.612932    9.6251655    12.612127     22.30075    14.235163 
     400    21.062518    42979.691            0    43061.686    12.683493    22.421737    14.188964    19.751736    34.404557    9.6133009    12.612127     22.30075    14.235163 
     600    17.760017    59769.623            0    59838.762    12.683645    22.419594    14.188718     19.76697    34.190192    9.5886352    12.612127     22.30075    14.235163 
     800    5.4882568    76557.718            0    76579.083     12.68363      22.4156    14.188317    19.765425    33.790547    9.5485559    12.612127     22.30075    14.235163 
    1000   0.94478664    93470.842            0     93474.52    12.683665      22.4137    14.188006    19.768993    33.600542    9.5174109    12.612127     22.30075    14.235163 
    1200   0.70808681    110384.61            0    110387.37    12.683686    22.412593    14.187824      19.7711    33.489783    9.4992001    12.612127     22.30075    14.235163 
    1400    1.8727031    127298.38            0    127305.67    12.683712    22.411236    14.187601    19.773682    33.354039    9.4768812    12.612127     22.30075    14.235163 
    1600    3.6324607    144216.31            0    144230.45     12.68376    22.408922      14.1872    19.778468    33.122517    9.4367989    12.612127     22.30075    14.235163 
    1800    4.4255859       161126            0    161143.23    12.683951    22.409155    14.186058    19.797544    33.145804    9.3225315    12.612127     22.30075    14.235163 
    2000    1.6587189    178042.66            0    178049.12    12.684152    22.411047     14.18485    19.817661    33.335061     9.201683    12.612127     22.30075    14.235163 
Loop time of 2.73583 on 1 procs for 2000 steps with 1307 atoms

Performance: 31.581 ns/day, 0.760 hours/ns, 731.040 timesteps/s
99.9% CPU use with 1 MPI tasks x no OpenMP threads

MPI task timing breakdown:
Section |  min time  |  avg time  |  max time  |%varavg| %total
---------------------------------------------------------------
Pair    | 2.6456     | 2.6456     | 2.6456     |   0.0 | 96.70
Bond    | 0.00011349 | 0.00011349 | 0.00011349 |   0.0 |  0.00
Neigh   | 0.057452   | 0.057452   | 0.057452   |   0.0 |  2.10
Comm    | 0.011362   | 0.011362   | 0.011362   |   0.0 |  0.42
Output  | 0.00046587 | 0.00046587 | 0.00046587 |   0.0 |  0.02
Modify  | 0.013772   | 0.013772   | 0.013772   |   0.0 |  0.50
Other   |            | 0.007098   |            |       |  0.26

Nlocal:    1307 ave 1307 max 1307 min
Histogram: 1 0 0 0 0 0 0 0 0 0
Nghost:    2723 ave 2723 max 2723 min
Histogram: 1 0 0 0 0 0 0 0 0 0
Neighs:    53112 ave 53112 max 53112 min
Histogram: 1 0 0 0 0 0 0 0 0 0

Total # of neighbors = 53112
Ave neighs/atom = 40.6366
Ave special neighs/atom = 0
Neighbor list builds = 20
Dangerous builds = 0
unfix              2
write_data         data_overlap.data

# reset force field parameters
# Set 1-2, 1-3, and 1-4 pairwise interactions to zero; not needed if no bonded terms
#special_bonds      lj/coul 0.0 0.0 0.0
kspace_style       pppm/disp 1.0e-6
include "MgMOF74-Pressure50000.in.settings"
# UFF parameters for all atoms not defined by force field
pair_style         hybrid lj/long/coul/long cut long 12.8 buck/long/coul/long cut long 12.8
pair_modify        mix arithmetic shift yes
pair_coeff         7 7 lj/long/coul/long 0.111 2.691
pair_coeff         2 2 lj/long/coul/long 0.105 3.431
pair_coeff         3 3 lj/long/coul/long 0.105 3.431
pair_coeff         4 4 lj/long/coul/long 0.105 3.431
pair_coeff         5 5 lj/long/coul/long 0.105 3.431
pair_coeff         6 6 lj/long/coul/long 0.044 2.571
pair_coeff         8 8 lj/long/coul/long 0.060 3.118
pair_coeff         9 9 lj/long/coul/long 0.060 3.118
pair_coeff         10 10 lj/long/coul/long 0.060 3.118
pair_coeff         1 1 lj/long/coul/long 0.294 3.730
# Lennard-Jones parameters from force field
pair_coeff         1 6 lj/long/coul/long 0.114 3.15
# Buckingham parameters from force field
pair_coeff         1 7 buck/long/coul/long 503735.46 4.915 869.75957
pair_coeff         1 8 buck/long/coul/long 36618.413 2.965 943.43844
pair_coeff         1 9 buck/long/coul/long 40336.705 3.265 943.43844
pair_coeff         1 10 buck/long/coul/long 20010.424 2.790 943.43844
pair_coeff         1 2 buck/long/coul/long 151480.54 3.995 1627.7890
pair_coeff         1 3 buck/long/coul/long 70571.228 3.280 1627.7890
pair_coeff         1 4 buck/long/coul/long 460219.42 4.370 1627.7890
pair_coeff         1 5 buck/long/coul/long 5085.8640 2.315 1627.7890

# melt crystalline guest molecules
unfix              1
run                0
WARNING: No fixes defined, atoms won't move (../verlet.cpp:55)
PPPMDisp initialization ...
  Coulomb G vector (1/distance) = 0.264777
  Coulomb grid = 30 50 30
  Coulomb stencil order = 5
  Coulomb estimated absolute RMS force accuracy = 0.000346238
  Coulomb estimated relative force accuracy = 1.04269e-06
  using double precision FFTs
  3d grid and FFT values/proc = 78033 45000
Neighbor list info ...
  3 neighbor list requests
  update every 1 steps, delay 10 steps, check yes
  max neighbors/atom: 2000, page size: 100000
  master list distance cutoff = 14.8
  ghost atom cutoff = 14.8
  binsize = 7.4 -> bins = 4 7 4
Memory usage per processor = 12.3721 Mbytes
Step Temp E_pair E_mol TotEng comT[1] comT[2] comT[3] comG[1] comG[2] comG[3] comM[1] comM[2] comM[3] 
    2000    1.6587189     60258162            0     60258168    12.684152    22.411047     14.18485    19.817661    33.335061     9.201683    12.612127     22.30075    14.235163 
Loop time of 9.53674e-07 on 1 procs for 0 steps with 1307 atoms

0.0% CPU use with 1 MPI tasks x no OpenMP threads

MPI task timing breakdown:
Section |  min time  |  avg time  |  max time  |%varavg| %total
---------------------------------------------------------------
Pair    | 0          | 0          | 0          |   0.0 |  0.00
Bond    | 0          | 0          | 0          |   0.0 |  0.00
Kspace  | 0          | 0          | 0          |   0.0 |  0.00
Neigh   | 0          | 0          | 0          |   0.0 |  0.00
Comm    | 0          | 0          | 0          |   0.0 |  0.00
Output  | 0          | 0          | 0          |   0.0 |  0.00
Modify  | 0          | 0          | 0          |   0.0 |  0.00
Other   |            | 9.537e-07  |            |       |100.00

Nlocal:    1307 ave 1307 max 1307 min
Histogram: 1 0 0 0 0 0 0 0 0 0
Nghost:    7927 ave 7927 max 7927 min
Histogram: 1 0 0 0 0 0 0 0 0 0
Neighs:    491314 ave 491314 max 491314 min
Histogram: 1 0 0 0 0 0 0 0 0 0

Total # of neighbors = 491314
Ave neighs/atom = 375.91
Ave special neighs/atom = 0
Neighbor list builds = 0
Dangerous builds = 0
velocity           GUEST create 1000 1738
fix                3 GUEST nvt temp 1000 1000 100.0
run                40000
PPPMDisp initialization ...
  Coulomb G vector (1/distance) = 0.264777
  Coulomb grid = 30 50 30
  Coulomb stencil order = 5
  Coulomb estimated absolute RMS force accuracy = 0.000346238
  Coulomb estimated relative force accuracy = 1.04269e-06
  using double precision FFTs
  3d grid and FFT values/proc = 78033 45000
Memory usage per processor = 12.3721 Mbytes
Step Temp E_pair E_mol TotEng comT[1] comT[2] comT[3] comG[1] comG[2] comG[3] comM[1] comM[2] comM[3] 
    2000    7.6569678     60258162            0     60258191    12.684152    22.411047     14.18485    19.817661    33.335061     9.201683    12.612127     22.30075    14.235163 
    2200    848.53379     59214350            0     59217653    12.683354    22.410345    14.187834    19.737804    33.264808    9.5002053    12.612127     22.30075    14.235163 
    2400    727.72579     59214550            0     59217383    12.683362    22.410442    14.188424    19.738609    33.274539    9.5592467    12.612127     22.30075    14.235163 
    2600     744.0771     59212328            0     59215224    12.683316     22.41032    14.188111    19.734089    33.262389    9.5279621    12.612127     22.30075    14.235163 
    2800    820.71968     59212325            0     59215520    12.683407    22.410453      14.1884    19.743131    33.275701    9.5568251    12.612127     22.30075    14.235163 
    3000    793.49068     59213376            0     59216465    12.683361    22.410429    14.188313    19.738554    33.273214    9.5481636    12.612127     22.30075    14.235163 
    3200    278.85403     59214483            0     59215569    12.683142    22.410261    14.187712    19.716689    33.256423    9.4880042    12.612127     22.30075    14.235163 
    3400    797.63292     59212877            0     59215982    12.683334    22.410425    14.187473    19.735831    33.272816    9.4640952    12.612127     22.30075    14.235163 
    3600    642.36611     59213629            0     59216130     12.68325    22.410273    14.188271    19.727487    33.257652    9.5439146    12.612127     22.30075    14.235163 
    3800    686.92689     59214012            0     59216686    12.683605    22.410421    14.187673    19.762935    33.272497     9.484088    12.612127     22.30075    14.235163 
    4000    533.51746     59213332            0     59215409     12.68348    22.410282    14.187968    19.750502    33.258526    9.5135901    12.612127     22.30075    14.235163 
    4200    416.67557     59214762            0     59216384    12.683296    22.410281    14.187683    19.732003    33.258438    9.4851503    12.612127     22.30075    14.235163 
    4400    617.10684     59214042            0     59216444    12.683345    22.410409    14.187373    19.736938    33.271294    9.4541181    12.612127     22.30075    14.235163 
    4600    847.48372     59214462            0     59217761    12.683331    22.410391    14.188125    19.735595    33.269493    9.5293684    12.612127     22.30075    14.235163 
    4800    835.01566     59214406            0     59217657    12.683278    22.410156    14.187825    19.730228     33.24592     9.499316    12.612127     22.30075    14.235163 
    5000    494.36286     59213087            0     59215011    12.683473    22.410373    14.188264    19.749757     33.26767    9.5432249    12.612127     22.30075    14.235163 
    5200    903.52614     59213278            0     59216795    12.683308    22.410197    14.188043    19.733259     33.25008     9.521183    12.612127     22.30075    14.235163 
    5400    469.56834     59213093            0     59214921    12.683443    22.410349    14.188325    19.746778    33.265277    9.5493419    12.612127     22.30075    14.235163 
    5600    412.58709     59213864            0     59215470    12.683389    22.410386    14.188185     19.74133    33.268967    9.5353877    12.612127     22.30075    14.235163 
    5800    331.90716     59216392            0     59217684    12.683473    22.410493    14.188359    19.749802    33.279662    9.5527148    12.612127     22.30075    14.235163 
    6000    579.49725     59214075            0     59216331    12.683309    22.410306     14.18782    19.733329    33.260963    9.4988188    12.612127     22.30075    14.235163 
    6200    796.23411     59213137            0     59216237    12.683442    22.410324    14.188316    19.746648    33.262708    9.5484954    12.612127     22.30075    14.235163 
    6400    755.88726     59211249            0     59214191    12.683425    22.410336    14.188227     19.74496    33.263915    9.5395365    12.612127     22.30075    14.235163 
    6600    674.57009     59213504            0     59216130    12.683234    22.410471    14.188003    19.725883    33.277458    9.5171133    12.612127     22.30075    14.235163 
    6800    611.01498     59216004            0     59218382    12.683265      22.4102     14.18802    19.728972    33.250349    9.5188682    12.612127     22.30075    14.235163 
    7000    581.25281     59213067            0     59215330    12.683389     22.41026    14.188136    19.741388    33.256357    9.5304675    12.612127     22.30075    14.235163 
    7200    563.65158     59211991            0     59214185    12.683435    22.410504    14.188245    19.745958    33.280813    9.5413525    12.612127     22.30075    14.235163 
    7400    609.51088     59213223            0     59215596    12.683227     22.41029    14.188488    19.725149    33.259358    9.5656993    12.612127     22.30075    14.235163 
    7600    576.54439     59213353            0     59215597    12.683401    22.410346    14.187889    19.742522    33.264962    9.5057651    12.612127     22.30075    14.235163 
    7800    608.74484     59213706            0     59216076    12.683492    22.410337    14.187595    19.751623    33.264042    9.4763122    12.612127     22.30075    14.235163 
    8000    615.78903     59212602            0     59214999    12.683412    22.410273    14.187771    19.743632     33.25767     9.493915    12.612127     22.30075    14.235163 
    8200    294.12916     59212687            0     59213832    12.683206    22.410362    14.187898    19.723036     33.26659    9.5065908    12.612127     22.30075    14.235163 
    8400     439.0937     59214699            0     59216408     12.68319    22.410311    14.187932    19.721476    33.261466    9.5100098    12.612127     22.30075    14.235163 
    8600    617.99819     59214932            0     59217338     12.68333    22.410338    14.188186    19.735477    33.264168    9.5354373    12.612127     22.30075    14.235163 
    8800    763.90933     59213366            0     59216340    12.683434    22.410363    14.187508    19.745841    33.266623    9.4676422    12.612127     22.30075    14.235163 
    9000     485.3019     59212967            0     59214856    12.683313    22.410429    14.187916    19.733786    33.273297    9.5084355    12.612127     22.30075    14.235163 
    9200     481.4624     59215083            0     59216957    12.683484    22.410394    14.188004    19.750813    33.269728    9.5172254    12.612127     22.30075    14.235163 
    9400    712.04792     59213355            0     59216127    12.683321     22.41046    14.187988    19.734563    33.276329    9.5156418    12.612127     22.30075    14.235163 
    9600    354.59046     59214145            0     59215525     12.68321     22.41038     14.18791    19.723468    33.268382    9.5078846    12.612127     22.30075    14.235163 
    9800    275.28271     59215001            0     59216073     12.68341     22.41033    14.188528     19.74346    33.263363    9.5696303    12.612127     22.30075    14.235163 
   10000    397.66957     59213014            0     59214562     12.68324    22.410384     14.18745    19.726478     33.26873    9.4618376    12.612127     22.30075    14.235163 
   10200    499.12533     59214577            0     59216520     12.68329    22.410397    14.187754    19.731476    33.270046    9.4922528    12.612127     22.30075    14.235163 
   10400    553.70334     59213366            0     59215521    12.683523    22.410377    14.188119    19.754802    33.268092    9.5287147    12.612127     22.30075    14.235163 
   10600    531.33848     59213837            0     59215906    12.683279    22.410456    14.188256    19.730307    33.276007    9.5424752    12.612127     22.30075    14.235163 
   10800    523.67225     59213105            0     59215144    12.683317    22.410266    14.187768     19.73413    33.256994    9.4936118    12.612127     22.30075    14.235163 
   11000    758.35004     59213506            0     59216458    12.683219    22.410247    14.188243    19.724361    33.255091    9.5411266    12.612127     22.30075    14.235163 
   11200    502.79988     59213387            0     59215344    12.683299    22.410504    14.188056    19.732298     33.28075    9.5224196    12.612127     22.30075    14.235163 
   11400     436.5832     59212341            0     59214041    12.683417    22.410284    14.188215    19.744105    33.258758    9.5383621    12.612127     22.30075    14.235163 
   11600    403.20453     59215543            0     59217113    12.683266    22.410456    14.188088    19.729028    33.275979     9.525675    12.612127     22.30075    14.235163 
   11800    333.27836     59213129            0     59214426     12.68326    22.410396    14.188719    19.728458    33.269964    9.5887973    12.612127     22.30075    14.235163 
   12000    699.76388     59211667            0     59214391    12.683357    22.410412    14.188046    19.738115    33.271521     9.521481    12.612127     22.30075    14.235163 
   12200     283.1508     59214318            0     59215420    12.683156    22.410403    14.188197       19.718    33.270643     9.536514    12.612127     22.30075    14.235163 
   12400    435.15868     59213754            0     59215448    12.683386    22.410293    14.188244    19.741064     33.25965    9.5412858    12.612127     22.30075    14.235163 
   12600    583.61174     59214253            0     59216525     12.68329    22.410349    14.187805    19.731412    33.265222    9.4973044    12.612127     22.30075    14.235163 
   12800    620.59239     59212150            0     59214566    12.683298    22.410433    14.188183    19.732244    33.273671    9.5351727    12.612127     22.30075    14.235163 
   13000    584.65044     59212825            0     59215101    12.683405    22.410462    14.188112    19.742928    33.276564    9.5280665    12.612127     22.30075    14.235163 
   13200    681.61529     59213097            0     59215751    12.683157    22.410336    14.187862     19.71818    33.263924     9.503038    12.612127     22.30075    14.235163 
   13400    579.08493     59215270            0     59217524    12.683268    22.410366    14.187953    19.729277    33.266958    9.5121289    12.612127     22.30075    14.235163 
   13600    494.17858     59213225            0     59215148    12.683379    22.410573    14.187949    19.740375    33.287711    9.5117344    12.612127     22.30075    14.235163 
   13800    572.73371     59214323            0     59216552    12.683269    22.410366    14.187731    19.729352    33.266915    9.4899465    12.612127     22.30075    14.235163 
   14000    255.57211     59214842            0     59215837    12.683386    22.410333    14.188458    19.741056    33.263631    9.5626942    12.612127     22.30075    14.235163 
   14200    539.51328     59213922            0     59216022    12.683256    22.410485     14.18785    19.728014    33.278904    9.5017891    12.612127     22.30075    14.235163 
   14400     327.8584     59213813            0     59215089    12.683276    22.410543     14.18866    19.730005    33.284656    9.5829128    12.612127     22.30075    14.235163 
   14600    451.67584     59214713            0     59216472    12.683267    22.410368    14.187968     19.72912    33.267198    9.5136867    12.612127     22.30075    14.235163 
   14800    733.71221     59213193            0     59216049    12.683212    22.410491    14.187879     19.72369     33.27944    9.5047346    12.612127     22.30075    14.235163 
   15000    442.42106     59212198            0     59213920    12.683285    22.410503    14.188161     19.73096    33.280634    9.5329733    12.612127     22.30075    14.235163 
   15200    432.51121     59212570            0     59214254    12.683343    22.410347    14.188557    19.736709    33.265017    9.5725928    12.612127     22.30075    14.235163 
   15400    601.63373     59212161            0     59214503    12.683283     22.41041    14.188383    19.730782     33.27134     9.555128    12.612127     22.30075    14.235163 
   15600     377.1809     59212994            0     59214462    12.683265    22.410319    14.187875    19.728897    33.262264    9.5043506    12.612127     22.30075    14.235163 
   15800    351.28014     59212456            0     59213824    12.683364     22.41031     14.18848    19.738866    33.261363    9.5648498    12.612127     22.30075    14.235163 
   16000    364.58181     59212269            0     59213688    12.683427    22.410517    14.188271    19.745144    33.282066    9.5439117    12.612127     22.30075    14.235163 
   16200    679.15174     59212536            0     59215180    12.683152    22.410325    14.188405    19.717676    33.262897    9.5573483    12.612127     22.30075    14.235163 
   16400    399.45965     59213764            0     59215319     12.68344     22.41034     14.18858    19.746452    33.264379    9.5748709    12.612127     22.30075    14.235163 
   16600    219.92134     59213101            0     59213957    12.683365    22.410418    14.187974    19.738916    33.272115    9.5141936    12.612127     22.30075    14.235163 
   16800    567.22478     59212729            0     59214937    12.683304    22.410246    14.187676    19.732873    33.254936    9.4843845    12.612127     22.30075    14.235163 
   17000    676.76775     59212004            0     59214638    12.683214    22.410195    14.188071    19.723816    33.249896    9.5238951    12.612127     22.30075    14.235163 
   17200    433.16084     59214362            0     59216048    12.683248    22.410388     14.18754    19.727249    33.269115    9.4708142    12.612127     22.30075    14.235163 
   17400    725.26478     59213302            0     59216125    12.683347    22.410387     14.18824    19.737141    33.269048     9.540806    12.612127     22.30075    14.235163 
   17600    593.98133     59213664            0     59215976    12.683468    22.410454    14.187795    19.749217    33.275803    9.4962857    12.612127     22.30075    14.235163 
   17800    400.35516     59212799            0     59214358     12.68331    22.410206    14.188581    19.733426    33.250977    9.5749151    12.612127     22.30075    14.235163 
   18000    401.40503     59212306            0     59213869    12.683259    22.410359    14.188147    19.728392    33.266307    9.5315251    12.612127     22.30075    14.235163 
   18200    387.84466     59213150            0     59214660    12.683304    22.410312    14.187706    19.732872    33.261563    9.4873765    12.612127     22.30075    14.235163 
   18400    244.92704     59212957            0     59213910    12.683406     22.41044    14.187972    19.743011    33.274394    9.5140402    12.612127     22.30075    14.235163 
   18600     265.3551     59211559            0     59212592    12.683391     22.41031     14.18813    19.741511    33.261402    9.5298794    12.612127     22.30075    14.235163 
   18800    477.40075     59211961            0     59213819    12.683447    22.410487    14.187996    19.747185    33.279046    9.5164406    12.612127     22.30075    14.235163 
   19000    718.93723     59212598            0     59215397    12.683369    22.410326    14.188168    19.739323    33.262989    9.5335964    12.612127     22.30075    14.235163 
   19200    350.45797     59215158            0     59216522    12.683382    22.410396    14.187471     19.74069    33.269991    9.4638691    12.612127     22.30075    14.235163 
   19400    236.55207     59212869            0     59213790    12.683322    22.410352    14.188008    19.734606    33.265574     9.517688    12.612127     22.30075    14.235163 
   19600      559.583     59212148            0     59214326    12.683307    22.410378     14.18829     19.73313    33.268187     9.545826    12.612127     22.30075    14.235163 
   19800    255.35046     59214291            0     59215285    12.683247    22.410433     14.18752    19.727193    33.273672    9.4688021    12.612127     22.30075    14.235163 
   20000    519.90627     59214681            0     59216705    12.683351    22.410254    14.188028    19.737511    33.255745    9.5196588    12.612127     22.30075    14.235163 
   20200    372.94085     59212061            0     59213513    12.683245    22.410332    14.187956    19.726905    33.263511    9.5124625    12.612127     22.30075    14.235163 
   20400    451.50499     59213729            0     59215486     12.68319    22.410365    14.187803    19.721396    33.266841     9.497113    12.612127     22.30075    14.235163 
   20600    471.62879     59213401            0     59215237    12.683236    22.410315    14.187623    19.726013    33.261905     9.479169    12.612127     22.30075    14.235163 
   20800    501.84146     59212936            0     59214889    12.683527    22.410283    14.188157    19.755146    33.258666    9.5325704    12.612127     22.30075    14.235163 
   21000    489.17444     59211680            0     59213585    12.683294    22.410346     14.18797    19.731826    33.264996    9.5138121    12.612127     22.30075    14.235163 
   21200    573.39183     59213540            0     59215772    12.683272    22.410437     14.18767    19.729647    33.274041    9.4838148    12.612127     22.30075    14.235163 
   21400     462.3528     59213189            0     59214989    12.683368    22.410453    14.187574     19.73922    33.275696    9.4742286    12.612127     22.30075    14.235163 
   21600    354.99005     59213089            0     59214471    12.683307    22.410412    14.188577    19.733156    33.271521    9.5745166    12.612127     22.30075    14.235163 
   21800    588.56051     59212343            0     59214635    12.683364    22.410302    14.188318    19.738887    33.260568    9.5486478    12.612127     22.30075    14.235163 
   22000    477.89074     59212365            0     59214225    12.683327    22.410317    14.188264    19.735183    33.262045    9.5432349    12.612127     22.30075    14.235163 
   22200    772.98623     59213554            0     59216563    12.683245    22.410411      14.1891    19.726971     33.27147    9.6268604    12.612127     22.30075    14.235163 
   22400    971.09744     59212542            0     59216323    12.683522     22.41055     14.18833    19.754638    33.285322    9.5498933    12.612127     22.30075    14.235163 
   22600    283.39247     59213347            0     59214450    12.683359    22.410452    14.187696    19.738313    33.275582    9.4864104    12.612127     22.30075    14.235163 
   22800    304.48455     59213472            0     59214657    12.683142     22.41036    14.187363     19.71664    33.266344    9.4531524    12.612127     22.30075    14.235163 
   23000    657.15947     59214223            0     59216781    12.683412    22.410231    14.187945     19.74365    33.253434    9.5113017    12.612127     22.30075    14.235163 
   23200      522.481     59212001            0     59214035     12.68316    22.410452    14.187937    19.718395    33.275611    9.5105266    12.612127     22.30075    14.235163 
   23400    391.04833     59213152            0     59214674    12.683343    22.410176    14.187948    19.736716    33.247945    9.5115894    12.612127     22.30075    14.235163 
   23600    492.35728     59211865            0     59213782    12.683197    22.410196     14.18804    19.722186    33.249961    9.5208813    12.612127     22.30075    14.235163 
   23800      497.171     59214422            0     59216357    12.683398    22.410466    14.188479      19.7423    33.276918     9.564806    12.612127     22.30075    14.235163 
   24000    411.33956     59212444            0     59214045    12.683256    22.410283    14.188164    19.728055    33.258662    9.5332474    12.612127     22.30075    14.235163 
   24200    434.60949     59212133            0     59213825    12.683311    22.410349    14.188516    19.733508    33.265237    9.5684809    12.612127     22.30075    14.235163 
   24400    985.65542     59213804            0     59217641    12.683374    22.410515    14.187842    19.739866    33.281883      9.50102    12.612127     22.30075    14.235163 
   24600    476.04681     59212095            0     59213948    12.683444    22.410296    14.188101    19.746895    33.260001    9.5269706    12.612127     22.30075    14.235163 
   24800    679.25622     59213159            0     59215803    12.683262    22.410302    14.188944    19.728679    33.260557    9.6113275    12.612127     22.30075    14.235163 
   25000    494.13759     59212549            0     59214473    12.683183    22.410283    14.187916    19.720709    33.258682    9.5084681    12.612127     22.30075    14.235163 
   25200    365.58537     59213890            0     59215313    12.683347     22.41045    14.188009    19.737191    33.275381    9.5177141    12.612127     22.30075    14.235163 
   25400    388.90856     59214226            0     59215740    12.683289    22.410381    14.187661    19.731326    33.268492    9.4829488    12.612127     22.30075    14.235163 
   25600    541.29554     59213991            0     59216099    12.683306    22.410343     14.18831    19.733093    33.264691    9.5478201    12.612127     22.30075    14.235163 
   25800    583.14287     59214929            0     59217199     12.68332    22.410388    14.187753    19.734483    33.269142    9.4921624    12.612127     22.30075    14.235163 
   26000    601.52883     59212986            0     59215328    12.683289    22.410335    14.188546    19.731347    33.263814    9.5715082    12.612127     22.30075    14.235163 
   26200    509.63863     59212115            0     59214099    12.683367    22.410281    14.188009    19.739191    33.258406    9.5177185    12.612127     22.30075    14.235163 
   26400    610.05367     59213043            0     59215417    12.683188    22.410473    14.187847    19.721212    33.277619    9.5014936    12.612127     22.30075    14.235163 
   26600    437.35695     59213093            0     59214796    12.683291    22.410367    14.187524    19.731508    33.267042    9.4691745    12.612127     22.30075    14.235163 
   26800     301.6598     59213312            0     59214486    12.683521    22.410464    14.188079    19.754526    33.276789    9.5246989    12.612127     22.30075    14.235163 
   27000    537.78879     59212536            0     59214629    12.683261    22.410444    14.188092    19.728511    33.274731    9.5260846    12.612127     22.30075    14.235163 
   27200    613.88078     59214516            0     59216905    12.683133    22.410319    14.188415    19.715767    33.262226     9.558371    12.612127     22.30075    14.235163 
   27400    449.65387     59213066            0     59214817    12.683295     22.41032    14.187834    19.731932    33.262342    9.5002192    12.612127     22.30075    14.235163 
   27600    299.21767     59212900            0     59214065    12.683448    22.410408    14.188196    19.747214    33.271126    9.5364948    12.612127     22.30075    14.235163 
   27800    457.51082     59213802            0     59215583    12.683264    22.410287    14.188348    19.728851    33.259081    9.5516915    12.612127     22.30075    14.235163 
   28000    404.91434     59211573            0     59213149    12.683266    22.410338    14.187936    19.729034    33.264145      9.51046    12.612127     22.30075    14.235163 
   28200    431.46594     59212720            0     59214399    12.683199    22.410307    14.187614    19.722311    33.261093    9.4782007    12.612127     22.30075    14.235163 
   28400    423.11757     59211581            0     59213228    12.683288    22.410384    14.188254    19.731275    33.268793    9.5422661    12.612127     22.30075    14.235163 
   28600     616.4597     59212169            0     59214569    12.683276     22.41025    14.187983    19.730009    33.255304      9.51514    12.612127     22.30075    14.235163 
   28800    604.61028     59212308            0     59214662    12.683365    22.410359     14.18822    19.738906    33.266228    9.5388264    12.612127     22.30075    14.235163 
   29000    340.60404     59211380            0     59212706    12.683367    22.410261    14.188141      19.7391    33.256476    9.5309658    12.612127     22.30075    14.235163 
   29200    550.98782     59213443            0     59215588    12.683218    22.410365     14.18792    19.724221    33.266888    9.5087947    12.612127     22.30075    14.235163 
   29400    772.67623     59212090            0     59215098    12.683294    22.410333     14.18762    19.731819    33.263704    9.4788098    12.612127     22.30075    14.235163 
   29600    587.36869     59213233            0     59215520    12.683165     22.41048    14.188133    19.718908    33.278391    9.5301719    12.612127     22.30075    14.235163 
   29800    326.14992     59213195            0     59214464    12.683207    22.410281    14.188076    19.723124    33.258415    9.5244915    12.612127     22.30075    14.235163 
   30000     371.7704     59211968            0     59213415    12.683282    22.410444    14.187873     19.73061    33.274787    9.5041323    12.612127     22.30075    14.235163 
   30200     331.0546     59212375            0     59213664    12.683326    22.410453    14.187855       19.735     33.27564    9.5023787    12.612127     22.30075    14.235163 
   30400    521.76284     59212704            0     59214735    12.683199    22.410261    14.187692    19.722327    33.256435    9.4860245    12.612127     22.30075    14.235163 
   30600    284.63625     59212708            0     59213816    12.683312     22.41037    14.188266    19.733694    33.267405    9.5434296    12.612127     22.30075    14.235163 
   30800    555.87435     59212229            0     59214393    12.683253    22.410239    14.188404     19.72778    33.254283    9.5572497    12.612127     22.30075    14.235163 
   31000    412.02206     59211598            0     59213202     12.68347    22.410362    14.187912    19.749482     33.26652    9.5080663    12.612127     22.30075    14.235163 
   31200    356.80695     59212959            0     59214348    12.683297    22.410358    14.187815     19.73216    33.266205    9.4982829    12.612127     22.30075    14.235163 
   31400    392.63053     59213710            0     59215239    12.683255    22.410372    14.187858    19.727922    33.267548    9.5026548    12.612127     22.30075    14.235163 
   31600    536.98812     59212267            0     59214357    12.683246    22.410476    14.187748    19.727011    33.277965    9.4916597    12.612127     22.30075    14.235163 
   31800    367.85133     59212612            0     59214044    12.683407    22.410356    14.188161    19.743139    33.265917    9.5329372    12.612127     22.30075    14.235163 
   32000    428.22022     59212361            0     59214028    12.683263    22.410344    14.187765     19.72879    33.264726    9.4933189    12.612127     22.30075    14.235163 
   32200    269.55278     59212508            0     59213557    12.683274    22.410483    14.187824    19.729895    33.278627    9.4992467    12.612127     22.30075    14.235163 
   32400    468.93686     59211557            0     59213382    12.683381     22.41042    14.188152    19.740596    33.272363      9.53209    12.612127     22.30075    14.235163 
   32600     429.0754     59212767            0     59214437    12.683414    22.410304    14.188607    19.743811    33.260729    9.5775247    12.612127     22.30075    14.235163 
   32800    521.13081     59211607            0     59213635    12.683345    22.410388    14.188521    19.736918    33.269113    9.5689284    12.612127     22.30075    14.235163 
   33000    497.63769     59211576            0     59213513    12.683383    22.410221    14.188053    19.740735    33.252403    9.5221745    12.612127     22.30075    14.235163 
   33200     551.8684     59211818            0     59213967    12.683311    22.410245    14.188101    19.733514    33.254902    9.5269713    12.612127     22.30075    14.235163 
   33400    469.15082     59213326            0     59215152    12.683403    22.410408    14.187473    19.742796    33.271188    9.4641326    12.612127     22.30075    14.235163 
   33600    538.33154     59213411            0     59215506    12.683454    22.410204    14.188021    19.747896    33.250741    9.5188977    12.612127     22.30075    14.235163 
   33800    378.10346     59213429            0     59214900    12.683425    22.410305    14.187749    19.744903    33.260819    9.4917209    12.612127     22.30075    14.235163 
   34000    609.70396     59212063            0     59214437    12.683316    22.410347    14.187916    19.734089    33.265062    9.5084177    12.612127     22.30075    14.235163 
   34200    414.32718     59212027            0     59213640    12.683245    22.410229    14.188216    19.726928    33.253264    9.5384353    12.612127     22.30075    14.235163 
   34400    528.58269     59213011            0     59215068    12.683171     22.41035    14.188022     19.71958    33.265335    9.5190819    12.612127     22.30075    14.235163 
   34600    726.02116     59212218            0     59215044    12.683352    22.410273    14.187902    19.737679    33.257621    9.5070192    12.612127     22.30075    14.235163 
   34800    429.52586     59212932            0     59214604    12.683461    22.410211    14.188507    19.748588     33.25149     9.567543    12.612127     22.30075    14.235163 
   35000    263.41169     59213631            0     59214657    12.683381    22.410391    14.188205    19.740575    33.269424    9.5373789    12.612127     22.30075    14.235163 
   35200    431.78137     59213124            0     59214805    12.683403    22.410453    14.187906    19.742753     33.27563    9.5074525    12.612127     22.30075    14.235163 
   35400    478.89268     59211885            0     59213750    12.683325     22.41035    14.188093    19.734911    33.265389    9.5261559    12.612127     22.30075    14.235163 
   35600    314.25811     59212887            0     59214111    12.683256    22.410404    14.187483    19.728032    33.270762      9.46514    12.612127     22.30075    14.235163 
   35800    409.12653     59211644            0     59213236    12.683276    22.410282    14.187951    19.730018    33.258556    9.5119236    12.612127     22.30075    14.235163 
   36000    479.63289     59211463            0     59213330    12.683324    22.410245    14.188247    19.734837    33.254867    9.5415058    12.612127     22.30075    14.235163 
   36200    392.68374     59212094            0     59213623    12.683305    22.410376    14.188426    19.732943    33.268008     9.559475    12.612127     22.30075    14.235163 
   36400    640.01586     59214456            0     59216947     12.68318    22.410406     14.18724    19.720458    33.270919    9.4407907    12.612127     22.30075    14.235163 
   36600    409.17764     59213401            0     59214994    12.683326    22.410413    14.188018    19.735058    33.271694    9.5186389    12.612127     22.30075    14.235163 
   36800     385.9931     59211751            0     59213254    12.683227    22.410342    14.188224    19.725125    33.264561    9.5392317    12.612127     22.30075    14.235163 
   37000     430.8438     59212098            0     59213775    12.683365    22.410378    14.187794    19.738936    33.268192    9.4962672    12.612127     22.30075    14.235163 
   37200    376.58091     59212451            0     59213917    12.683367    22.410329     14.18817    19.739116    33.263304    9.5338248    12.612127     22.30075    14.235163 
   37400    334.53144     59212484            0     59213787    12.683205    22.410202    14.188021    19.722947    33.250599    9.5189774    12.612127     22.30075    14.235163 
   37600     428.3453     59213729            0     59215397    12.683331     22.41048    14.188011    19.735545    33.278361    9.5179602    12.612127     22.30075    14.235163 
   37800     442.0269     59211453            0     59213174    12.683334    22.410482     14.18808     19.73588    33.278554    9.5248062    12.612127     22.30075    14.235163 
   38000    501.18114     59211500            0     59213452    12.683272    22.410318    14.188393    19.729672    33.262175    9.5561338    12.612127     22.30075    14.235163 
   38200    380.63698     59213952            0     59215434    12.683293    22.410235    14.186986    19.731709    33.253878    9.4154095    12.612127     22.30075    14.235163 
   38400    400.00982     59212609            0     59214166    12.683366    22.410364    14.188174    19.739088    33.266747    9.5342659    12.612127     22.30075    14.235163 
   38600    438.40754     59212851            0     59214558    12.683148    22.410473    14.188031    19.717252    33.277669    9.5199358    12.612127     22.30075    14.235163 
   38800    601.53084     59211594            0     59213935    12.683373    22.410408    14.188283    19.739776    33.271112    9.5451858    12.612127     22.30075    14.235163 
   39000    636.35455     59213043            0     59215520    12.683464    22.410212     14.18809    19.748872    33.251531    9.5258658    12.612127     22.30075    14.235163 
   39200    554.76341     59215072            0     59217231    12.683211    22.410373    14.187554    19.723564     33.26766     9.472249    12.612127     22.30075    14.235163 
   39400    273.44792     59213372            0     59214437    12.683242    22.410232    14.187687    19.726606    33.253531    9.4855348    12.612127     22.30075    14.235163 
   39600    271.58439     59213805            0     59214862    12.683365    22.410388    14.188392    19.738946    33.269148    9.5560916    12.612127     22.30075    14.235163 
   39800     362.7099     59212488            0     59213900     12.68333     22.41034    14.188194    19.735495    33.264313    9.5362391    12.612127     22.30075    14.235163 
   40000    512.96832     59212366            0     59214363    12.683344    22.410415    14.188036    19.736818    33.271884    9.5204085    12.612127     22.30075    14.235163 
   40200    529.50688     59213021            0     59215082    12.683358    22.410238    14.188419    19.738219    33.254202    9.5587209    12.612127     22.30075    14.235163 
   40400    463.24734     59212127            0     59213931    12.683255    22.410361    14.188105    19.727952    33.266508    9.5273926    12.612127     22.30075    14.235163 
   40600    319.47308     59213154            0     59214398     12.68329    22.410371    14.188011    19.731436    33.267491    9.5179444    12.612127     22.30075    14.235163 
   40800    246.56934     59213129            0     59214089    12.683252    22.410454    14.187944    19.727672    33.275802    9.5112183    12.612127     22.30075    14.235163 
   41000    353.51161     59213363            0     59214739    12.683391    22.410347    14.188327    19.741551     33.26505     9.549599    12.612127     22.30075    14.235163 
   41200    357.26517     59211903            0     59213294    12.683303    22.410473     14.18796    19.732765    33.277644    9.5128781    12.612127     22.30075    14.235163 
   41400    713.08886     59212442            0     59215218    12.683308    22.410375    14.188182    19.733268    33.267843    9.5350153    12.612127     22.30075    14.235163 
   41600    576.52265     59214057            0     59216301    12.683245    22.410471    14.188317    19.726965     33.27743    9.5485465    12.612127     22.30075    14.235163 
   41800    289.13573     59212002            0     59213127    12.683363    22.410381     14.18821    19.738773    33.268432    9.5378023    12.612127     22.30075    14.235163 
   42000    365.31004     59211220            0     59212643     12.68323    22.410232    14.188265    19.725486    33.253509    9.5433499    12.612127     22.30075    14.235163 
Loop time of 476.571 on 1 procs for 40000 steps with 1307 atoms

Performance: 3.626 ns/day, 6.619 hours/ns, 83.933 timesteps/s
100.0% CPU use with 1 MPI tasks x no OpenMP threads

MPI task timing breakdown:
Section |  min time  |  avg time  |  max time  |%varavg| %total
---------------------------------------------------------------
Pair    | 248        | 248        | 248        |   0.0 | 52.04
Bond    | 0.005949   | 0.005949   | 0.005949   |   0.0 |  0.00
Kspace  | 227.09     | 227.09     | 227.09     |   0.0 | 47.65
Neigh   | 0.051434   | 0.051434   | 0.051434   |   0.0 |  0.01
Comm    | 0.80578    | 0.80578    | 0.80578    |   0.0 |  0.17
Output  | 0.010429   | 0.010429   | 0.010429   |   0.0 |  0.00
Modify  | 0.31838    | 0.31838    | 0.31838    |   0.0 |  0.07
Other   |            | 0.2896     |            |       |  0.06

Nlocal:    1307 ave 1307 max 1307 min
Histogram: 1 0 0 0 0 0 0 0 0 0
Nghost:    7931 ave 7931 max 7931 min
Histogram: 1 0 0 0 0 0 0 0 0 0
Neighs:    491512 ave 491512 max 491512 min
Histogram: 1 0 0 0 0 0 0 0 0 0

Total # of neighbors = 491512
Ave neighs/atom = 376.061
Ave special neighs/atom = 0
Neighbor list builds = 3
Dangerous builds = 1
write_data         data_melt.data
PPPMDisp initialization ...
  Coulomb G vector (1/distance) = 0.264777
  Coulomb grid = 30 50 30
  Coulomb stencil order = 5
  Coulomb estimated absolute RMS force accuracy = 0.000346238
  Coulomb estimated relative force accuracy = 1.04269e-06
  using double precision FFTs
  3d grid and FFT values/proc = 78033 45000
unfix              3
fix                4 GUEST nvt temp 313 313 100.0

# get MOF COM
compute            MOFCOM MOF com
variable           MOFCOM1 equal c_MOFCOM[1]
variable           MOFCOM2 equal c_MOFCOM[2]
variable           MOFCOM3 equal c_MOFCOM[3]
thermo_style       custom step temp epair emol etotal c_comT[1] c_comT[2] c_comT[3] c_comG[1] c_comG[2] c_comG[3] c_comM[1] c_comM[2] c_comM[3] c_MOFCOM[1] c_MOFCOM[2] c_MOFCOM[3]

# don't make MOF flexible
run                0
PPPMDisp initialization ...
  Coulomb G vector (1/distance) = 0.264777
  Coulomb grid = 30 50 30
  Coulomb stencil order = 5
  Coulomb estimated absolute RMS force accuracy = 0.000346238
  Coulomb estimated relative force accuracy = 1.04269e-06
  using double precision FFTs
  3d grid and FFT values/proc = 78033 45000
Memory usage per processor = 12.3721 Mbytes
Step Temp E_pair E_mol TotEng comT[1] comT[2] comT[3] comG[1] comG[2] comG[3] comM[1] comM[2] comM[3] MOFCOM[1 MOFCOM[2 MOFCOM[3 
   42000    365.31004     59211220            0     59212643     12.68323    22.410232    14.188265    19.725486    33.253509    9.5433499    12.612127     22.30075    14.235163    12.612127     22.30075    14.235163 
Loop time of 9.53674e-07 on 1 procs for 0 steps with 1307 atoms

0.0% CPU use with 1 MPI tasks x no OpenMP threads

MPI task timing breakdown:
Section |  min time  |  avg time  |  max time  |%varavg| %total
---------------------------------------------------------------
Pair    | 0          | 0          | 0          |   0.0 |  0.00
Bond    | 0          | 0          | 0          |   0.0 |  0.00
Kspace  | 0          | 0          | 0          |   0.0 |  0.00
Neigh   | 0          | 0          | 0          |   0.0 |  0.00
Comm    | 0          | 0          | 0          |   0.0 |  0.00
Output  | 0          | 0          | 0          |   0.0 |  0.00
Modify  | 0          | 0          | 0          |   0.0 |  0.00
Other   |            | 9.537e-07  |            |       |100.00

Nlocal:    1307 ave 1307 max 1307 min
Histogram: 1 0 0 0 0 0 0 0 0 0
Nghost:    7931 ave 7931 max 7931 min
Histogram: 1 0 0 0 0 0 0 0 0 0
Neighs:    491482 ave 491482 max 491482 min
Histogram: 1 0 0 0 0 0 0 0 0 0

Total # of neighbors = 491482
Ave neighs/atom = 376.038
Ave special neighs/atom = 0
Neighbor list builds = 0
Dangerous builds = 0
velocity           GUEST create 313 38564
uncompute          MOFCOM
thermo_style       custom step temp epair emol etotal c_comT[1] c_comT[2] c_comT[3] c_comG[1] c_comG[2] c_comG[3] c_comM[1] c_comM[2] c_comM[3]
# fix                8 MOF recenter INIT INIT INIT shift all # Efrem says: technically should do this to get the diffusion coefficient correct, but not sure it works properly on rigid molecules, and it doesn't make a difference in practice because the drift is so small

# equilibration
run                1000000
PPPMDisp initialization ...
  Coulomb G vector (1/distance) = 0.264777
  Coulomb grid = 30 50 30
  Coulomb stencil order = 5
  Coulomb estimated absolute RMS force accuracy = 0.000346238
  Coulomb estimated relative force accuracy = 1.04269e-06
  using double precision FFTs
  3d grid and FFT values/proc = 78033 45000
Memory usage per processor = 12.3721 Mbytes
Step Temp E_pair E_mol TotEng comT[1] comT[2] comT[3] comG[1] comG[2] comG[3] comM[1] comM[2] comM[3] 
   42000    2.3966309     59211220            0     59211230     12.68323    22.410232    14.188265    19.725486    33.253509    9.5433499    12.612127     22.30075    14.235163 
   42200    830.06089     59212493            0     59215724    12.683382     22.41034    14.188018    19.740661    33.264374     9.518601    12.612127     22.30075    14.235163 
   42400    425.67162     59213610            0     59215267    12.683249    22.410336    14.187988    19.727387    33.263945    9.5156114    12.612127     22.30075    14.235163 
   42600    1000.0026     59212724            0     59216617    12.683124    22.410434    14.188336    19.714807    33.273804    9.5504931    12.612127     22.30075    14.235163 
   42800    492.79616     59212940            0     59214858    12.683384     22.41037    14.188206    19.740858    33.267393    9.5374141    12.612127     22.30075    14.235163 
   43000    375.08229     59212093            0     59213553    12.683422    22.410261     14.18786    19.744636    33.256436    9.5028111    12.612127     22.30075    14.235163 
   43200    530.01187     59214548            0     59216612    12.683304    22.410385    14.187542    19.732862    33.268851    9.4709936    12.612127     22.30075    14.235163 
   43400      462.672     59212699            0     59214500    12.683375    22.410467    14.188101    19.739943     33.27707    9.5269803    12.612127     22.30075    14.235163 
   43600    627.01576     59213446            0     59215887    12.683414    22.410268    14.188206    19.743851    33.257134     9.537482    12.612127     22.30075    14.235163 
   43800    359.17886     59212935            0     59214333    12.683344    22.410298     14.18744    19.736889     33.26011    9.4608012    12.612127     22.30075    14.235163 
   44000    421.41203     59214375            0     59216015    12.683465    22.410364    14.187945    19.748943    33.266757    9.5113197    12.612127     22.30075    14.235163 
   44200    399.54226     59213575            0     59215130    12.683236    22.410357    14.187683    19.726004    33.266057    9.4850759    12.612127     22.30075    14.235163 
   44400    292.99772     59213280            0     59214421     12.68337    22.410352    14.187865     19.73944    33.265593    9.5033827    12.612127     22.30075    14.235163 
   44600    391.20039     59212604            0     59214126    12.683441     22.41026    14.188253    19.746513    33.256341    9.5421629    12.612127     22.30075    14.235163 
   44800    440.23655     59213793            0     59215507    12.683468    22.410308    14.188657    19.749222    33.261176    9.5825163    12.612127     22.30075    14.235163 
   45000    455.65606     59212783            0     59214557    12.683274    22.410513    14.188078     19.72987    33.281687    9.5246665    12.612127     22.30075    14.235163 
   45200    371.52904     59212915            0     59214361    12.683367    22.410471    14.187845    19.739161    33.277464    9.5013762    12.612127     22.30075    14.235163 
   45400    485.73762     59214678            0     59216569    12.683305    22.410315    14.187323     19.73296    33.261854    9.4490615    12.612127     22.30075    14.235163 
   45600    365.53599     59211515            0     59212938    12.683416    22.410294    14.188155    19.744064    33.259708     9.532357    12.612127     22.30075    14.235163 
   45800    417.97394     59212516            0     59214143    12.683325    22.410244    14.187892    19.734923    33.254747    9.5060597    12.612127     22.30075    14.235163 
   46000    373.50197     59215260            0     59216714    12.683369    22.410385    14.188408    19.739341    33.268909    9.5576646    12.612127     22.30075    14.235163 
   46200    779.13043     59212325            0     59215358    12.683342    22.410319    14.187492    19.736626    33.262211    9.4659805    12.612127     22.30075    14.235163 
   46400     325.3414     59211889            0     59213155    12.683235    22.410399    14.187693    19.725943    33.270304    9.4861725    12.612127     22.30075    14.235163 
   46600    561.79605     59211631            0     59213818    12.683457    22.410376    14.188233    19.748154    33.267965    9.5401604    12.612127     22.30075    14.235163 
   46800    308.38754     59213093            0     59214293     12.68323     22.41029     14.18842    19.725456    33.259337    9.5588783    12.612127     22.30075    14.235163 
   47000    917.62445     59211177            0     59214750    12.683417    22.410368    14.188228    19.744164    33.267186    9.5396151    12.612127     22.30075    14.235163 
   47200    560.15459     59211983            0     59214164    12.683162    22.410245    14.187806    19.718651    33.254814    9.4974512    12.612127     22.30075    14.235163 
   47400    294.41504     59213940            0     59215086    12.683335    22.410308    14.187823    19.735929    33.261137    9.4991258    12.612127     22.30075    14.235163 
   47600    360.41645     59212532            0     59213935    12.683322    22.410334    14.188422    19.734692    33.263745    9.5590186    12.612127     22.30075    14.235163 
   47800    323.31951     59213578            0     59214837    12.683368    22.410277    14.187751    19.739221    33.258058    9.4918837    12.612127     22.30075    14.235163 
   48000    426.99325     59213834            0     59215496    12.683316    22.410421    14.187403    19.734018    33.272438    9.4570658    12.612127     22.30075    14.235163 
   48200    427.08964     59212425            0     59214088    12.683324    22.410392    14.188095    19.734821    33.269561    9.5263918    12.612127     22.30075    14.235163 
   48400    594.14466     59212021            0     59214334    12.683395    22.410356    14.188288    19.741918    33.265911    9.5456307    12.612127     22.30075    14.235163 
   48600    424.71241     59213562            0     59215216    12.683383    22.410289     14.18769    19.740759    33.259226    9.4858019    12.612127     22.30075    14.235163 
   48800    503.74222     59212027            0     59213988    12.683331    22.410486    14.187931    19.735591    33.278972    9.5099826    12.612127     22.30075    14.235163 
   49000    240.74437     59214123            0     59215061    12.683191    22.410432    14.188039    19.721566    33.273568    9.5207604    12.612127     22.30075    14.235163 
   49200    386.96148     59212903            0     59214410    12.683228    22.410362    14.188099    19.725284    33.266598    9.5267373    12.612127     22.30075    14.235163 
   49400    276.84598     59211770            0     59212848    12.683294    22.410438    14.187786    19.731822    33.274122    9.4953945    12.612127     22.30075    14.235163 
   49600    395.58823     59216406            0     59217946     12.68331    22.410427    14.187657    19.733496    33.273055    9.4824766    12.612127     22.30075    14.235163 
   49800    392.76895     59211587            0     59213116    12.683322    22.410327    14.188072    19.734688    33.263089    9.5240336    12.612127     22.30075    14.235163 
   50000    621.13687     59211859            0     59214277    12.683245    22.410333    14.188368    19.726937    33.263693    9.5536424    12.612127     22.30075    14.235163 
   50200    296.44824     59213426            0     59214580    12.683392    22.410286    14.187515    19.741696    33.258981    9.4683317    12.612127     22.30075    14.235163 
   50400    160.00755     59213708            0     59214331    12.683302    22.410373     14.18858    19.732669    33.267671    9.5748931    12.612127     22.30075    14.235163 
   50600    276.08832     59212739            0     59213814    12.683308    22.410341    14.188266    19.733241    33.264472    9.5434091    12.612127     22.30075    14.235163 
   50800    362.18487     59214182            0     59215592    12.683294    22.410379    14.188127    19.731868    33.268255    9.5295253    12.612127     22.30075    14.235163 
   51000    661.23449     59212501            0     59215075    12.683304     22.41039    14.187817    19.732807    33.269327    9.4985342    12.612127     22.30075    14.235163 
   51200    320.64235     59212180            0     59213428    12.683402    22.410312    14.187869    19.742679    33.261537     9.503741    12.612127     22.30075    14.235163 
   51400    448.72634     59212270            0     59214016    12.683271     22.41049    14.187947    19.729529    33.279336    9.5114948    12.612127     22.30075    14.235163 
   51600    298.44837     59212216            0     59213377    12.683282    22.410417    14.187807    19.730648    33.272033    9.4975397    12.612127     22.30075    14.235163 
   51800    411.02684     59212106            0     59213707    12.683346    22.410261    14.188588    19.737027    33.256469    9.5756466    12.612127     22.30075    14.235163 
   52000    423.54935     59212414            0     59214063    12.683305    22.410273    14.188396    19.732939    33.257689    9.5564217    12.612127     22.30075    14.235163 
   52200    374.18695     59213554            0     59215010    12.683441    22.410341    14.187984    19.746589    33.264447    9.5152642    12.612127     22.30075    14.235163 
   52400    479.40468     59213388            0     59215255    12.683321    22.410496     14.18773    19.734506     33.27999    9.4898714    12.612127     22.30075    14.235163 
   52600    420.95991     59212328            0     59213967    12.683365    22.410352    14.187706    19.738978    33.265552    9.4873903    12.612127     22.30075    14.235163 
   52800    437.30137     59213586            0     59215288    12.683434    22.410381    14.188002     19.74583    33.268475    9.5170596    12.612127     22.30075    14.235163 
   53000    489.30049     59212260            0     59214165    12.683262    22.410405    14.187989    19.728682    33.270877    9.5157168    12.612127     22.30075    14.235163 
   53200    330.38846     59211471            0     59212757    12.683311    22.410318    14.187884    19.733522    33.262152    9.5052286    12.612127     22.30075    14.235163 
   53400    252.87569     59212253            0     59213238    12.683245    22.410395     14.18807    19.726903    33.269884    9.5238616    12.612127     22.30075    14.235163 
   53600    418.53648     59211623            0     59213252    12.683317     22.41029    14.187919    19.734122    33.259327    9.5087706    12.612127     22.30075    14.235163 
   53800    243.09918     59211383            0     59212329    12.683379    22.410368    14.188322    19.740327      33.2672    9.5490182    12.612127     22.30075    14.235163 
   54000    329.20536     59214255            0     59215536     12.68333    22.410278    14.187603    19.735457     33.25816    9.4771525    12.612127     22.30075    14.235163 
   54200    374.02209     59212436            0     59213892     12.68337    22.410348    14.187905    19.739435    33.265182    9.5073197    12.612127     22.30075    14.235163 
   54400    448.47607     59210652            0     59212398    12.683333    22.410347    14.188136    19.735768    33.265025     9.530461    12.612127     22.30075    14.235163 
   54600     250.1911     59212928            0     59213902    12.683231    22.410364    14.187485    19.725537    33.266806    9.4653527    12.612127     22.30075    14.235163 
   54800    378.72604     59212335            0     59213809    12.683364    22.410288    14.187497    19.738846    33.259146    9.4665379    12.612127     22.30075    14.235163 
   55000    551.89269     59211115            0     59213264    12.683298    22.410346    14.187967    19.732228    33.264953     9.513581    12.612127     22.30075    14.235163 
   55200     305.2722     59213853            0     59215041    12.683365    22.410397    14.187991    19.738988     33.27002    9.5159161    12.612127     22.30075    14.235163 
   55400    598.04308     59212029            0     59214357    12.683236    22.410367    14.188053    19.726005    33.267093    9.5221752    12.612127     22.30075    14.235163 
   55600    400.87787     59213358            0     59214919    12.683365    22.410341    14.187566    19.738982    33.264456    9.4734449    12.612127     22.30075    14.235163 
   55800     362.2829     59211478            0     59212888    12.683308    22.410411    14.187782      19.7332     33.27145    9.4949895    12.612127     22.30075    14.235163 
   56000    217.27615     59212769            0     59213615    12.683233    22.410347    14.188033    19.725725    33.265039    9.5201125    12.612127     22.30075    14.235163 
   56200    492.66597     59212473            0     59214391    12.683286    22.410374    14.188086    19.731067    33.267753    9.5254349    12.612127     22.30075    14.235163 
   56400    293.46652     59212667            0     59213809    12.683293    22.410315     14.18809    19.731796    33.261827    9.5258746    12.612127     22.30075    14.235163 
   56600    255.49651     59213110            0     59214104    12.683395    22.410311    14.188282     19.74197    33.261474    9.5450244    12.612127     22.30075    14.235163 
   56800    706.32894     59212983            0     59215733    12.683267    22.410382    14.187968    19.729119    33.268517    9.5136527    12.612127     22.30075    14.235163 
   57000    379.05424     59212981            0     59214457    12.683268    22.410383    14.188253    19.729293    33.268702    9.5421106    12.612127     22.30075    14.235163 
   57200    239.10324     59213463            0     59214394    12.683329    22.410344    14.187658    19.735352    33.264771    9.4826572    12.612127     22.30075    14.235163 
   57400     251.7103     59214779            0     59215759    12.683316     22.41038    14.187894    19.734023    33.268369    9.5062648    12.612127     22.30075    14.235163 
   57600    259.59369     59212996            0     59214007    12.683407    22.410422    14.187615    19.743107    33.272568    9.4783664    12.612127     22.30075    14.235163 
   57800    492.23728     59212921            0     59214837    12.683304    22.410281    14.187528    19.732858    33.258501    9.4696401    12.612127     22.30075    14.235163 
   58000    555.17255     59211586            0     59213747    12.683396    22.410413    14.188334    19.742027    33.271616    9.5502291    12.612127     22.30075    14.235163 
   58200    285.51025     59215031            0     59216142     12.68325    22.410381    14.187983    19.727409    33.268423    9.5151447    12.612127     22.30075    14.235163 
   58400    337.67178     59214647            0     59215962    12.683336    22.410358    14.188396    19.736008    33.266126    9.5564325    12.612127     22.30075    14.235163 
   58600    532.58381     59213497            0     59215570    12.683342    22.410351    14.188225    19.736656    33.265416    9.5393259    12.612127     22.30075    14.235163 
   58800    258.48275     59212711            0     59213717    12.683318    22.410283    14.188116    19.734289    33.258629    9.5284728    12.612127     22.30075    14.235163 
   59000    196.13817     59212314            0     59213077    12.683262    22.410348    14.187888    19.728605    33.265148    9.5056447    12.612127     22.30075    14.235163 
   59200    302.59204     59213244            0     59214422     12.68339    22.410245    14.187566    19.741472    33.254844    9.4734611    12.612127     22.30075    14.235163 
   59400    417.28566     59211543            0     59213168     12.68334    22.410344    14.188203    19.736423     33.26472    9.5371322    12.612127     22.30075    14.235163 
   59600    305.74098     59212155            0     59213345    12.683322    22.410402    14.187937     19.73461    33.270578    9.5104875    12.612127     22.30075    14.235163 
   59800    300.33801     59214061            0     59215230    12.683351    22.410356    14.188114    19.737587    33.265987    9.5282368    12.612127     22.30075    14.235163 
   60000    245.14745     59212882            0     59213837    12.683345    22.410384    14.188023    19.736949     33.26876    9.5190976    12.612127     22.30075    14.235163 
   60200    373.86976     59212594            0     59214050    12.683298     22.41034     14.18839    19.732253    33.264357    9.5558114    12.612127     22.30075    14.235163 
   60400     224.7706     59212782            0     59213657    12.683394    22.410362    14.188311    19.741881    33.266565    9.5479168    12.612127     22.30075    14.235163 
   60600    310.83807     59212267            0     59213477    12.683267    22.410378    14.188168    19.729172    33.268152     9.533692    12.612127     22.30075    14.235163 
   60800      398.296     59215712            0     59217263    12.683354    22.410322    14.186977    19.737872    33.262543    9.4145419    12.612127     22.30075    14.235163 
   61000    255.39403     59213032            0     59214027    12.683299    22.410295    14.188104    19.732327    33.259883     9.527274    12.612127     22.30075    14.235163 
   61200      428.566     59212514            0     59214182    12.683337    22.410384    14.188027    19.736121    33.268791    9.5195665    12.612127     22.30075    14.235163 
   61400    424.40916     59211621            0     59213273    12.683332    22.410435    14.187781    19.735656    33.273877    9.4949227    12.612127     22.30075    14.235163 
   61600    423.44572     59213655            0     59215304    12.683241    22.410287    14.187178    19.726509    33.259083    9.4345751    12.612127     22.30075    14.235163 
   61800    333.94686     59211115            0     59212415     12.68323    22.410283     14.18787    19.725478    33.258632    9.5038534    12.612127     22.30075    14.235163 
   62000    300.03725     59213268            0     59214436    12.683311     22.41033    14.188422    19.733587    33.263315    9.5590425    12.612127     22.30075    14.235163 
   62200     487.3293     59211535            0     59213433    12.683354    22.410377    14.188524    19.737807    33.268068    9.5692853    12.612127     22.30075    14.235163 
   62400    373.32807     59212042            0     59213495    12.683336    22.410375    14.187688    19.736097    33.267876    9.4855793    12.612127     22.30075    14.235163 
   62600    235.30973     59215159            0     59216075    12.683294    22.410368    14.188144    19.731863    33.267131    9.5312562    12.612127     22.30075    14.235163 
   62800    301.95486     59212701            0     59213876    12.683254    22.410422    14.187375    19.727871    33.272533    9.4543585    12.612127     22.30075    14.235163 
   63000    344.24359     59214514            0     59215854    12.683313    22.410383    14.187408    19.733719    33.268624    9.4576073    12.612127     22.30075    14.235163 
   63200    354.07656     59214051            0     59215429    12.683254    22.410379    14.187654    19.727856    33.268216    9.4822395    12.612127     22.30075    14.235163 
   63400    187.59136     59211561            0     59212292    12.683329    22.410344     14.18789    19.735344    33.264753    9.5058345    12.612127     22.30075    14.235163 
   63600    439.70106     59212154            0     59213865    12.683357    22.410395    14.187961    19.738159    33.269889     9.512899    12.612127     22.30075    14.235163 
   63800    425.42806     59211377            0     59213033    12.683286    22.410406    14.187863    19.731085    33.270939    9.5031741    12.612127     22.30075    14.235163 
   64000    303.26173     59211936            0     59213117    12.683323    22.410357    14.188235    19.734789    33.266032     9.540315    12.612127     22.30075    14.235163 
   64200    231.66425     59211255            0     59212157    12.683394    22.410357     14.18816    19.741878     33.26604    9.5328108    12.612127     22.30075    14.235163 
   64400    426.88567     59213943            0     59215605     12.68328    22.410306    14.187647    19.730468     33.26097    9.4815375    12.612127     22.30075    14.235163 
   64600    568.39852     59213635            0     59215848    12.683295    22.410315    14.187696    19.731932    33.261827    9.4863779    12.612127     22.30075    14.235163 
   64800    131.35134     59212709            0     59213220    12.683251    22.410353    14.188662    19.727495    33.265666    9.5830428    12.612127     22.30075    14.235163 
   65000    176.81407     59214472            0     59215160    12.683289    22.410345    14.187568     19.73132    33.264873     9.473652    12.612127     22.30075    14.235163 
   65200    153.21422     59213730            0     59214327    12.683298    22.410258    14.188368    19.732238    33.256174    9.5536744    12.612127     22.30075    14.235163 
   65400    396.27384     59211917            0     59213460    12.683285    22.410325    14.187601    19.730975    33.262822    9.4769565    12.612127     22.30075    14.235163 
   65600    493.80071     59211554            0     59213476    12.683304    22.410331    14.187912    19.732861    33.263418    9.5080169    12.612127     22.30075    14.235163 
   65800    150.21237     59213190            0     59213775    12.683367    22.410258    14.187996    19.739197    33.256145    9.5164883    12.612127     22.30075    14.235163 
   66000    276.34725     59213367            0     59214443    12.683268    22.410372    14.187758    19.729267    33.267522    9.4926325    12.612127     22.30075    14.235163 
   66200    334.93139     59213377            0     59214680    12.683293    22.410372    14.187762    19.731701    33.267555    9.4930225    12.612127     22.30075    14.235163 
   66400    352.38412     59212835            0     59214207    12.683372    22.410241    14.188565    19.739678    33.254497    9.5733808    12.612127     22.30075    14.235163 
   66600    331.18323     59214069            0     59215358    12.683248    22.410331    14.188146    19.727201     33.26343    9.5314084    12.612127     22.30075    14.235163 
   66800    249.42194     59212987            0     59213958    12.683305    22.410448    14.187505    19.732922    33.275126    9.4673028    12.612127     22.30075    14.235163 
   67000    257.65151     59213149            0     59214152    12.683304    22.410309     14.18833    19.732847    33.261214    9.5498733    12.612127     22.30075    14.235163 
   67200    314.46045     59211803            0     59213027    12.683247    22.410283    14.188272    19.727167    33.258663    9.5440411    12.612127     22.30075    14.235163 
   67400    421.69579     59213221            0     59214863    12.683359    22.410332    14.187804    19.738398    33.263558    9.4972316    12.612127     22.30075    14.235163 
   67600     323.9198     59213275            0     59214536     12.68328    22.410375    14.188199    19.730442     33.26782    9.5367951    12.612127     22.30075    14.235163 
   67800    362.64955     59212393            0     59213804    12.683471    22.410347    14.188182    19.749558    33.265039    9.5350208    12.612127     22.30075    14.235163 
   68000    205.66697     59214267            0     59215068    12.683236    22.410418     14.18776    19.726064    33.272164    9.4928434    12.612127     22.30075    14.235163 
   68200    227.66495     59214551            0     59215437    12.683272     22.41036    14.187754    19.729607    33.266356    9.4922037    12.612127     22.30075    14.235163 
   68400    241.81774     59213132            0     59214073    12.683283     22.41027    14.187922     19.73077    33.257381    9.5090226    12.612127     22.30075    14.235163 
   68600    202.57714     59213141            0     59213930    12.683361    22.410343    14.187886    19.738509    33.264613    9.5054711    12.612127     22.30075    14.235163 
   68800    183.33803     59212532            0     59213245    12.683303    22.410399    14.187447     19.73277    33.270298    9.4614716    12.612127     22.30075    14.235163 
   69000    211.20169     59212605            0     59213427    12.683309    22.410335    14.188027    19.733307    33.263838    9.5195612    12.612127     22.30075    14.235163 
   69200    239.08612     59211441            0     59212371    12.683383    22.410325    14.188318    19.740775    33.262846    9.5486757    12.612127     22.30075    14.235163 
   69400    266.39292     59214291            0     59215328    12.683227    22.410319    14.187941    19.725164    33.262231    9.5109326    12.612127     22.30075    14.235163 
   69600    571.85891     59213104            0     59215330    12.683335    22.410398    14.187307    19.735943    33.270162    9.4474675    12.612127     22.30075    14.235163 
   69800    205.28354     59212094            0     59212893    12.683352    22.410401    14.188091    19.737672    33.270441    9.5258936    12.612127     22.30075    14.235163 
   70000    221.13789     59212893            0     59213754    12.683306    22.410325     14.18732    19.732999    33.262902    9.4488591    12.612127     22.30075    14.235163 
   70200    569.31909     59212715            0     59214932     12.68343    22.410402    14.187475     19.74545    33.270546     9.464308    12.612127     22.30075    14.235163 
   70400    307.89422     59212192            0     59213391    12.683304    22.410399    14.187898    19.732845    33.270263    9.5066591    12.612127     22.30075    14.235163 
   70600    236.98167     59212236            0     59213158    12.683313    22.410297    14.188471    19.733765    33.260021    9.5639238    12.612127     22.30075    14.235163 
   70800     227.5061     59213242            0     59214128     12.68322    22.410263    14.188119    19.724451    33.256674    9.5287156    12.612127     22.30075    14.235163 
   71000    273.40978     59214898            0     59215962    12.683264    22.410323    14.187764    19.728849    33.262618    9.4932391    12.612127     22.30075    14.235163 
   71200    290.78539     59215842            0     59216974     12.68329     22.41039    14.188208    19.731456    33.269325    9.5376153    12.612127     22.30075    14.235163 
   71400    419.84308     59211780            0     59213415     12.68339     22.41032    14.188256    19.741441    33.262373    9.5424563    12.612127     22.30075    14.235163 
   71600    399.99576     59214723            0     59216280    12.683282    22.410413    14.187936    19.730685    33.271624    9.5104288    12.612127     22.30075    14.235163 
   71800    373.20027     59214735            0     59216188    12.683384    22.410345    14.187228      19.7409    33.264823    9.4395607    12.612127     22.30075    14.235163 
   72000      416.321     59213195            0     59214816    12.683333    22.410352    14.187455     19.73579    33.265597    9.4623606    12.612127     22.30075    14.235163 
   72200    349.75462     59212245            0     59213607     12.68336    22.410239    14.187595    19.738496    33.254209    9.4763589    12.612127     22.30075    14.235163 
   72400    509.53509     59212295            0     59214279    12.683352    22.410312     14.18846    19.737621    33.261546    9.5628406    12.612127     22.30075    14.235163 
   72600    265.71555     59213217            0     59214251    12.683295    22.410381    14.187913    19.731934    33.268424    9.5081422    12.612127     22.30075    14.235163 
   72800    445.52204     59211832            0     59213566    12.683336    22.410351    14.188283    19.736041    33.265496     9.545191    12.612127     22.30075    14.235163 
   73000    213.79816     59211813            0     59212646     12.68333    22.410329     14.18765    19.735409    33.263237    9.4818218    12.612127     22.30075    14.235163 
   73200    178.56176     59213575            0     59214270    12.683307    22.410318    14.188186    19.733139    33.262196     9.535483    12.612127     22.30075    14.235163 
   73400    217.63276     59212723            0     59213570    12.683245    22.410372    14.188251    19.726896    33.267577    9.5419261    12.612127     22.30075    14.235163 
   73600    297.57858     59212734            0     59213893    12.683272    22.410393    14.188549    19.729666    33.269667    9.5717763    12.612127     22.30075    14.235163 
   73800    156.92547     59212453            0     59213064    12.683346    22.410258    14.187728    19.737084    33.256141    9.4896242    12.612127     22.30075    14.235163 
   74000    147.06182     59212169            0     59212742    12.683316    22.410396    14.188036    19.734009    33.269933    9.5204349    12.612127     22.30075    14.235163 
   74200     257.8827     59212669            0     59213673    12.683286    22.410338     14.18752    19.731016    33.264177    9.4688073    12.612127     22.30075    14.235163 
   74400    201.52023     59213408            0     59214193    12.683324    22.410379     14.18802    19.734895    33.268215    9.5188621    12.612127     22.30075    14.235163 
   74600    403.05956     59212604            0     59214173    12.683286     22.41032    14.187985     19.73104    33.262395    9.5153767    12.612127     22.30075    14.235163 
   74800    244.27836     59213634            0     59214585    12.683303    22.410396    14.188488    19.732779    33.269997    9.5657045    12.612127     22.30075    14.235163 
   75000    383.69043     59213025            0     59214519    12.683356    22.410309    14.188409    19.738059    33.261266    9.5577378    12.612127     22.30075    14.235163 
   75200    192.07201     59213504            0     59214251    12.683307      22.4103    14.188251    19.733171     33.26033    9.5419052    12.612127     22.30075    14.235163 
   75400    208.05435     59210770            0     59211580    12.683332    22.410361    14.188086    19.735637    33.266506      9.52547    12.612127     22.30075    14.235163 
   75600    226.50529     59212169            0     59213051    12.683283    22.410279    14.187915    19.730724    33.258283    9.5083048    12.612127     22.30075    14.235163 
   75800    265.69329     59212474            0     59213508    12.683327    22.410316    14.187809    19.735109    33.261961     9.497747    12.612127     22.30075    14.235163 
   76000    343.05913     59213418            0     59214753    12.683328    22.410371    14.187847    19.735295    33.267481     9.501551    12.612127     22.30075    14.235163 
   76200    244.34091     59212723            0     59213674    12.683281     22.41038    14.187788     19.73054    33.268377    9.4956201    12.612127     22.30075    14.235163 
   76400    280.07951     59211693            0     59212783    12.683318    22.410355    14.188017    19.734198    33.265865    9.5185495    12.612127     22.30075    14.235163 
   76600    301.75411     59211798            0     59212972    12.683403    22.410318    14.188552    19.742749    33.262182    9.5720255    12.612127     22.30075    14.235163 
   76800    246.94977     59213146            0     59214107    12.683337    22.410286    14.188043    19.736154     33.25895    9.5211744    12.612127     22.30075    14.235163 
   77000    226.47171     59215210            0     59216091    12.683304    22.410384    14.187052    19.732876    33.268793    9.4219859    12.612127     22.30075    14.235163 
   77200    226.62444     59212600            0     59213482    12.683303    22.410424    14.187748    19.732734    33.272715    9.4916266    12.612127     22.30075    14.235163 
   77400    345.52229     59211741            0     59213086    12.683275    22.410366    14.188022    19.729947    33.266985    9.5190246    12.612127     22.30075    14.235163 
   77600    404.23261     59211835            0     59213409    12.683293    22.410393    14.188801    19.731789    33.269636    9.5970207    12.612127     22.30075    14.235163 
   77800    223.54366     59212643            0     59213513    12.683296    22.410343    14.188815    19.732057    33.264689    9.5983363    12.612127     22.30075    14.235163 
   78000    234.61557     59213710            0     59214624    12.683313    22.410325     14.18724    19.733701    33.262881    9.4408476    12.612127     22.30075    14.235163 
   78200    357.90897     59214732            0     59216125    12.683281    22.410342     14.18774    19.730497      33.2646    9.4908484    12.612127     22.30075    14.235163 
   78400    518.36635     59213083            0     59215101    12.683329    22.410326    14.188417    19.735367     33.26291    9.5585891    12.612127     22.30075    14.235163 
   78600    310.91129     59213452            0     59214663     12.68334     22.41038    14.188741    19.736487    33.268355    9.5910002    12.612127     22.30075    14.235163 
   78800     285.4419     59213596            0     59214707    12.683331    22.410415    14.188212    19.735535    33.271866    9.5380518    12.612127     22.30075    14.235163 
   79000    373.94401     59212535            0     59213991    12.683405    22.410395    14.188635    19.742995     33.26991     9.580331    12.612127     22.30075    14.235163 
   79200    324.67442     59212881            0     59214145    12.683294    22.410389    14.187752    19.731798    33.269249    9.4919924    12.612127     22.30075    14.235163 
   79400    320.63405     59211168            0     59212416    12.683338    22.410445    14.188015    19.736298    33.274901    9.5183364    12.612127     22.30075    14.235163 
   79600    401.81061     59214371            0     59215935    12.683294    22.410326     14.18738    19.731799     33.26295     9.454768    12.612127     22.30075    14.235163 
   79800     458.7045     59211596            0     59213382    12.683251    22.410308    14.188412     19.72753    33.261134    9.5580316    12.612127     22.30075    14.235163 
   80000    202.85797     59212119            0     59212909    12.683329    22.410271    14.187651    19.735347    33.257412    9.4819186    12.612127     22.30075    14.235163 
   80200    151.10265     59214467            0     59215055    12.683355    22.410317    14.187953    19.737922    33.262024    9.5121559    12.612127     22.30075    14.235163 
   80400    165.16545     59212707            0     59213350    12.683317    22.410329    14.187815    19.734146    33.263296    9.4983084    12.612127     22.30075    14.235163 
   80600    199.66847     59213323            0     59214100    12.683265    22.410324    14.187771    19.728907    33.262783    9.4939387    12.612127     22.30075    14.235163 
   80800    150.99712     59213385            0     59213973    12.683321    22.410357    14.187979    19.734538    33.266016    9.5147665    12.612127     22.30075    14.235163 
   81000    257.84353     59213670            0     59214674    12.683262      22.4104    14.188044     19.72868     33.27039    9.5212869    12.612127     22.30075    14.235163 
   81200    432.92152     59211717            0     59213403     12.68337    22.410357    14.188468      19.7394    33.266104    9.5636139    12.612127     22.30075    14.235163 
   81400    209.20048     59212654            0     59213468    12.683381     22.41032    14.188247     19.74054    33.262378    9.5415987    12.612127     22.30075    14.235163 
   81600    197.69997     59216873            0     59217643    12.683281    22.410379    14.187142     19.73053    33.268236    9.4309686    12.612127     22.30075    14.235163 
   81800    555.99032     59213549            0     59215714    12.683451    22.410357    14.187043    19.747602    33.266031    9.4210577    12.612127     22.30075    14.235163 
   82000    375.26854     59212860            0     59214321    12.683309    22.410347    14.187833    19.733322    33.265046    9.5000837    12.612127     22.30075    14.235163 
   82200    332.52094     59214202            0     59215497    12.683348    22.410375    14.187604     19.73728    33.267896    9.4772139    12.612127     22.30075    14.235163 
   82400    100.19529     59213822            0     59214212    12.683305    22.410306    14.187794    19.732959    33.260942    9.4962569    12.612127     22.30075    14.235163 
   82600    303.08166     59213457            0     59214637    12.683397     22.41041    14.188388     19.74216    33.271389      9.55568    12.612127     22.30075    14.235163 
   82800    234.74014     59213929            0     59214843    12.683289    22.410316    14.187838    19.731325    33.261911    9.5006134    12.612127     22.30075    14.235163 
   83000    164.13896     59211147            0     59211786    12.683326    22.410327     14.18835    19.735085    33.263085    9.5518408    12.612127     22.30075    14.235163 
   83200    291.95067     59214103            0     59215239    12.683317    22.410419    14.187623    19.734124    33.272221    9.4791053    12.612127     22.30075    14.235163 
   83400    324.03116     59213205            0     59214467    12.683298    22.410379    14.187506     19.73227    33.268232    9.4674667    12.612127     22.30075    14.235163 
   83600    322.81994     59211833            0     59213090    12.683316    22.410341    14.187638    19.734063    33.264432    9.4806498    12.612127     22.30075    14.235163 
   83800    273.11967     59215306            0     59216369    12.683355    22.410339    14.187229    19.737997    33.264259    9.4396861    12.612127     22.30075    14.235163 
   84000    285.82441     59213576            0     59214689    12.683379     22.41028    14.189118    19.740359    33.258329    9.6287307    12.612127     22.30075    14.235163 
   84200    294.40317     59211214            0     59212360    12.683219    22.410344    14.188433    19.724308     33.26475     9.560195    12.612127     22.30075    14.235163 
   84400    302.84244     59212521            0     59213700    12.683245     22.41033     14.18825    19.726965    33.263356    9.5418449    12.612127     22.30075    14.235163 
   84600    191.89731     59212731            0     59213478    12.683325    22.410326    14.187492    19.734974    33.262976     9.465995    12.612127     22.30075    14.235163 
   84800    592.05398     59211989            0     59214293     12.68332    22.410389    14.187949     19.73447    33.269258    9.5117508    12.612127     22.30075    14.235163 
   85000    307.58845     59212518            0     59213715    12.683277    22.410358    14.187683    19.730127    33.266192    9.4850915    12.612127     22.30075    14.235163 
   85200    304.21926     59213416            0     59214600    12.683322      22.4104    14.187642    19.734635    33.270394    9.4809776    12.612127     22.30075    14.235163 
   85400    439.88344     59214334            0     59216046    12.683271    22.410325    14.187146    19.729509    33.262856    9.4314431    12.612127     22.30075    14.235163 
   85600    403.39215     59211386            0     59212957    12.683349    22.410334    14.188044    19.737378    33.263726    9.5212377    12.612127     22.30075    14.235163 
   85800    352.77044     59213489            0     59214862    12.683319    22.410402    14.187483    19.734301    33.270601    9.4650928    12.612127     22.30075    14.235163 
   86000    268.34484     59213302            0     59214346    12.683333    22.410335     14.18768    19.735746    33.263875    9.4847773    12.612127     22.30075    14.235163 
   86200    352.41517     59212336            0     59213708    12.683262    22.410326    14.188007    19.728631    33.263002    9.5175464    12.612127     22.30075    14.235163 
   86400    181.62201     59214106            0     59214813    12.683304    22.410323    14.187475    19.732817    33.262629    9.4642933    12.612127     22.30075    14.235163 
   86600    363.82939     59212325            0     59213741    12.683355    22.410305    14.188021     19.73794    33.260824    9.5189216    12.612127     22.30075    14.235163 
   86800    432.19974     59214287            0     59215969    12.683269    22.410392    14.188192    19.729313    33.269564    9.5360299    12.612127     22.30075    14.235163 
   87000    388.52621     59212847            0     59214359    12.683292    22.410464    14.187837     19.73161    33.276769    9.5005572    12.612127     22.30075    14.235163 
   87200    92.746964     59214180            0     59214541    12.683334    22.410353    14.187493     19.73586    33.265689    9.4661425    12.612127     22.30075    14.235163 
   87400    224.95048     59213378            0     59214253    12.683203    22.410358    14.187757    19.722763    33.266135    9.4925614    12.612127     22.30075    14.235163 
   87600    284.96718     59211824            0     59212933    12.683311     22.41039    14.188001     19.73358    33.269339    9.5169452    12.612127     22.30075    14.235163 
   87800    215.68999     59211697            0     59212536    12.683271    22.410398    14.188013     19.72959    33.270125    9.5181389    12.612127     22.30075    14.235163 
   88000    324.57846     59213167            0     59214431    12.683349    22.410352    14.187825     19.73738    33.265559    9.4993137    12.612127     22.30075    14.235163 
   88200    208.14237     59213792            0     59214602    12.683275     22.41036    14.187174    19.729975    33.266316    9.4342474    12.612127     22.30075    14.235163 
   88400    203.23718     59213434            0     59214225    12.683294    22.410398    14.188248    19.731825    33.270186     9.541631    12.612127     22.30075    14.235163 
   88600    200.96492     59212869            0     59213651    12.683278    22.410387    14.188249    19.730204    33.269042    9.5417698    12.612127     22.30075    14.235163 
   88800     358.6307     59211497            0     59212894    12.683323    22.410318    14.188531    19.734727    33.262151    9.5699694    12.612127     22.30075    14.235163 
   89000    271.39957     59214056            0     59215113    12.683268     22.41042    14.188172    19.729285     33.27235    9.5340284    12.612127     22.30075    14.235163 
   89200    215.47233     59213757            0     59214595    12.683285    22.410353    14.187266    19.730929    33.265699    9.4434487    12.612127     22.30075    14.235163 
   89400     244.0634     59212517            0     59213467     12.68338    22.410314    14.188557    19.740439    33.261785     9.572547    12.612127     22.30075    14.235163 
   89600    285.57447     59213466            0     59214578    12.683295      22.4103     14.18748    19.731909    33.260315    9.4648533    12.612127     22.30075    14.235163 
   89800    488.34834     59211877            0     59213778    12.683307    22.410349    14.187907    19.733147    33.265307    9.5075134    12.612127     22.30075    14.235163 
   90000    320.03219     59213156            0     59214401    12.683309    22.410353    14.187532    19.733304    33.265705    9.4699893    12.612127     22.30075    14.235163 
   90200    261.19089     59212038            0     59213055    12.683419    22.410304    14.188149    19.744341    33.260753    9.5317935    12.612127     22.30075    14.235163 
   90400    175.57198     59211554            0     59212238    12.683279     22.41029    14.187637     19.73031    33.259386     9.480535    12.612127     22.30075    14.235163 
   90600     313.4026     59211212            0     59212432    12.683291     22.41027    14.188542    19.731548    33.257393    9.5710854    12.612127     22.30075    14.235163 
   90800      317.254     59213391            0     59214626    12.683319     22.41031    14.187959    19.734397    33.261397    9.5127424    12.612127     22.30075    14.235163 
   91000    280.45925     59212808            0     59213900    12.683365    22.410318    14.187361    19.738992    33.262189    9.4528655    12.612127     22.30075    14.235163 
   91200     173.9814     59213487            0     59214165    12.683263    22.410271    14.187928    19.728719    33.257473    9.5096061    12.612127     22.30075    14.235163 
   91400    158.32769     59214154            0     59214770    12.683245    22.410417    14.187863    19.726939    33.272056    9.5031471    12.612127     22.30075    14.235163 
   91600     333.7943     59213681            0     59214980    12.683329    22.410338    14.187615    19.735327    33.264203    9.4783362    12.612127     22.30075    14.235163 
   91800    253.72005     59210949            0     59211937    12.683281    22.410293    14.188197    19.730517    33.259695     9.536556    12.612127     22.30075    14.235163 
   92000    248.43739     59215386            0     59216353    12.683303    22.410372    14.188095    19.732734    33.267583     9.526312    12.612127     22.30075    14.235163 
   92200     211.6759     59214850            0     59215674    12.683311    22.410327    14.187771    19.733566     33.26302    9.4939458    12.612127     22.30075    14.235163 
   92400    416.02762     59213726            0     59215346    12.683319    22.410411    14.188208     19.73436    33.271478    9.5376276    12.612127     22.30075    14.235163 
   92600    130.10775     59214955            0     59215461    12.683317    22.410336    14.188565    19.734133    33.264004     9.573398    12.612127     22.30075    14.235163 
   92800     240.7023     59212519            0     59213456    12.683324    22.410277    14.188601    19.734855    33.258006     9.576974    12.612127     22.30075    14.235163 
   93000    128.70399     59213383            0     59213885    12.683294    22.410346    14.188379    19.731855    33.265005    9.5547296    12.612127     22.30075    14.235163 
   93200    224.87395     59212293            0     59213169     12.68329    22.410378    14.188168    19.731419    33.268134    9.5335982    12.612127     22.30075    14.235163 
   93400     249.2666     59213357            0     59214328     12.68331    22.410321    14.187654    19.733478    33.262449    9.4822455    12.612127     22.30075    14.235163 
   93600    470.71868     59212598            0     59214431    12.683287    22.410375    14.187464    19.731119    33.267893    9.4631987    12.612127     22.30075    14.235163 
   93800    76.145947     59211545            0     59211842    12.683276     22.41035    14.188373    19.730051    33.265361    9.5541937    12.612127     22.30075    14.235163 
   94000    366.23028     59212435            0     59213860     12.68332     22.41039    14.188397    19.734461    33.269345    9.5565256    12.612127     22.30075    14.235163 
   94200    532.04964     59212147            0     59214218    12.683363    22.410426    14.187503    19.738708    33.272997    9.4671517    12.612127     22.30075    14.235163 
   94400    200.56924     59214800            0     59215581    12.683281     22.41032    14.188707    19.730531    33.262351    9.5876137    12.612127     22.30075    14.235163 
   94600    216.34918     59213359            0     59214201    12.683334    22.410362    14.188391      19.7358    33.266518    9.5559864    12.612127     22.30075    14.235163 
   94800    427.09656     59213262            0     59214924     12.68335    22.410416     14.18814    19.737451    33.271972    9.5308732    12.612127     22.30075    14.235163 
   95000    207.10034     59213313            0     59214119    12.683305    22.410354    14.187786    19.732949    33.265723    9.4954228    12.612127     22.30075    14.235163 
   95200    287.14107     59212619            0     59213737    12.683384    22.410306    14.187477    19.740847    33.260944    9.4645283    12.612127     22.30075    14.235163 
   95400    276.26741     59216328            0     59217403    12.683316     22.41028    14.187314    19.734006    33.258376    9.4481752    12.612127     22.30075    14.235163 
   95600    285.21649     59210940            0     59212050    12.683296    22.410356    14.188158    19.732071     33.26596    9.5326685    12.612127     22.30075    14.235163 
   95800    402.68414     59212347            0     59213915    12.683341     22.41031    14.187684    19.736522     33.26136    9.4851814    12.612127     22.30075    14.235163 
   96000      314.314     59214755            0     59215978    12.683341    22.410348    14.187701    19.736545    33.265114    9.4869284    12.612127     22.30075    14.235163 
   96200    286.11941     59212335            0     59213449    12.683276     22.41035    14.188569    19.730037    33.265404    9.5737759    12.612127     22.30075    14.235163 
   96400    194.36276     59215636            0     59216393    12.683341    22.410401    14.187259    19.736518    33.270474    9.4427083    12.612127     22.30075    14.235163 
   96600    164.67752     59214458            0     59215099    12.683307    22.410371    14.187466    19.733117    33.267457    9.4634254    12.612127     22.30075    14.235163 
   96800    213.82626     59212034            0     59212867    12.683291      22.4104     14.18813    19.731564    33.270406      9.52985    12.612127     22.30075    14.235163 
   97000    165.25043     59212965            0     59213608    12.683284    22.410365    14.188346    19.730815    33.266841    9.5514613    12.612127     22.30075    14.235163 
   97200    277.20959     59213898            0     59214977    12.683329    22.410317    14.187602    19.735352    33.262103    9.4769811    12.612127     22.30075    14.235163 
   97400    149.18807     59214241            0     59214822    12.683301    22.410349    14.187504    19.732559    33.265245    9.4671899    12.612127     22.30075    14.235163 
   97600    165.64405     59217675            0     59218320    12.683338    22.410352    14.186669    19.736204    33.265568    9.3836917    12.612127     22.30075    14.235163 
   97800    257.28252     59215182            0     59216184    12.683348      22.4103    14.188772    19.737278     33.26036    9.5940665    12.612127     22.30075    14.235163 
   98000    483.22019     59212677            0     59214559    12.683344    22.410354    14.187747    19.736815    33.265742     9.491562    12.612127     22.30075    14.235163 
   98200    270.40191     59213952            0     59215005    12.683329    22.410393    14.187908    19.735396    33.269708    9.5076181    12.612127     22.30075    14.235163 
   98400    270.96967     59212710            0     59213765    12.683338    22.410342    14.187548    19.736262    33.264568     9.471665    12.612127     22.30075    14.235163 
   98600    227.31378     59213414            0     59214299    12.683338    22.410378    14.187439    19.736205    33.268198    9.4607201    12.612127     22.30075    14.235163 
   98800       430.86     59211989            0     59213666    12.683314    22.410448    14.188509    19.733816    33.275163    9.5677782    12.612127     22.30075    14.235163 
   99000     247.2707     59212160            0     59213122    12.683313    22.410351    14.187592    19.733774    33.265419     9.476012    12.612127     22.30075    14.235163 
   99200    180.96381     59214024            0     59214728    12.683287     22.41034    14.188106    19.731113    33.264397    9.5274679    12.612127     22.30075    14.235163 
   99400    228.18997     59214898            0     59215786    12.683368    22.410329    14.187769    19.739234    33.263254    9.4937514    12.612127     22.30075    14.235163 
   99600    212.23904     59212504            0     59213330    12.683357    22.410331    14.187709    19.738183    33.263504    9.4876869    12.612127     22.30075    14.235163 
   99800     217.5829     59213153            0     59214000    12.683332    22.410296    14.187879    19.735663    33.259953    9.5047304    12.612127     22.30075    14.235163 
  100000    510.22601     59213352            0     59215338    12.683268    22.410349    14.188021    19.729223    33.265211    9.5189598    12.612127     22.30075    14.235163 
  100200    488.34489     59211609            0     59213510    12.683359    22.410343    14.188427    19.738303    33.264671    9.5595653    12.612127     22.30075    14.235163 
  100400    161.14414     59212347            0     59212974    12.683344    22.410363    14.187756    19.736823    33.266651    9.4924417    12.612127     22.30075    14.235163 
  100600    250.32113     59212333            0     59213308    12.683261    22.410417    14.187933    19.728546    33.272091    9.5101694    12.612127     22.30075    14.235163 
  100800      284.896     59212029            0     59213138    12.683421    22.410383    14.187434    19.744546      33.2687     9.460205    12.612127     22.30075    14.235163 
  101000    223.30845     59213426            0     59214295    12.683355    22.410373      14.1876    19.737992    33.267646    9.4767935    12.612127     22.30075    14.235163 
  101200    294.44251     59215284            0     59216431    12.683323    22.410309    14.187787    19.734756    33.261258    9.4955359    12.612127     22.30075    14.235163 
  101400    216.71599     59212896            0     59213740    12.683309    22.410368    14.187351    19.733324    33.267195    9.4519459    12.612127     22.30075    14.235163 
  101600     155.5432     59214889            0     59215494    12.683348    22.410368    14.188503    19.737292    33.267144    9.5671901    12.612127     22.30075    14.235163 
  101800     225.5023     59214136            0     59215014    12.683338    22.410362    14.187443    19.736275    33.266524    9.4611584    12.612127     22.30075    14.235163 
  102000    375.82603     59212205            0     59213668    12.683359    22.410317    14.188266    19.738346    33.262086    9.5434367    12.612127     22.30075    14.235163 
  102200     249.3556     59212417            0     59213388    12.683381    22.410383    14.187544    19.740507    33.268651    9.4712429    12.612127     22.30075    14.235163 
  102400    342.54374     59212888            0     59214222     12.68336    22.410346    14.187503    19.738415    33.264996    9.4671581    12.612127     22.30075    14.235163 
  102600    306.13605     59212267            0     59213458    12.683273    22.410331    14.187912    19.729771    33.263462    9.5080019    12.612127     22.30075    14.235163 
  102800    152.78544     59213058            0     59213653    12.683313     22.41032    14.187871    19.733794    33.262361    9.5039823    12.612127     22.30075    14.235163 
  103000    319.73348     59213825            0     59215069    12.683306    22.410311    14.187888    19.733019    33.261499    9.5056613    12.612127     22.30075    14.235163 
  103200       312.65     59213046            0     59214263    12.683392    22.410385    14.187506    19.741694    33.268908    9.4673793    12.612127     22.30075    14.235163 
  103400    229.29955     59211112            0     59212005    12.683311    22.410367    14.187886    19.733522    33.267049    9.5054182    12.612127     22.30075    14.235163 
  103600    151.14825     59212844            0     59213432    12.683313    22.410315    14.187388    19.733729    33.261891    9.4556074    12.612127     22.30075    14.235163 
  103800    247.66661     59213435            0     59214399    12.683339     22.41044    14.187687    19.736299    33.274391    9.4855308    12.612127     22.30075    14.235163 
  104000    221.96519     59213206            0     59214070    12.683226    22.410305    14.187941    19.725024    33.260817    9.5108884    12.612127     22.30075    14.235163 
  104200    282.35111     59215126            0     59216225    12.683302    22.410306    14.188092    19.732694    33.260973    9.5260486    12.612127     22.30075    14.235163 
  104400    230.16875     59212745            0     59213641    12.683307     22.41036    14.188254    19.733132    33.266336    9.5422129    12.612127     22.30075    14.235163 
  104600    399.42607     59211701            0     59213256    12.683308    22.410347    14.188391    19.733254    33.265055    9.5559802    12.612127     22.30075    14.235163 
  104800    238.35857     59214277            0     59215204    12.683236    22.410409     14.18763    19.726062    33.271224    9.4798045    12.612127     22.30075    14.235163 
  105000    377.76751     59212043            0     59213513    12.683318    22.410303    14.188111    19.734279    33.260687    9.5279196    12.612127     22.30075    14.235163 
  105200    142.98029     59211648            0     59212205     12.68337    22.410364    14.187801    19.739434     33.26673    9.4968881    12.612127     22.30075    14.235163 
  105400    169.44042     59213098            0     59213758    12.683366    22.410356    14.187327    19.739019    33.265989    9.4495111    12.612127     22.30075    14.235163 
  105600    194.28431     59213792            0     59214549    12.683336    22.410301    14.187835    19.736041    33.260455    9.5003324    12.612127     22.30075    14.235163 
  105800      224.219     59212261            0     59213134    12.683322    22.410439    14.187498    19.734643    33.274276    9.4666331    12.612127     22.30075    14.235163 
  106000    199.25305     59212109            0     59212885     12.68333    22.410391     14.18789    19.735471    33.269427    9.5058416    12.612127     22.30075    14.235163 
  106200    200.73886     59216777            0     59217558    12.683257    22.410401    14.188006    19.728095    33.270494    9.5174579    12.612127     22.30075    14.235163 
  106400    244.32738     59212245            0     59213196    12.683328    22.410352    14.188518    19.735258    33.265527    9.5686667    12.612127     22.30075    14.235163 
  106600    60.702933     59214243            0     59214479    12.683297    22.410373    14.187665    19.732174    33.267693    9.4833669    12.612127     22.30075    14.235163 
  106800    308.23177     59213538            0     59214738    12.683313    22.410325    14.187268     19.73379    33.262884      9.44365    12.612127     22.30075    14.235163 
  107000    173.38289     59214711            0     59215386    12.683276    22.410367    14.187631    19.730073    33.267011    9.4799313    12.612127     22.30075    14.235163 
  107200    237.30766     59213231            0     59214155    12.683317    22.410362    14.187465    19.734147    33.266537     9.463285    12.612127     22.30075    14.235163 
  107400     191.1552     59213842            0     59214586    12.683337    22.410359    14.188064    19.736161    33.266215    9.5232542    12.612127     22.30075    14.235163 
  107600     214.3673     59212115            0     59212950    12.683317    22.410344    14.188626    19.734122    33.264741    9.5794815    12.612127     22.30075    14.235163 
  107800     369.4861     59213872            0     59215311    12.683307    22.410384     14.18758    19.733104    33.268765     9.474819    12.612127     22.30075    14.235163 
  108000    253.76402     59211454            0     59212442    12.683281    22.410375    14.187789    19.730543    33.267816    9.4957655    12.612127     22.30075    14.235163 
  108200    326.85367     59212112            0     59213385    12.683303    22.410318    14.188048    19.732733    33.262157    9.5216298    12.612127     22.30075    14.235163 
  108400    337.88845     59214999            0     59216314    12.683298    22.410324    14.188564    19.732293    33.262771     9.573263    12.612127     22.30075    14.235163 
  108600    89.246871     59214308            0     59214656    12.683362    22.410368    14.187925    19.738693    33.267174    9.5093727    12.612127     22.30075    14.235163 
  108800    235.71437     59211419            0     59212336     12.68333    22.410361    14.188025    19.735431     33.26647    9.5193261    12.612127     22.30075    14.235163 
  109000     286.5979     59214532            0     59215648    12.683314    22.410392    14.186961    19.733831    33.269573    9.4129327    12.612127     22.30075    14.235163 
  109200    261.97334     59213648            0     59214668    12.683376    22.410389    14.188123    19.740073    33.269233     9.529184    12.612127     22.30075    14.235163 
  109400    401.39162     59213740            0     59215302     12.68323    22.410375    14.187579    19.725482    33.267815    9.4746947    12.612127     22.30075    14.235163 
  109600    132.72901     59212432            0     59212949    12.683302    22.410312    14.187988    19.732682    33.261535    9.5156312    12.612127     22.30075    14.235163 
  109800    193.95638     59214631            0     59215386    12.683291    22.410346    14.187839    19.731586    33.264937    9.5007029    12.612127     22.30075    14.235163 
  110000    422.46302     59214110            0     59215755     12.68328    22.410407    14.188103    19.730487    33.271065    9.5271024    12.612127     22.30075    14.235163 
  110200    222.92542     59214052            0     59214920    12.683341    22.410388    14.188106    19.736522    33.269177    9.5274266    12.612127     22.30075    14.235163 
  110400    539.57285     59213891            0     59215992    12.683316    22.410334    14.187673    19.734034    33.263747     9.484102    12.612127     22.30075    14.235163 
  110600    187.77875     59215293            0     59216024    12.683317    22.410349    14.188134    19.734185    33.265272    9.5302848    12.612127     22.30075    14.235163 
  110800    223.53861     59213538            0     59214408    12.683283    22.410406    14.188183     19.73077    33.271003    9.5351163    12.612127     22.30075    14.235163 
  111000    234.31281     59211425            0     59212337      12.6833    22.410319    14.187308    19.732442    33.262283    9.4475891    12.612127     22.30075    14.235163 
  111200    306.75256     59213148            0     59214343    12.683374    22.410406    14.188184    19.739829    33.270972    9.5352617    12.612127     22.30075    14.235163 
  111400    139.40163     59213728            0     59214271    12.683365     22.41037    14.188393    19.738964    33.267332    9.5561139    12.612127     22.30075    14.235163 
  111600    463.27504     59216110            0     59217913    12.683264    22.410382    14.187899    19.728866    33.268595    9.5067532    12.612127     22.30075    14.235163 
  111800     105.5207     59212586            0     59212997    12.683315    22.410322    14.188042    19.733979    33.262605    9.5210725    12.612127     22.30075    14.235163 
  112000    175.71135     59211582            0     59212266    12.683329    22.410356    14.188027    19.735385    33.265909    9.5194958    12.612127     22.30075    14.235163 
  112200    164.76014     59214107            0     59214748    12.683335    22.410393     14.18818    19.735912    33.269704    9.5348476    12.612127     22.30075    14.235163 
  112400    223.46282     59214635            0     59215505    12.683283    22.410314    14.187082    19.730722    33.261717    9.4249784    12.612127     22.30075    14.235163 
  112600     255.9275     59211759            0     59212756    12.683335    22.410356    14.187693    19.735933    33.265946    9.4861555    12.612127     22.30075    14.235163 
  112800    147.16576     59215859            0     59216432    12.683282    22.410382    14.188348    19.730649    33.268575    9.5516894    12.612127     22.30075    14.235163 
  113000    173.90595     59213119            0     59213796    12.683324    22.410395    14.187834    19.734832    33.269904    9.5002808    12.612127     22.30075    14.235163 
  113200    286.08055     59213973            0     59215087    12.683253     22.41036    14.187476    19.727742    33.266368    9.4644186    12.612127     22.30075    14.235163 
  113400    430.78859     59213385            0     59215062    12.683313    22.410417    14.187548    19.733744    33.272079    9.4716005    12.612127     22.30075    14.235163 
  113600    271.86706     59211318            0     59212377    12.683302     22.41036    14.188193    19.732608    33.266382    9.5361592    12.612127     22.30075    14.235163 
  113800    221.82265     59212726            0     59213589    12.683234    22.410308    14.187801    19.725821    33.261137    9.4969258    12.612127     22.30075    14.235163 
  114000    228.59617     59214449            0     59215339    12.683256    22.410371    14.187596    19.728024    33.267414    9.4764592    12.612127     22.30075    14.235163 
  114200    367.83835     59213417            0     59214849    12.683334    22.410424    14.187786    19.735865    33.272783    9.4954645    12.612127     22.30075    14.235163 
  114400     239.1332     59213082            0     59214013    12.683297    22.410355    14.187669    19.732151    33.265855    9.4836958    12.612127     22.30075    14.235163 
  114600    210.91322     59212116            0     59212937     12.68329    22.410354    14.188193    19.731429    33.265733     9.536127    12.612127     22.30075    14.235163 
  114800    216.53484     59213294            0     59214137    12.683306    22.410343     14.18772    19.733092    33.264703    9.4888542    12.612127     22.30075    14.235163 
  115000     337.4951     59212967            0     59214281    12.683342    22.410371    14.187226    19.736609    33.267453    9.4394004    12.612127     22.30075    14.235163 
  115200    140.65816     59213816            0     59214363    12.683343    22.410362    14.187576    19.736793    33.266582    9.4744421    12.612127     22.30075    14.235163 
  115400    456.39481     59212108            0     59213885     12.68331    22.410299    14.188277    19.733418    33.260298    9.5445019    12.612127     22.30075    14.235163 
  115600    87.556964     59211298            0     59211639    12.683263     22.41026    14.188164    19.728746    33.256353    9.5332264    12.612127     22.30075    14.235163 
  115800     135.5042     59211840            0     59212367    12.683331    22.410359    14.187835    19.735514    33.266222    9.5003483    12.612127     22.30075    14.235163 
  116000    253.00693     59211450            0     59212435    12.683281    22.410302    14.188524    19.730575    33.260577    9.5692848    12.612127     22.30075    14.235163 
  116200    138.56995     59214084            0     59214623     12.68328    22.410396    14.187487    19.730446    33.269955    9.4654954    12.612127     22.30075    14.235163 
  116400    238.22551     59212240            0     59213167    12.683273    22.410265    14.187789    19.729771    33.256849    9.4956827    12.612127     22.30075    14.235163 
  116600    139.72373     59212756            0     59213300    12.683339    22.410315    14.187831    19.736388      33.2619    9.4999595    12.612127     22.30075    14.235163 
  116800    308.63285     59213463            0     59214664    12.683285    22.410353    14.187885    19.730985    33.265651    9.5053412    12.612127     22.30075    14.235163 
  117000    250.33517     59212843            0     59213818     12.68334    22.410346    14.188716    19.736466    33.264956    9.5884249    12.612127     22.30075    14.235163 
  117200    456.04253     59212889            0     59214664    12.683291    22.410338    14.187569    19.731555    33.264127    9.4736788    12.612127     22.30075    14.235163 
  117400     247.5965     59212266            0     59213230    12.683295    22.410416    14.187752    19.731929     33.27193    9.4920692    12.612127     22.30075    14.235163 
  117600    205.42127     59214276            0     59215076    12.683327    22.410348    14.187256    19.735196    33.265185    9.4424561    12.612127     22.30075    14.235163 
  117800    165.75743     59214313            0     59214959    12.683349    22.410384    14.187139    19.737332    33.268807    9.4307072    12.612127     22.30075    14.235163 
  118000     546.4904     59210638            0     59212765    12.683302    22.410352    14.188228    19.732685    33.265596    9.5396212    12.612127     22.30075    14.235163 
  118200    186.10027     59213554            0     59214278    12.683335    22.410336    14.186955    19.735992    33.263933    9.4122815    12.612127     22.30075    14.235163 
  118400    134.45296     59212767            0     59213291    12.683276    22.410363    14.188254    19.730064    33.266683     9.542256    12.612127     22.30075    14.235163 
  118600     302.5843     59213869            0     59215047    12.683329    22.410351     14.18808    19.735358     33.26542    9.5248186    12.612127     22.30075    14.235163 
  118800    454.59824     59212297            0     59214067     12.68326    22.410344    14.187983    19.728448    33.264775    9.5151757    12.612127     22.30075    14.235163 
  119000     287.6261     59211810            0     59212929     12.68329    22.410335    14.187714    19.731397    33.263854    9.4882255    12.612127     22.30075    14.235163 
  119200    310.27539     59214225            0     59215433     12.68332    22.410328    14.187567    19.734466    33.263202    9.4735228    12.612127     22.30075    14.235163 
  119400    328.56523     59212298            0     59213577    12.683275    22.410364    14.187453    19.729901    33.266747    9.4621271    12.612127     22.30075    14.235163 
  119600    320.19811     59214385            0     59215632    12.683344    22.410336    14.188015    19.736841     33.26399    9.5183295    12.612127     22.30075    14.235163 
  119800    325.37043     59213011            0     59214277    12.683363    22.410322    14.187681     19.73877    33.262556    9.4849134    12.612127     22.30075    14.235163 
  120000     253.7416     59213859            0     59214847    12.683321    22.410325    14.187409    19.734581    33.262863    9.4577257    12.612127     22.30075    14.235163 
  120200    160.88611     59214160            0     59214786    12.683318    22.410329    14.188177    19.734219    33.263222    9.5345054    12.612127     22.30075    14.235163 
  120400    301.88462     59212036            0     59213211    12.683366    22.410414    14.187718    19.739065    33.271735    9.4886468    12.612127     22.30075    14.235163 
  120600    248.90017     59213191            0     59214160    12.683335    22.410395    14.187982    19.735974    33.269885    9.5150113    12.612127     22.30075    14.235163 
  120800    218.61556     59213924            0     59214775    12.683337    22.410338    14.187526    19.736169    33.264153    9.4693992    12.612127     22.30075    14.235163 
  121000    279.32287     59212244            0     59213332    12.683284    22.410356    14.187682    19.730824    33.265936    9.4849994    12.612127     22.30075    14.235163 
  121200    443.62634     59212303            0     59214030    12.683285    22.410377    14.187593    19.730942    33.268027    9.4761265    12.612127     22.30075    14.235163 
  121400    293.27079     59211418            0     59212559    12.683406    22.410356    14.188112    19.743068    33.265937    9.5280719    12.612127     22.30075    14.235163 
  121600    216.24338     59213909            0     59214751    12.683302    22.410343    14.187541    19.732627    33.264617     9.470908    12.612127     22.30075    14.235163 
  121800    259.74726     59211321            0     59212333    12.683325    22.410315    14.187779     19.73496    33.261874    9.4947205    12.612127     22.30075    14.235163 
  122000    342.81168     59212051            0     59213385     12.68335    22.410295    14.188019    19.737431    33.259881    9.5187659    12.612127     22.30075    14.235163 
  122200    195.98227     59214515            0     59215278    12.683243    22.410354    14.188625     19.72679    33.265768    9.5793338    12.612127     22.30075    14.235163 
  122400    229.83587     59213502            0     59214397     12.68336    22.410364    14.188412    19.738451    33.266735    9.5580492    12.612127     22.30075    14.235163 
  122600    202.00057     59213477            0     59214263    12.683321    22.410338    14.188717    19.734531    33.264176    9.5886165    12.612127     22.30075    14.235163 
  122800    254.93468     59212610            0     59213603    12.683261    22.410384    14.187908    19.728592    33.268774    9.5076792    12.612127     22.30075    14.235163 
  123000    391.42853     59212656            0     59214179    12.683314    22.410366    14.187509    19.733883    33.266939    9.4677635    12.612127     22.30075    14.235163 
  123200    390.62371     59214104            0     59215624    12.683335    22.410411    14.187505    19.735933    33.271429    9.4673013    12.612127     22.30075    14.235163 
  123400     303.5298     59212368            0     59213550    12.683329    22.410361    14.188131     19.73534    33.266451    9.5299481    12.612127     22.30075    14.235163 
  123600    131.18112     59213179            0     59213690    12.683373    22.410335     14.18741    19.739771    33.263904    9.4578481    12.612127     22.30075    14.235163 
  123800    174.77082     59213071            0     59213751    12.683334     22.41034    14.188463    19.735838    33.264367    9.5631858    12.612127     22.30075    14.235163 
  124000    520.47798     59213140            0     59215166    12.683356    22.410331    14.188423    19.738039    33.263408    9.5591366    12.612127     22.30075    14.235163 
  124200     350.5136     59215260            0     59216624    12.683347    22.410394    14.188246     19.73712    33.269809    9.5414128    12.612127     22.30075    14.235163 
  124400    264.00063     59214002            0     59215030    12.683297    22.410297    14.187281     19.73212    33.260065    9.4448714    12.612127     22.30075    14.235163 
  124600    83.041236     59213071            0     59213394    12.683275     22.41038    14.188917    19.729907     33.26832    9.6085473    12.612127     22.30075    14.235163 
  124800    133.52298     59212900            0     59213420    12.683388    22.410388    14.188645    19.741299    33.269152    9.5813312    12.612127     22.30075    14.235163 
  125000     276.9133     59211717            0     59212795    12.683318    22.410394    14.187754    19.734291    33.269721     9.492221    12.612127     22.30075    14.235163 
  125200    307.45042     59214102            0     59215299    12.683283    22.410348    14.187571    19.730744    33.265184    9.4739117    12.612127     22.30075    14.235163 
  125400    260.06487     59213283            0     59214296    12.683271    22.410349    14.188331    19.729548    33.265278    9.5499391    12.612127     22.30075    14.235163 
  125600    125.52348     59215152            0     59215641    12.683291    22.410362    14.187531    19.731531    33.266516    9.4699146    12.612127     22.30075    14.235163 
  125800    196.71541     59215017            0     59215783    12.683334    22.410312    14.187612    19.735827    33.261539     9.478009    12.612127     22.30075    14.235163 
  126000    213.80285     59214223            0     59215055    12.683305    22.410402    14.187773    19.732963    33.270597    9.4941635    12.612127     22.30075    14.235163 
  126200    204.97734     59212313            0     59213111    12.683345    22.410313    14.188097    19.736935    33.261613    9.5265908    12.612127     22.30075    14.235163 
  126400    270.54785     59213663            0     59214716    12.683316    22.410353     14.18741    19.734055    33.265692    9.4578268    12.612127     22.30075    14.235163 
  126600     158.5231     59212144            0     59212761    12.683297    22.410355    14.188098    19.732137     33.26586    9.5266131    12.612127     22.30075    14.235163 
  126800    196.06291     59215091            0     59215854    12.683305    22.410344    14.187401    19.732918    33.264784    9.4569496    12.612127     22.30075    14.235163 
  127000    226.27813     59211975            0     59212856    12.683336    22.410368    14.187735    19.736045    33.267205    9.4902964    12.612127     22.30075    14.235163 
  127200    270.63032     59213973            0     59215027    12.683339    22.410381    14.187407    19.736394    33.268502    9.4574655    12.612127     22.30075    14.235163 
  127400    333.16484     59213844            0     59215141    12.683306    22.410312    14.187615    19.733021    33.261596     9.478338    12.612127     22.30075    14.235163 
  127600    173.31903     59212443            0     59213118    12.683308    22.410322    14.188389    19.733228    33.262518    9.5557855    12.612127     22.30075    14.235163 
  127800    517.37793     59211300            0     59213314     12.68329    22.410349    14.187671    19.731438    33.265253    9.4838835    12.612127     22.30075    14.235163 
  128000    199.76977     59212306            0     59213084    12.683334    22.410369    14.187459    19.735851    33.267234    9.4626782    12.612127     22.30075    14.235163 
  128200    207.48591     59212485            0     59213293    12.683304    22.410365    14.188604    19.732811    33.266891    9.5772424    12.612127     22.30075    14.235163 
  128400    207.68337     59213381            0     59214190    12.683318    22.410381    14.187245    19.734235    33.268497    9.4412973    12.612127     22.30075    14.235163 
  128600    263.49628     59213093            0     59214119    12.683315    22.410339    14.188317    19.733966    33.264221    9.5485794    12.612127     22.30075    14.235163 
  128800    375.13175     59212262            0     59213722    12.683331    22.410302    14.187912    19.735577    33.260603    9.5080046    12.612127     22.30075    14.235163 
  129000    371.40094     59212737            0     59214183    12.683266    22.410354    14.188163     19.72903    33.265808      9.53317    12.612127     22.30075    14.235163 
  129200    288.11135     59213111            0     59214232    12.683296    22.410342    14.187697    19.732027      33.2646    9.4865611    12.612127     22.30075    14.235163 
  129400    385.06671     59210701            0     59212200    12.683328    22.410325    14.188182    19.735259    33.262869    9.5350911    12.612127     22.30075    14.235163 
  129600    270.02099     59210952            0     59212004    12.683358    22.410336    14.187993    19.738219    33.263927    9.5161312    12.612127     22.30075    14.235163 
  129800    238.72105     59212802            0     59213731    12.683318     22.41035    14.187636    19.734279    33.265364    9.4804488    12.612127     22.30075    14.235163 
  130000    257.45235     59211281            0     59212283     12.68331    22.410303    14.187855    19.733469    33.260681    9.5022907    12.612127     22.30075    14.235163 
  130200    230.43478     59211418            0     59212315    12.683334    22.410375    14.187973    19.735805    33.267831    9.5141536    12.612127     22.30075    14.235163 
  130400    412.55691     59211469            0     59213075    12.683295    22.410323    14.187631    19.731972    33.262662    9.4799497    12.612127     22.30075    14.235163 
  130600     311.1673     59213350            0     59214562    12.683329    22.410328    14.188817    19.735354    33.263194    9.5985799    12.612127     22.30075    14.235163 
  130800    203.02103     59211857            0     59212647     12.68335    22.410349    14.188138    19.737455    33.265307    9.5306291    12.612127     22.30075    14.235163 
  131000    190.85172     59213708            0     59214451    12.683265    22.410364    14.188772    19.728986    33.266788    9.5940318    12.612127     22.30075    14.235163 
  131200    260.09639     59211149            0     59212161    12.683289    22.410376    14.188258    19.731365    33.268007    9.5426488    12.612127     22.30075    14.235163 
  131400      221.213     59212810            0     59213671    12.683308    22.410367    14.187825    19.733227    33.267037    9.4992957    12.612127     22.30075    14.235163 
  131600    235.47051     59212814            0     59213731    12.683351    22.410334    14.187385    19.737589    33.263746     9.455329    12.612127     22.30075    14.235163 
  131800    199.15059     59212412            0     59213188    12.683265    22.410415    14.187726    19.728933    33.271831    9.4894719    12.612127     22.30075    14.235163 
  132000    365.72754     59212119            0     59213543    12.683345    22.410351    14.187981    19.736988     33.26548     9.514907    12.612127     22.30075    14.235163 
  132200    208.79214     59214319            0     59215132    12.683318    22.410359    14.187587    19.734261    33.266244    9.4755393    12.612127     22.30075    14.235163 
  132400    214.26423     59214444            0     59215279    12.683257     22.41037    14.188155    19.728165    33.267366    9.5323784    12.612127     22.30075    14.235163 
  132600    312.67235     59212452            0     59213669     12.68334    22.410363    14.188063    19.736446    33.266611    9.5231611    12.612127     22.30075    14.235163 
  132800    377.91007     59211789            0     59213260    12.683298    22.410365     14.18791    19.732208    33.266883    9.5078587    12.612127     22.30075    14.235163 
  133000    236.51796     59211846            0     59212767    12.683373    22.410342    14.187826    19.739796     33.26453    9.4994664    12.612127     22.30075    14.235163 
  133200    90.974564     59211943            0     59212297    12.683317    22.410354     14.18791    19.734144    33.265763    9.5078025    12.612127     22.30075    14.235163 
  133400    340.52143     59213969            0     59215295    12.683357    22.410339    14.187905    19.738126    33.264229    9.5073026    12.612127     22.30075    14.235163 
  133600    194.64067     59213375            0     59214133    12.683355    22.410311    14.187286    19.737991    33.261496    9.4454128    12.612127     22.30075    14.235163 
  133800    291.50385     59214650            0     59215785    12.683337    22.410383    14.187842     19.73615    33.268705    9.5010166    12.612127     22.30075    14.235163 
  134000    412.33978     59211708            0     59213313    12.683326    22.410329    14.187621     19.73507    33.263274    9.4789638    12.612127     22.30075    14.235163 
  134200    259.08295     59214017            0     59215026    12.683294    22.410381    14.187883    19.731825    33.268436    9.5050956    12.612127     22.30075    14.235163 
  134400    253.39829     59211518            0     59212504    12.683331    22.410322    14.188538    19.735512    33.262536    9.5706278    12.612127     22.30075    14.235163 
  134600    244.60768     59212245            0     59213197    12.683307    22.410366    14.187478    19.733128    33.266923    9.4646472    12.612127     22.30075    14.235163 
  134800    315.70198     59211739            0     59212968      12.6833    22.410382     14.18805    19.732443    33.268543    9.5218611    12.612127     22.30075    14.235163 
  135000    174.17979     59212873            0     59213551    12.683297    22.410358    14.188175    19.732176    33.266185    9.5343945    12.612127     22.30075    14.235163 
  135200    230.83974     59211338            0     59212236    12.683296    22.410328    14.188458    19.732016    33.263116    9.5626589    12.612127     22.30075    14.235163 
  135400    296.98543     59212661            0     59213817    12.683379     22.41037    14.187751    19.740304    33.267378    9.4919244    12.612127     22.30075    14.235163 
  135600    157.62733     59210953            0     59211567    12.683329    22.410382    14.188448    19.735376    33.268511    9.5617021    12.612127     22.30075    14.235163 
  135800    206.23486     59212246            0     59213048    12.683334    22.410344    14.188211    19.735807    33.264726    9.5379651    12.612127     22.30075    14.235163 
  136000    129.57825     59213491            0     59213995    12.683333    22.410342    14.187006    19.735735    33.264555    9.4174199    12.612127     22.30075    14.235163 
  136200    239.21008     59213168            0     59214099    12.683333    22.410301    14.187559    19.735774    33.260409    9.4727493    12.612127     22.30075    14.235163 
  136400     222.2843     59211850            0     59212715    12.683298     22.41034    14.188349    19.732275    33.264403    9.5517434    12.612127     22.30075    14.235163 
  136600     302.6763     59212727            0     59213905    12.683305    22.410325    14.188054    19.732977    33.262838    9.5222766    12.612127     22.30075    14.235163 
  136800    470.26401     59210912            0     59212742    12.683342     22.41038    14.187795    19.736636    33.268323    9.4963487    12.612127     22.30075    14.235163 
  137000    205.53211     59213146            0     59213946    12.683285      22.4103    14.187749    19.730933    33.260333    9.4917581    12.612127     22.30075    14.235163 
  137200    231.60877     59213678            0     59214580    12.683245    22.410304     14.18839    19.726912    33.260729     9.555839    12.612127     22.30075    14.235163 
  137400    224.77193     59212060            0     59212935    12.683322    22.410339    14.188427    19.734658    33.264281    9.5595994    12.612127     22.30075    14.235163 
  137600    208.41287     59211743            0     59212554    12.683374    22.410404    14.188386    19.739899     33.27077    9.5554822    12.612127     22.30075    14.235163 
  137800    300.24088     59213679            0     59214847    12.683279    22.410353     14.18753    19.730378    33.265648     9.469867    12.612127     22.30075    14.235163 
  138000    256.67239     59212007            0     59213006    12.683308    22.410354    14.188372    19.733238    33.265745    9.5540525    12.612127     22.30075    14.235163 
  138200    245.24794     59213800            0     59214754    12.683313     22.41037     14.18713    19.733787    33.267381    9.4297701    12.612127     22.30075    14.235163 
  138400    217.50867     59213608            0     59214454    12.683305     22.41037    14.188135    19.732913     33.26738    9.5303238    12.612127     22.30075    14.235163 
  138600    239.31229     59215426            0     59216357    12.683197    22.410345    14.187955    19.722189    33.264846    9.5123769    12.612127     22.30075    14.235163 
  138800    256.30153     59213258            0     59214256    12.683309     22.41037    14.187907    19.733309    33.267332    9.5075201    12.612127     22.30075    14.235163 
  139000    289.21559     59213594            0     59214720    12.683333    22.410348     14.18798    19.735712    33.265171    9.5148003    12.612127     22.30075    14.235163 
  139200    245.83115     59212431            0     59213388    12.683294     22.41036    14.187957     19.73185    33.266366    9.5125848    12.612127     22.30075    14.235163 
  139400    228.10894     59212744            0     59213632    12.683341    22.410375    14.187978    19.736555    33.267876    9.5146399    12.612127     22.30075    14.235163 
  139600    316.14541     59213050            0     59214281    12.683314    22.410318    14.188368    19.733856    33.262127    9.5536044    12.612127     22.30075    14.235163 
  139800    289.19889     59212561            0     59213687     12.68327    22.410378    14.188231    19.729494    33.268162    9.5399674    12.612127     22.30075    14.235163 
  140000    147.91463     59213526            0     59214102    12.683368    22.410332    14.188562    19.739211     33.26354    9.5730255    12.612127     22.30075    14.235163 
  140200    107.84356     59214796            0     59215215    12.683277    22.410293    14.188709     19.73017    33.259635    9.5877405    12.612127     22.30075    14.235163 
  140400    207.84441     59211676            0     59212485    12.683323    22.410345    14.188241    19.734785    33.264818    9.5409815    12.612127     22.30075    14.235163 
  140600    276.21384     59212457            0     59213532    12.683345    22.410411    14.188097    19.736908    33.271447    9.5265546    12.612127     22.30075    14.235163 
  140800    388.55342     59213574            0     59215087    12.683356    22.410313    14.187834    19.738029    33.261667    9.5002635    12.612127     22.30075    14.235163 
  141000    173.01102     59210798            0     59211472    12.683258    22.410406    14.187956    19.728282    33.270961    9.5123905    12.612127     22.30075    14.235163 
  141200    327.96393     59213676            0     59214953    12.683338    22.410344    14.187562    19.736284    33.264709     9.472988    12.612127     22.30075    14.235163 
  141400    238.45351     59213655            0     59214583    12.683344     22.41031    14.187821    19.736847    33.261366    9.4989442    12.612127     22.30075    14.235163 
  141600    263.78984     59213754            0     59214781    12.683329    22.410311    14.187467    19.735388     33.26141    9.4635353    12.612127     22.30075    14.235163 
  141800    300.38607     59214084            0     59215254    12.683321    22.410309    14.187978    19.734552    33.261285    9.5146081    12.612127     22.30075    14.235163 
  142000    289.95344     59213713            0     59214842     12.68333    22.410326    14.188356    19.735398    33.262957    9.5524142    12.612127     22.30075    14.235163 
  142200    266.92741     59211957            0     59212996    12.683341    22.410337    14.188209     19.73657    33.264081    9.5377535    12.612127     22.30075    14.235163 
  142400    341.74194     59212855            0     59214186    12.683315    22.410372    14.188039    19.733984    33.267534    9.5207243    12.612127     22.30075    14.235163 
  142600    155.52967     59213020            0     59213625    12.683229    22.410292    14.188056    19.725308    33.259597    9.5223953    12.612127     22.30075    14.235163 
  142800     221.6591     59213809            0     59214672    12.683273    22.410372    14.187899    19.729768    33.267527    9.5066894    12.612127     22.30075    14.235163 
  143000    152.06814     59214722            0     59215314    12.683289    22.410414    14.187307    19.731348    33.271786    9.4475438    12.612127     22.30075    14.235163 
  143200      498.726     59212893            0     59214834    12.683246    22.410382    14.188378    19.727037    33.268576    9.5546494    12.612127     22.30075    14.235163 
  143400    241.99662     59212384            0     59213326    12.683248    22.410353    14.188335    19.727268    33.265632    9.5503504    12.612127     22.30075    14.235163 
  143600    269.83811     59213078            0     59214128    12.683291    22.410407    14.188478    19.731557     33.27111    9.5646187    12.612127     22.30075    14.235163 
  143800    143.99532     59212006            0     59212566    12.683287    22.410379    14.187932    19.731154    33.268248    9.5100188    12.612127     22.30075    14.235163 
  144000    651.86586     59211797            0     59214335    12.683319    22.410354    14.188401    19.734326    33.265737    9.5569815    12.612127     22.30075    14.235163 
  144200      242.078     59213688            0     59214630    12.683305    22.410366    14.188132    19.732946     33.26694     9.530021    12.612127     22.30075    14.235163 
  144400    267.76747     59211748            0     59212791    12.683326    22.410359    14.187921    19.735028    33.266223    9.5088976    12.612127     22.30075    14.235163 
  144600    400.07434     59211818            0     59213376    12.683313    22.410354    14.188343    19.733698    33.265795    9.5511926    12.612127     22.30075    14.235163 
  144800     403.9664     59212750            0     59214323    12.683313    22.410358    14.188099    19.733748    33.266171    9.5267326    12.612127     22.30075    14.235163 
  145000    284.54588     59212628            0     59213736    12.683278    22.410369    14.187826    19.730265     33.26721     9.499444    12.612127     22.30075    14.235163 
  145200    201.91661     59211237            0     59212023    12.683323    22.410365    14.187855     19.73476    33.266853    9.5023175    12.612127     22.30075    14.235163 
  145400    303.48786     59211462            0     59212643    12.683331    22.410361    14.188133    19.735503    33.266491    9.5301564    12.612127     22.30075    14.235163 
  145600    237.43347     59211692            0     59212617    12.683277    22.410364    14.188102    19.730102    33.266775    9.5270906    12.612127     22.30075    14.235163 
  145800    315.33927     59211345            0     59212573    12.683241    22.410377    14.187829    19.726548    33.268102     9.499707    12.612127     22.30075    14.235163 
  146000    158.82159     59213745            0     59214364    12.683323    22.410341    14.187383    19.734773    33.264425    9.4551166    12.612127     22.30075    14.235163 
  146200    140.47026     59213906            0     59214453     12.68324    22.410265    14.187373    19.726406    33.256818    9.4541323    12.612127     22.30075    14.235163 
  146400    211.24957     59213580            0     59214402    12.683345    22.410334    14.188693    19.736903    33.263799     9.586174    12.612127     22.30075    14.235163 
  146600    275.71017     59213758            0     59214831    12.683339    22.410391    14.187983    19.736346    33.269463    9.5151771    12.612127     22.30075    14.235163 
  146800    208.31404     59211197            0     59212008    12.683252    22.410329    14.188359    19.727615    33.263271    9.5527426    12.612127     22.30075    14.235163 
  147000    243.21721     59212083            0     59213030    12.683334    22.410356    14.188335    19.735863    33.265969    9.5503401    12.612127     22.30075    14.235163 
  147200     297.6264     59211704            0     59212862    12.683324    22.410361    14.188413    19.734853    33.266418    9.5581708    12.612127     22.30075    14.235163 
  147400    214.18151     59214443            0     59215277    12.683274    22.410369    14.188159    19.729894    33.267251    9.5327196    12.612127     22.30075    14.235163 
  147600    367.93927     59212383            0     59213815    12.683389    22.410352    14.188063    19.741313     33.26554    9.5231237    12.612127     22.30075    14.235163 
  147800    413.59275     59213494            0     59215104    12.683328    22.410323    14.188371    19.735225    33.262645    9.5539992    12.612127     22.30075    14.235163 
  148000    398.62771     59212738            0     59214290    12.683307    22.410351    14.188689    19.733175    33.265409     9.585757    12.612127     22.30075    14.235163 
  148200    334.37146     59213061            0     59214363    12.683293     22.41035     14.18856    19.731782    33.265318    9.5728227    12.612127     22.30075    14.235163 
  148400    291.75087     59210821            0     59211956    12.683325    22.410352    14.188028    19.734991    33.265531    9.5196447    12.612127     22.30075    14.235163 
  148600    141.48971     59214075            0     59214626    12.683344    22.410335    14.187557    19.736835     33.26386    9.4724985    12.612127     22.30075    14.235163 
  148800     139.0914     59213433            0     59213974    12.683332    22.410329    14.187267     19.73565    33.263306    9.4434743    12.612127     22.30075    14.235163 
  149000    225.01059     59212946            0     59213822    12.683268    22.410349    14.187763    19.729287     33.26524    9.4931592    12.612127     22.30075    14.235163 
  149200    272.28991     59212062            0     59213122    12.683329    22.410338    14.188671    19.735387    33.264145    9.5839861    12.612127     22.30075    14.235163 
  149400    280.10515     59213260            0     59214350      12.6833    22.410438    14.187634    19.732438    33.274144    9.4801956    12.612127     22.30075    14.235163 
  149600    278.49421     59212889            0     59213973    12.683362    22.410325    14.187884    19.738654    33.262811    9.5052508    12.612127     22.30075    14.235163 
  149800    313.93766     59213034            0     59214256    12.683357    22.410315    14.187933    19.738162    33.261885    9.5101028    12.612127     22.30075    14.235163 
  150000    399.03469     59215126            0     59216679     12.68338     22.41038    14.187882    19.740412    33.268362    9.5050513    12.612127     22.30075    14.235163 
  150200    158.93526     59211380            0     59211998    12.683315    22.410354    14.188325     19.73397    33.265777     9.549373    12.612127     22.30075    14.235163 
  150400    190.15188     59214083            0     59214823    12.683361    22.410322    14.187604    19.738586     33.26256    9.4772091    12.612127     22.30075    14.235163 
  150600    198.05087     59213041            0     59213812    12.683387    22.410385    14.187197    19.741115    33.268891    9.4364975    12.612127     22.30075    14.235163 
  150800    212.87547     59212720            0     59213548    12.683343    22.410311      14.1879    19.736746    33.261408    9.5067881    12.612127     22.30075    14.235163 
  151000    170.31048     59211399            0     59212062    12.683331    22.410372    14.188163    19.735558      33.2676    9.5330976    12.612127     22.30075    14.235163 
  151200      270.049     59211745            0     59212797    12.683303    22.410314     14.18827    19.732775     33.26175    9.5438233    12.612127     22.30075    14.235163 
  151400    172.54743     59212950            0     59213622    12.683335    22.410319     14.18882    19.735922    33.262299    9.5989001    12.612127     22.30075    14.235163 
  151600    204.46279     59212722            0     59213518    12.683342    22.410343    14.188082    19.736685    33.264663      9.52501    12.612127     22.30075    14.235163 
  151800    308.73188     59213252            0     59214454    12.683267    22.410373     14.18836    19.729132    33.267632    9.5528036    12.612127     22.30075    14.235163 
  152000    326.73441     59211222            0     59212494    12.683308     22.41033    14.188134    19.733276    33.263308    9.5302182    12.612127     22.30075    14.235163 
  152200    330.52693     59210491            0     59211777    12.683337    22.410357    14.187859    19.736123    33.266107    9.5027674    12.612127     22.30075    14.235163 
  152400    169.32917     59213904            0     59214563    12.683315     22.41034    14.187927    19.733963    33.264375    9.5095712    12.612127     22.30075    14.235163 
  152600    267.08624     59213525            0     59214565    12.683358    22.410322    14.188862    19.738263    33.262521    9.6031076    12.612127     22.30075    14.235163 
  152800    140.60392     59211283            0     59211831    12.683394    22.410297    14.188117    19.741875    33.260105     9.528503    12.612127     22.30075    14.235163 
  153000    378.95275     59212481            0     59213956    12.683337    22.410362    14.187544    19.736119    33.266528    9.4711946    12.612127     22.30075    14.235163 
  153200    144.76644     59211423            0     59211987    12.683295    22.410388    14.188551    19.731962    33.269131     9.571991    12.612127     22.30075    14.235163 
  153400    204.09154     59212010            0     59212805    12.683331    22.410334    14.187674    19.735539    33.263711    9.4842027    12.612127     22.30075    14.235163 
  153600      191.881     59212937            0     59213684    12.683342    22.410361    14.187696    19.736609    33.266464    9.4863763    12.612127     22.30075    14.235163 
  153800    152.92879     59214416            0     59215011    12.683283    22.410294    14.188424    19.730737    33.259729    9.5592497    12.612127     22.30075    14.235163 
  154000    280.55327     59211338            0     59212431    12.683302    22.410368    14.187732    19.732674    33.267162    9.4900399    12.612127     22.30075    14.235163 
  154200    253.40651     59213270            0     59214257    12.683371    22.410346    14.187825    19.739531    33.264972    9.4993171    12.612127     22.30075    14.235163 
  154400    136.40871     59212456            0     59212987    12.683297    22.410341    14.187927    19.732126    33.264489    9.5095601    12.612127     22.30075    14.235163 
  154600    200.60825     59211557            0     59212338    12.683374    22.410377    14.188344    19.739833    33.268016    9.5512724    12.612127     22.30075    14.235163 
  154800     277.9644     59213544            0     59214626     12.68338    22.410337     14.18838    19.740454    33.264029    9.5548345    12.612127     22.30075    14.235163 
  155000    110.57947     59213288            0     59213718    12.683308    22.410341       14.188    19.733235    33.264501    9.5168513    12.612127     22.30075    14.235163 
  155200    342.15224     59210811            0     59212143    12.683324    22.410352    14.187805    19.734858    33.265558    9.4973012    12.612127     22.30075    14.235163 
  155400    263.04739     59212233            0     59213257    12.683316    22.410353    14.187853    19.734016    33.265684    9.5021793    12.612127     22.30075    14.235163 
  155600    207.38012     59211663            0     59212470    12.683334    22.410347    14.187841    19.735864    33.265082    9.5009491    12.612127     22.30075    14.235163 
  155800    272.30526     59211577            0     59212637     12.68331    22.410358    14.187711    19.733458    33.266112     9.487882    12.612127     22.30075    14.235163 
  156000     120.0779     59212296            0     59212763    12.683354     22.41031     14.18776    19.737875    33.261309    9.4927888    12.612127     22.30075    14.235163 
  156200    215.78125     59211903            0     59212743    12.683274     22.41034     14.18842    19.729805    33.264332    9.5588853    12.612127     22.30075    14.235163 
  156400     206.2032     59213362            0     59214165    12.683294    22.410375    14.187742    19.731892    33.267863     9.491039    12.612127     22.30075    14.235163 
  156600    169.68909     59211469            0     59212130    12.683293    22.410404    14.187884    19.731699    33.270783    9.5051852    12.612127     22.30075    14.235163 
  156800      382.433     59213775            0     59215263    12.683304    22.410355    14.187359    19.732843    33.265885     9.452709    12.612127     22.30075    14.235163 
  157000    446.06061     59210389            0     59212125    12.683367    22.410339       14.188     19.73912    33.264231    9.5167918    12.612127     22.30075    14.235163 
  157200      254.274     59213679            0     59214669    12.683326     22.41036    14.187529    19.734999    33.266351    9.4697112    12.612127     22.30075    14.235163 
  157400    446.47274     59210796            0     59212534     12.68328    22.410388    14.188286    19.730436    33.269183    9.5454519    12.612127     22.30075    14.235163 
  157600    285.37323     59212051            0     59213162    12.683288    22.410354    14.188197    19.731197    33.265719    9.5364996    12.612127     22.30075    14.235163 
  157800     113.1125     59210717            0     59211157    12.683271    22.410342    14.188232    19.729523    33.264601    9.5400767    12.612127     22.30075    14.235163 
  158000    212.28364     59211971            0     59212797    12.683305    22.410382    14.188575    19.732976    33.268558    9.5743996    12.612127     22.30075    14.235163 
  158200    311.10179     59213827            0     59215038    12.683285     22.41035    14.187932    19.730965    33.265333    9.5100394    12.612127     22.30075    14.235163 
  158400    314.85316     59212213            0     59213439    12.683306    22.410388    14.188138    19.733068    33.269201    9.5306463    12.612127     22.30075    14.235163 
  158600    119.55813     59213486            0     59213952    12.683322    22.410259    14.188068    19.734661    33.256276    9.5236181    12.612127     22.30075    14.235163 
  158800    240.08337     59211751            0     59212685    12.683285    22.410372    14.188427    19.730899    33.267526    9.5595723    12.612127     22.30075    14.235163 
  159000     296.9057     59212583            0     59213739    12.683354    22.410331    14.188835    19.737837    33.263493    9.6003902    12.612127     22.30075    14.235163 
  159200    393.54836     59212603            0     59214135    12.683283    22.410347    14.188254    19.730763    33.265066    9.5422652    12.612127     22.30075    14.235163 
  159400    79.121387     59210123            0     59210431    12.683302    22.410358    14.188135    19.732652     33.26611    9.5303126    12.612127     22.30075    14.235163 
  159600    270.51582     59211310            0     59212363    12.683321    22.410367    14.188152    19.734523    33.267024    9.5320284    12.612127     22.30075    14.235163 
  159800    220.57169     59213975            0     59214834    12.683313    22.410376    14.187997    19.733754    33.267994    9.5165848    12.612127     22.30075    14.235163 
  160000    217.38218     59212375            0     59213221    12.683303     22.41035    14.188294    19.732743    33.265332     9.546242    12.612127     22.30075    14.235163 
  160200    245.34703     59213862            0     59214817    12.683314    22.410346    14.187697    19.733818    33.264953    9.4865001    12.612127     22.30075    14.235163 
  160400    203.14605     59212833            0     59213623    12.683288    22.410343    14.188368    19.731278    33.264677    9.5536524    12.612127     22.30075    14.235163 
  160600    161.78244     59213010            0     59213640    12.683322    22.410349    14.187678    19.734666    33.265285    9.4846036    12.612127     22.30075    14.235163 
  160800    232.60516     59213113            0     59214018    12.683278    22.410313    14.187475    19.730203    33.261636    9.4643069    12.612127     22.30075    14.235163 
  161000    301.68177     59213412            0     59214586    12.683303    22.410346    14.187718     19.73276    33.264942    9.4886472    12.612127     22.30075    14.235163 
  161200    317.77931     59213282            0     59214519    12.683348    22.410388    14.187588    19.737229    33.269146    9.4756198    12.612127     22.30075    14.235163 
  161400    167.54074     59212010            0     59212663    12.683328    22.410358    14.187544    19.735242    33.266184    9.4711989    12.612127     22.30075    14.235163 
  161600    304.87161     59210712            0     59211899    12.683299    22.410373     14.18818    19.732327     33.26766     9.534815    12.612127     22.30075    14.235163 
  161800    242.05174     59213243            0     59214185    12.683276    22.410348    14.187529    19.730015     33.26517    9.4696908    12.612127     22.30075    14.235163 
  162000    467.53317     59210920            0     59212740    12.683307    22.410375    14.187867    19.733132     33.26789    9.5035291    12.612127     22.30075    14.235163 
  162200    137.44226     59214065            0     59214600    12.683298    22.410406    14.187596    19.732222    33.270954    9.4764509    12.612127     22.30075    14.235163 
  162400    248.04378     59212375            0     59213340    12.683316    22.410349    14.188289    19.734021    33.265274    9.5457779    12.612127     22.30075    14.235163 
  162600    281.19122     59214503            0     59215598    12.683315    22.410352    14.187745    19.733908    33.265518    9.4912834    12.612127     22.30075    14.235163 
  162800    315.28255     59213224            0     59214452    12.683323    22.410338    14.188002    19.734782    33.264133    9.5170094    12.612127     22.30075    14.235163 
  163000     169.9507     59214331            0     59214993    12.683273    22.410312    14.187825    19.729731    33.261587    9.4993305    12.612127     22.30075    14.235163 
  163200    267.07321     59212780            0     59213819    12.683332    22.410335    14.188316    19.735684    33.263868    9.5484324    12.612127     22.30075    14.235163 
  163400    245.07821     59213033            0     59213987    12.683318    22.410346    14.187715    19.734248    33.264948    9.4883558    12.612127     22.30075    14.235163 
  163600    211.87796     59210076            0     59210900     12.68333    22.410352    14.188274    19.735451    33.265605    9.5442742    12.612127     22.30075    14.235163 
  163800    146.27469     59212367            0     59212936      12.6833    22.410324    14.188718    19.732491    33.262715    9.5886484    12.612127     22.30075    14.235163 
  164000    305.33219     59213628            0     59214817    12.683304    22.410391    14.188212    19.732894    33.269436    9.5380012    12.612127     22.30075    14.235163 
  164200    239.16984     59212043            0     59212974    12.683347    22.410345    14.187473    19.737117    33.264887    9.4641258    12.612127     22.30075    14.235163 
  164400    206.05129     59211799            0     59212601    12.683278    22.410347    14.187927    19.730259    33.265035    9.5095168    12.612127     22.30075    14.235163 
  164600    300.46702     59211622            0     59212791    12.683339    22.410375    14.188136    19.736355    33.267822    9.5304093    12.612127     22.30075    14.235163 
  164800     243.2279     59212799            0     59213745    12.683318    22.410345    14.187227    19.734236    33.264884    9.4395363    12.612127     22.30075    14.235163 
  165000    323.40207     59213219            0     59214478    12.683415    22.410279    14.187774    19.743917    33.258245    9.4941908    12.612127     22.30075    14.235163 
  165200    102.39168     59213519            0     59213917    12.683275    22.410397    14.188006     19.72994    33.270095    9.5174259    12.612127     22.30075    14.235163 
  165400    292.06398     59212127            0     59213264    12.683333    22.410363    14.187828    19.735735    33.266633    9.4995976    12.612127     22.30075    14.235163 
  165600    280.63088     59212107            0     59213199     12.68333    22.410382    14.187839    19.735436    33.268595    9.5006975    12.612127     22.30075    14.235163 
  165800    173.71398     59212701            0     59213377    12.683342    22.410341    14.187569    19.736663    33.264461    9.4737636    12.612127     22.30075    14.235163 
  166000    159.05339     59211958            0     59212577    12.683305     22.41035    14.187853    19.732957    33.265354    9.5021137    12.612127     22.30075    14.235163 
  166200    269.17017     59212019            0     59213067      12.6833    22.410394    14.187842    19.732416    33.269746    9.5010272    12.612127     22.30075    14.235163 
  166400    339.76784     59212024            0     59213346    12.683359    22.410387    14.187442     19.73836      33.2691    9.4609924    12.612127     22.30075    14.235163 
  166600    219.20282     59211768            0     59212621    12.683321    22.410322    14.187666    19.734541    33.262548    9.4834243    12.612127     22.30075    14.235163 
  166800    275.12451     59213385            0     59214456    12.683331    22.410426    14.187973    19.735585    33.272962    9.5141167    12.612127     22.30075    14.235163 
  167000     271.4439     59211956            0     59213013    12.683303    22.410325    14.187654    19.732779    33.262886     9.482223    12.612127     22.30075    14.235163 
  167200    134.73948     59215044            0     59215568    12.683291     22.41033    14.186965    19.731515    33.263357    9.4133176    12.612127     22.30075    14.235163 
  167400    332.03354     59212178            0     59213470    12.683286    22.410419    14.187395    19.731096    33.272246    9.4563487    12.612127     22.30075    14.235163 
  167600    271.18199     59214508            0     59215564    12.683355    22.410361    14.187892    19.737972    33.266432    9.5060504    12.612127     22.30075    14.235163 
  167800    365.26773     59212613            0     59214035    12.683231    22.410295     14.18807    19.725498    33.259836    9.5238909    12.612127     22.30075    14.235163 
  168000    227.75368     59213684            0     59214571    12.683322    22.410355    14.187468    19.734634    33.265866    9.4636629    12.612127     22.30075    14.235163 
  168200    539.35417     59211920            0     59214019    12.683325    22.410334    14.187993    19.734981    33.263766    9.5161032    12.612127     22.30075    14.235163 
  168400    186.04428     59210656            0     59211380    12.683282    22.410368    14.188017     19.73069    33.267166    9.5184933    12.612127     22.30075    14.235163 
  168600    195.43923     59211935            0     59212696    12.683304    22.410374    14.187521    19.732885    33.267757    9.4689327    12.612127     22.30075    14.235163 
  168800    292.49956     59213703            0     59214842     12.68323    22.410315    14.187642    19.725425    33.261891     9.481043    12.612127     22.30075    14.235163 
  169000    93.380668     59212019            0     59212383    12.683329    22.410376    14.187721    19.735346    33.267941    9.4889072    12.612127     22.30075    14.235163 
  169200    158.17667     59211996            0     59212612    12.683279    22.410339    14.187629     19.73034      33.2643    9.4796779    12.612127     22.30075    14.235163 
  169400    200.20724     59211202            0     59211981    12.683279    22.410356    14.188283    19.730311    33.265953    9.5451778    12.612127     22.30075    14.235163 
  169600    300.75757     59213299            0     59214470    12.683287     22.41039     14.18823    19.731184    33.269327    9.5397998    12.612127     22.30075    14.235163 
  169800    145.27355     59211573            0     59212138     12.68329    22.410346    14.187878    19.731415    33.264924    9.5046748    12.612127     22.30075    14.235163 
  170000    216.25369     59212345            0     59213187    12.683297    22.410353    14.188545    19.732182    33.265631    9.5713709    12.612127     22.30075    14.235163 
  170200    355.10214     59210179            0     59211561    12.683311    22.410353    14.187994     19.73351    33.265611    9.5162758    12.612127     22.30075    14.235163 
  170400     373.0548     59210376            0     59211828    12.683294    22.410347     14.18811    19.731888    33.265045     9.527794    12.612127     22.30075    14.235163 
  170600    226.79278     59210526            0     59211409    12.683324    22.410327    14.188238    19.734839    33.263066    9.5406166    12.612127     22.30075    14.235163 
  170800    121.71813     59212250            0     59212724    12.683293    22.410319    14.187946    19.731771    33.262262    9.5114722    12.612127     22.30075    14.235163 
  171000    292.37284     59211455            0     59212593     12.68333    22.410294    14.187977    19.735487    33.259796    9.5145615    12.612127     22.30075    14.235163 
  171200    331.64516     59212765            0     59214056    12.683276    22.410351    14.187338    19.730075    33.265504    9.4505881    12.612127     22.30075    14.235163 
  171400     323.2107     59212231            0     59213489    12.683288     22.41036    14.187686    19.731284     33.26634     9.485465    12.612127     22.30075    14.235163 
  171600    435.66511     59212556            0     59214252    12.683315    22.410371    14.188225    19.733985    33.267507    9.5393598    12.612127     22.30075    14.235163 
  171800    246.42165     59212215            0     59213174    12.683337    22.410372    14.188424    19.736165    33.267603    9.5592855    12.612127     22.30075    14.235163 
  172000    299.62922     59212187            0     59213353    12.683306    22.410337    14.188588    19.733092    33.264029    9.5756681    12.612127     22.30075    14.235163 
  172200    142.34919     59213706            0     59214260    12.683391    22.410284    14.187671    19.741587    33.258789    9.4839009    12.612127     22.30075    14.235163 
  172400    132.96567     59210970            0     59211488    12.683327    22.410334    14.188557    19.735123    33.263801    9.5725295    12.612127     22.30075    14.235163 
  172600    230.98095     59211653            0     59212552    12.683301    22.410387    14.187717    19.732505     33.26905    9.4885251    12.612127     22.30075    14.235163 
  172800    336.65277     59211197            0     59212508    12.683341    22.410318    14.188183    19.736565    33.262139    9.5351354    12.612127     22.30075    14.235163 
  173000    332.78679     59210493            0     59211789    12.683289    22.410327    14.187935     19.73133    33.263056    9.5103021    12.612127     22.30075    14.235163 
  173200    321.72651     59212240            0     59213492    12.683314    22.410383    14.188135    19.733878    33.268679    9.5303506    12.612127     22.30075    14.235163 
  173400     167.9473     59212432            0     59213085    12.683329    22.410372    14.187977    19.735302    33.267575    9.5144943    12.612127     22.30075    14.235163 
  173600    149.02612     59213220            0     59213801    12.683336    22.410384    14.188677    19.736073    33.268786    9.5846156    12.612127     22.30075    14.235163 
  173800    293.26702     59212869            0     59214010    12.683312    22.410342    14.187993    19.733657    33.264583    9.5161392    12.612127     22.30075    14.235163 
  174000    333.12198     59212357            0     59213654    12.683303     22.41038    14.188249    19.732751    33.268317     9.541726    12.612127     22.30075    14.235163 
  174200    177.74194     59211742            0     59212434    12.683315    22.410323    14.188124    19.733911    33.262703    9.5292155    12.612127     22.30075    14.235163 
  174400    252.88388     59213278            0     59214262    12.683261    22.410319    14.187819      19.7285     33.26229    9.4987239    12.612127     22.30075    14.235163 
  174600    125.89602     59212506            0     59212996    12.683311    22.410325    14.188029    19.733513     33.26281    9.5197011    12.612127     22.30075    14.235163 
  174800    216.28922     59214284            0     59215126    12.683317    22.410384    14.187355    19.734107    33.268743    9.4523123    12.612127     22.30075    14.235163 
  175000    276.62238     59211175            0     59212252    12.683315    22.410355    14.188114    19.733923    33.265863    9.5282139    12.612127     22.30075    14.235163 
  175200    330.33478     59211246            0     59212532    12.683304    22.410356    14.188036    19.732833    33.265911    9.5204071    12.612127     22.30075    14.235163 
  175400    237.63444     59210700            0     59211625    12.683327    22.410341    14.188128    19.735192     33.26441    9.5296887    12.612127     22.30075    14.235163 
  175600    146.88004     59211522            0     59212094    12.683296    22.410306    14.187642    19.732003    33.260979    9.4809999    12.612127     22.30075    14.235163 
  175800    157.18085     59212737            0     59213349    12.683309    22.410377    14.187892    19.733355    33.268027    9.5060419    12.612127     22.30075    14.235163 
  176000    375.09077     59210750            0     59212210    12.683319    22.410374    14.188119    19.734309    33.267802    9.5287103    12.612127     22.30075    14.235163 
  176200     406.3507     59211241            0     59212823    12.683316    22.410344    14.188115    19.734055    33.264744    9.5283708    12.612127     22.30075    14.235163 
  176400    241.25095     59210167            0     59211106    12.683301    22.410381    14.188116    19.732592    33.268496    9.5284624    12.612127     22.30075    14.235163 
  176600    327.43268     59211447            0     59212722    12.683329    22.410375    14.188109    19.735365    33.267831    9.5277445    12.612127     22.30075    14.235163 
  176800    319.00323     59212196            0     59213438    12.683304    22.410356    14.188199    19.732817    33.265921    9.5367736    12.612127     22.30075    14.235163 
  177000    153.77492     59213783            0     59214382    12.683315    22.410354    14.188146    19.733911    33.265715    9.5314295    12.612127     22.30075    14.235163 
  177200    219.24182     59211180            0     59212033    12.683303    22.410342    14.188006    19.732781    33.264525     9.517395    12.612127     22.30075    14.235163 
  177400    154.26571     59212220            0     59212821    12.683295    22.410329    14.188018    19.731912    33.263268     9.518653    12.612127     22.30075    14.235163 
  177600    122.57094     59213207            0     59213684    12.683285    22.410329    14.188003    19.730926    33.263277    9.5171827    12.612127     22.30075    14.235163 
  177800    322.65468     59213866            0     59215122    12.683252     22.41035    14.187702    19.727617    33.265404    9.4869789    12.612127     22.30075    14.235163 
  178000    218.24725     59213240            0     59214089     12.68336      22.4103    14.188141    19.738477    33.260328    9.5309853    12.612127     22.30075    14.235163 
  178200    316.16371     59212326            0     59213557    12.683334    22.410357    14.187925    19.735874    33.266011    9.5093409    12.612127     22.30075    14.235163 
  178400    222.89636     59210882            0     59211750    12.683316    22.410383    14.187918    19.734076    33.268649    9.5085899    12.612127     22.30075    14.235163 
  178600    215.52755     59211890            0     59212729    12.683291    22.410355    14.188159    19.731554    33.265867     9.532696    12.612127     22.30075    14.235163 
  178800    285.61062     59211424            0     59212536    12.683321    22.410367     14.18817     19.73456      33.2671     9.533814    12.612127     22.30075    14.235163 
  179000    235.87451     59210458            0     59211376    12.683348    22.410354    14.188129    19.737226    33.265737    9.5297702    12.612127     22.30075    14.235163 
  179200    208.20413     59214245            0     59215056    12.683322    22.410347    14.187655    19.734697    33.265023    9.4822786    12.612127     22.30075    14.235163 
  179400    237.26487     59213809            0     59214733    12.683311    22.410386    14.187853    19.733503    33.268959    9.5021496    12.612127     22.30075    14.235163 
  179600    582.92012     59212525            0     59214795    12.683322    22.410392    14.187691    19.734644    33.269602    9.4859534    12.612127     22.30075    14.235163 
  179800    310.39424     59211599            0     59212807    12.683331    22.410363    14.188499    19.735588    33.266615    9.5667961    12.612127     22.30075    14.235163 
  180000    270.20072     59213483            0     59214535    12.683317    22.410329    14.188566     19.73418    33.263215    9.5734926    12.612127     22.30075    14.235163 
  180200    230.35253     59211460            0     59212357    12.683306    22.410372    14.188205     19.73307    33.267593    9.5373782    12.612127     22.30075    14.235163 
  180400     139.2446     59211496            0     59212038    12.683319    22.410361    14.188201    19.734299    33.266459    9.5369504    12.612127     22.30075    14.235163 
  180600    332.18243     59210349            0     59211642    12.683342    22.410344    14.188192    19.736603    33.264738    9.5360522    12.612127     22.30075    14.235163 
  180800    307.79096     59212334            0     59213532    12.683326    22.410353    14.187813    19.735008    33.265623    9.4981043    12.612127     22.30075    14.235163 
  181000    144.81578     59212227            0     59212791    12.683298    22.410325    14.188016    19.732227     33.26284    9.5184246    12.612127     22.30075    14.235163 
  181200    164.31902     59210765            0     59211405    12.683316    22.410372    14.188336    19.734052    33.267576    9.5504904    12.612127     22.30075    14.235163 
  181400    215.62491     59210476            0     59211315    12.683316    22.410354    14.187989    19.734084    33.265709    9.5157046    12.612127     22.30075    14.235163 
  181600    367.04376     59211702            0     59213131    12.683305    22.410346    14.188449    19.732945    33.264927    9.5617909    12.612127     22.30075    14.235163 
  181800     260.7788     59210691            0     59211706    12.683308    22.410328    14.187663    19.733286    33.263191    9.4831066    12.612127     22.30075    14.235163 
  182000    158.68007     59211425            0     59212043    12.683302    22.410366    14.188232    19.732617    33.266933    9.5400913    12.612127     22.30075    14.235163 
  182200    174.26283     59210913            0     59211591    12.683341    22.410375    14.188194    19.736567    33.267827    9.5362733    12.612127     22.30075    14.235163 
  182400    179.91646     59212311            0     59213011    12.683354    22.410322    14.188395    19.737887    33.262559    9.5563082    12.612127     22.30075    14.235163 
  182600    214.10929     59211351            0     59212184     12.68333    22.410352    14.188086    19.735459    33.265573     9.525443    12.612127     22.30075    14.235163 
  182800    132.52359     59210986            0     59211502    12.683344    22.410291    14.188419    19.736847    33.259418    9.5587464    12.612127     22.30075    14.235163 
  183000    271.38593     59211869            0     59212926    12.683319    22.410353    14.187935     19.73437    33.265667     9.510357    12.612127     22.30075    14.235163 
  183200    190.09549     59211633            0     59212373    12.683316    22.410355    14.188281    19.734027    33.265874    9.5449189    12.612127     22.30075    14.235163 
  183400    244.17286     59211921            0     59212872    12.683329    22.410335    14.187903    19.735386    33.263838    9.5071711    12.612127     22.30075    14.235163 
  183600    223.43623     59210559            0     59211429     12.68332    22.410351    14.188078    19.734496    33.265492    9.5245994    12.612127     22.30075    14.235163 
  183800    179.68511     59211522            0     59212222    12.683323    22.410302    14.188222    19.734791    33.260606    9.5390634    12.612127     22.30075    14.235163 
  184000    372.67216     59212369            0     59213820    12.683355     22.41035    14.188596    19.737957    33.265345    9.5764294    12.612127     22.30075    14.235163 
  184200    304.22608     59211805            0     59212989    12.683321    22.410367    14.188306    19.734516    33.267102    9.5474025    12.612127     22.30075    14.235163 
  184400    307.25312     59212170            0     59213366    12.683316    22.410357    14.188345    19.734022    33.266092    9.5514025    12.612127     22.30075    14.235163 
  184600    498.18699     59212028            0     59213968    12.683301    22.410336     14.18867     19.73254    33.263962    9.5839037    12.612127     22.30075    14.235163 
  184800    103.62489     59212471            0     59212874    12.683322    22.410361    14.188039    19.734611    33.266427    9.5207857    12.612127     22.30075    14.235163 
  185000    324.15859     59213849            0     59215111     12.68329    22.410359    14.187777    19.731474    33.266269    9.4945305    12.612127     22.30075    14.235163 
  185200     387.4502     59212182            0     59213690    12.683308    22.410342    14.188037    19.733207    33.264585    9.5205377    12.612127     22.30075    14.235163 
  185400    290.17288     59212890            0     59214020    12.683287    22.410352     14.18817    19.731185     33.26559    9.5338125    12.612127     22.30075    14.235163 
  185600    241.94782     59212506            0     59213448    12.683353    22.410363    14.188204    19.737726    33.266654    9.5372288    12.612127     22.30075    14.235163 
  185800    287.12126     59211258            0     59212376    12.683308    22.410368    14.187708    19.733266    33.267203    9.4875855    12.612127     22.30075    14.235163 
  186000    343.95259     59212114            0     59213453    12.683321     22.41037    14.188424    19.734552    33.267395    9.5592463    12.612127     22.30075    14.235163 
  186200    284.64038     59212397            0     59213505    12.683316    22.410353     14.18802    19.734016    33.265686    9.5188247    12.612127     22.30075    14.235163 
  186400    293.70073     59212091            0     59213234    12.683336    22.410359    14.187929    19.736012      33.2663    9.5097455    12.612127     22.30075    14.235163 
  186600    166.54546     59212421            0     59213070    12.683336    22.410286    14.187655    19.736015    33.258954    9.4823115    12.612127     22.30075    14.235163 
  186800     220.7597     59212249            0     59213109    12.683312    22.410351    14.188233    19.733611    33.265503    9.5401882    12.612127     22.30075    14.235163 
  187000    256.40176     59211755            0     59212754    12.683305    22.410361    14.188387    19.732969     33.26647    9.5555445    12.612127     22.30075    14.235163 
  187200    307.19093     59213285            0     59214481    12.683319    22.410362    14.187964    19.734345    33.266524    9.5132738    12.612127     22.30075    14.235163 
  187400    146.40625     59212128            0     59212698    12.683335    22.410298    14.188182    19.735985    33.260136    9.5350357    12.612127     22.30075    14.235163 
  187600    363.56182     59212473            0     59213888    12.683294    22.410335    14.188489     19.73186    33.263906    9.5657901    12.612127     22.30075    14.235163 
  187800    296.50123     59213340            0     59214494     12.68331    22.410379    14.188624    19.733431    33.268259    9.5792805    12.612127     22.30075    14.235163 
  188000    379.97061     59211481            0     59212961    12.683311    22.410353    14.188501    19.733533     33.26569    9.5669435    12.612127     22.30075    14.235163 
  188200    387.10394     59212449            0     59213956    12.683326    22.410374    14.188685    19.735081    33.267712    9.5853716    12.612127     22.30075    14.235163 
  188400    127.22326     59211207            0     59211702    12.683317    22.410353    14.188197    19.734138    33.265658    9.5365392    12.612127     22.30075    14.235163 
  188600    302.64908     59212221            0     59213399    12.683316    22.410353    14.188423    19.734007    33.265685    9.5591931    12.612127     22.30075    14.235163 
  188800    246.18912     59211849            0     59212808    12.683343     22.41035    14.188154    19.736752     33.26531    9.5322683    12.612127     22.30075    14.235163 
  189000    182.41248     59212006            0     59212716    12.683292    22.410335     14.18767    19.731617    33.263891    9.4837943    12.612127     22.30075    14.235163 
  189200     235.7993     59210583            0     59211501     12.68331    22.410362    14.187952    19.733449    33.266561    9.5120329    12.612127     22.30075    14.235163 
  189400    258.69494     59209788            0     59210795    12.683318    22.410364    14.188099      19.7342    33.266786     9.526782    12.612127     22.30075    14.235163 
  189600    448.05671     59211801            0     59213545    12.683322    22.410353    14.188602    19.734646    33.265655    9.5770481    12.612127     22.30075    14.235163 
  189800    226.17839     59212428            0     59213309    12.683309    22.410359    14.188826     19.73333    33.266228    9.5994952    12.612127     22.30075    14.235163 
  190000     420.8648     59215232            0     59216870    12.683323    22.410388    14.188486    19.734783    33.269159    9.5654788    12.612127     22.30075    14.235163 
  190200    210.63748     59213081            0     59213901    12.683312    22.410314    14.187506    19.733614    33.261793    9.4674355    12.612127     22.30075    14.235163 
  190400    251.83777     59211499            0     59212480    12.683314    22.410376    14.188263    19.733841    33.267926    9.5431595    12.612127     22.30075    14.235163 
  190600    294.17954     59211079            0     59212225    12.683317    22.410351    14.188103    19.734114    33.265485    9.5271529    12.612127     22.30075    14.235163 
  190800    220.95755     59210690            0     59211550    12.683279    22.410363    14.188285    19.730307    33.266695    9.5453268    12.612127     22.30075    14.235163 
  191000    171.78767     59211522            0     59212191    12.683314     22.41036    14.188063    19.733804    33.266394    9.5231205    12.612127     22.30075    14.235163 
  191200     161.0713     59210535            0     59211162    12.683296     22.41037    14.188137    19.732065    33.267327     9.530557    12.612127     22.30075    14.235163 
  191400    391.19631     59210924            0     59212447    12.683266    22.410375    14.188133    19.728999    33.267841    9.5301353    12.612127     22.30075    14.235163 
  191600    363.90318     59210621            0     59212037    12.683348    22.410355    14.188219    19.737253    33.265897    9.5387859    12.612127     22.30075    14.235163 
  191800     318.2839     59210993            0     59212232    12.683264    22.410327    14.188103    19.728841     33.26309    9.5271156    12.612127     22.30075    14.235163 
  192000     226.4099     59212281            0     59213163    12.683315    22.410354    14.188237    19.733946    33.265768    9.5405742    12.612127     22.30075    14.235163 
  192200     361.5486     59211128            0     59212536    12.683354     22.41036     14.18806    19.737821     33.26633    9.5228908    12.612127     22.30075    14.235163 
  192400    295.67132     59210883            0     59212034    12.683342    22.410323    14.188103    19.736666    33.262623    9.5271807    12.612127     22.30075    14.235163 
  192600    389.48234     59212505            0     59214022    12.683303    22.410351    14.187879    19.732786    33.265481    9.5046998    12.612127     22.30075    14.235163 
  192800    232.32685     59213703            0     59214607     12.68332     22.41035    14.188173    19.734497    33.265381    9.5341427    12.612127     22.30075    14.235163 
  193000    220.95207     59212343            0     59213203    12.683298    22.410364    14.188183    19.732247    33.266753    9.5351272    12.612127     22.30075    14.235163 
  193200     315.8299     59212528            0     59213758    12.683327    22.410333     14.18847    19.735157     33.26363    9.5638142    12.612127     22.30075    14.235163 
  193400    196.91928     59211558            0     59212324    12.683323    22.410376    14.187646    19.734772    33.267928    9.4814031    12.612127     22.30075    14.235163 
  193600    258.55818     59212896            0     59213903    12.683295    22.410398    14.188007     19.73199    33.270156    9.5175747    12.612127     22.30075    14.235163 
  193800    295.22825     59211158            0     59212308    12.683315    22.410354    14.188234    19.733978    33.265758    9.5402462    12.612127     22.30075    14.235163 
  194000    213.00851     59211568            0     59212398    12.683316    22.410353    14.187771    19.734071    33.265636     9.493907    12.612127     22.30075    14.235163 
  194200    359.74844     59211341            0     59212741    12.683292    22.410351    14.188199    19.731651    33.265499    9.5367358    12.612127     22.30075    14.235163 
  194400    358.37863     59211402            0     59212797    12.683311    22.410326    14.188674    19.733596    33.262956    9.5842482    12.612127     22.30075    14.235163 
  194600    345.70706     59211299            0     59212645    12.683317    22.410356    14.188226    19.734156    33.265979    9.5394744    12.612127     22.30075    14.235163 
  194800    258.01305     59211750            0     59212755    12.683371    22.410318    14.188133    19.739582    33.262118    9.5301218    12.612127     22.30075    14.235163 
  195000    194.84885     59211654            0     59212412    12.683325    22.410365    14.188036    19.734918    33.266902    9.5204763    12.612127     22.30075    14.235163 
  195200    261.35111     59211751            0     59212769    12.683316    22.410353    14.188242    19.734024    33.265698    9.5410136    12.612127     22.30075    14.235163 
  195400    417.90461     59211891            0     59213518    12.683332    22.410372    14.188564    19.735606    33.267577    9.5732426    12.612127     22.30075    14.235163 
  195600     92.33069     59211132            0     59211491     12.68332    22.410343    14.188396    19.734408    33.264685     9.556504    12.612127     22.30075    14.235163 
  195800    173.60678     59212450            0     59213126    12.683329    22.410347    14.187924    19.735322    33.265035    9.5092791    12.612127     22.30075    14.235163 
  196000    162.49275     59210096            0     59210728    12.683316    22.410353    14.188146    19.734027    33.265686    9.5314252    12.612127     22.30075    14.235163 
  196200    239.15264     59211710            0     59212641    12.683291    22.410352    14.187765    19.731574      33.2656    9.4933384    12.612127     22.30075    14.235163 
  196400    291.60755     59211081            0     59212216    12.683316    22.410353    14.188331    19.734009    33.265684     9.549967    12.612127     22.30075    14.235163 
  196600    134.43009     59210855            0     59211379    12.683279    22.410342    14.188247    19.730311    33.264587    9.5415171    12.612127     22.30075    14.235163 
  196800    402.76737     59213250            0     59214818    12.683274    22.410363    14.187737    19.729815    33.266654    9.4905398    12.612127     22.30075    14.235163 
  197000    379.56202     59212958            0     59214435    12.683294    22.410414    14.188014    19.731842    33.271721    9.5182741    12.612127     22.30075    14.235163 
  197200    447.12816     59211005            0     59212745    12.683306    22.410351    14.187793    19.733075    33.265411    9.4961741    12.612127     22.30075    14.235163 
  197400    278.05061     59212611            0     59213694    12.683349    22.410371    14.188862    19.737371     33.26748    9.6030425    12.612127     22.30075    14.235163 
  197600    217.15312     59212333            0     59213178    12.683316    22.410353    14.188163    19.734015     33.26569    9.5331098    12.612127     22.30075    14.235163 
  197800    277.91002     59212391            0     59213473    12.683288    22.410351    14.188006    19.731289    33.265488    9.5174686    12.612127     22.30075    14.235163 
  198000    187.97408     59211636            0     59212367      12.6833    22.410366    14.188406    19.732471    33.266987     9.557431    12.612127     22.30075    14.235163 
  198200    303.82905     59210450            0     59211633    12.683322    22.410362    14.188185    19.734626    33.266515    9.5353017    12.612127     22.30075    14.235163 
  198400    225.43596     59212425            0     59213303    12.683316    22.410353    14.188023    19.734033    33.265673     9.519117    12.612127     22.30075    14.235163 
  198600    101.60814     59212085            0     59212481    12.683308    22.410352    14.187772    19.733287     33.26551    9.4939975    12.612127     22.30075    14.235163 
  198800    110.80341     59211212            0     59211643    12.683326    22.410409    14.187779    19.735049    33.271281    9.4947716    12.612127     22.30075    14.235163 
  199000    220.49632     59211770            0     59212628    12.683324    22.410343    14.188023    19.734873     33.26461    9.5191559    12.612127     22.30075    14.235163 
  199200    116.36625     59215871            0     59216324    12.683297     22.41029    14.187945    19.732167    33.259392    9.5113491    12.612127     22.30075    14.235163 
  199400    196.22252     59211947            0     59212711    12.683304    22.410373    14.187974    19.732833    33.267616    9.5142827    12.612127     22.30075    14.235163 
  199600    154.11865     59213200            0     59213800    12.683336    22.410341    14.188374    19.736081     33.26447    9.5542161    12.612127     22.30075    14.235163 
  199800    397.33632     59211583            0     59213130    12.683353    22.410352    14.187595    19.737781    33.265578    9.4763097    12.612127     22.30075    14.235163 
  200000    109.06015     59212696            0     59213121    12.683316    22.410354    14.188079    19.734037    33.265753    9.5246937    12.612127     22.30075    14.235163 
  200200    292.85528     59210781            0     59211921    12.683301    22.410411    14.188217    19.732523    33.271449    9.5385363    12.612127     22.30075    14.235163 
  200400    436.91215     59210788            0     59212489    12.683253    22.410321    14.188273    19.727716    33.262506    9.5441695    12.612127     22.30075    14.235163 
  200600    133.95673     59210295            0     59210817    12.683329     22.41036    14.188065    19.735346     33.26631    9.5233582    12.612127     22.30075    14.235163 
  200800     255.3844     59210797            0     59211791    12.683345    22.410354    14.188098    19.736922    33.265738    9.5266199    12.612127     22.30075    14.235163 
  201000    282.20599     59212147            0     59213245    12.683305    22.410359    14.188682    19.732922    33.266212    9.5850849    12.612127     22.30075    14.235163 
  201200    325.95372     59210755            0     59212023    12.683309    22.410352    14.188041    19.733308    33.265543    9.5209368    12.612127     22.30075    14.235163 
  201400    246.84894     59210456            0     59211417    12.683299    22.410374    14.188074    19.732318    33.267774    9.5242195    12.612127     22.30075    14.235163 
  201600    198.08851     59212574            0     59213346    12.683307    22.410397    14.188275    19.733158    33.270083     9.544308    12.612127     22.30075    14.235163 
  201800     300.9024     59211649            0     59212820    12.683321    22.410365      14.1879    19.734587     33.26683    9.5068358    12.612127     22.30075    14.235163 
  202000     187.2499     59211620            0     59212349    12.683337    22.410324    14.188085    19.736163    33.262741     9.525351    12.612127     22.30075    14.235163 
  202200    243.72737     59212108            0     59213057    12.683314    22.410314    14.187898    19.733871     33.26179    9.5066119    12.612127     22.30075    14.235163 
  202400    224.47178     59211782            0     59212656     12.68332    22.410409    14.187939     19.73447    33.271216    9.5106891    12.612127     22.30075    14.235163 
  202600    225.90181     59211052            0     59211931    12.683293    22.410354    14.187854    19.731698     33.26576    9.5022617    12.612127     22.30075    14.235163 
  202800    194.92598     59211934            0     59212693    12.683315    22.410345    14.188345    19.733979    33.264814    9.5513177    12.612127     22.30075    14.235163 
  203000    270.94546     59211057            0     59212112    12.683323    22.410361    14.188082    19.734749    33.266471    9.5250668    12.612127     22.30075    14.235163 
  203200    293.55828     59211422            0     59212565    12.683316    22.410353    14.187975    19.734013    33.265688    9.5143096    12.612127     22.30075    14.235163 
  203400    200.88514     59211109            0     59211891    12.683305    22.410309    14.188138    19.732979    33.261299    9.5306045    12.612127     22.30075    14.235163 
  203600    140.68596     59210141            0     59210689     12.68329    22.410352    14.188146    19.731474     33.26552    9.5314192    12.612127     22.30075    14.235163 
  203800    141.45862     59212279            0     59212830    12.683292    22.410382    14.188183    19.731623    33.268605     9.535156    12.612127     22.30075    14.235163 
  204000    471.08779     59210514            0     59212347    12.683323    22.410378    14.188213    19.734785    33.268143    9.5381377    12.612127     22.30075    14.235163 
  204200    289.57253     59211257            0     59212385    12.683315     22.41035    14.188137    19.733952    33.265317    9.5305931    12.612127     22.30075    14.235163 
  204400    276.56946     59211313            0     59212389    12.683315    22.410353    14.188172    19.733918    33.265698    9.5340669    12.612127     22.30075    14.235163 
  204600    283.71618     59210650            0     59211755    12.683297    22.410348    14.188182    19.732179    33.265138    9.5350282    12.612127     22.30075    14.235163 
  204800     146.3289     59211145            0     59211714     12.68333    22.410341    14.188075    19.735456    33.264452    9.5243299    12.612127     22.30075    14.235163 
  205000    155.74399     59210034            0     59210640    12.683328    22.410325    14.188083    19.735249    33.262883    9.5251891    12.612127     22.30075    14.235163 
  205200    360.44663     59210912            0     59212315    12.683306    22.410355    14.188091    19.733062    33.265871    9.5259095    12.612127     22.30075    14.235163 
  205400    415.54398     59211926            0     59213544    12.683317    22.410353    14.188354    19.734101    33.265682    9.5522811    12.612127     22.30075    14.235163 
  205600     198.0022     59211709            0     59212479    12.683266    22.410354    14.188015    19.729063    33.265716     9.518297    12.612127     22.30075    14.235163 
  205800    303.44028     59211665            0     59212846    12.683372    22.410353    14.188204     19.73967     33.26569     9.537294    12.612127     22.30075    14.235163 
  206000    343.40632     59211819            0     59213156    12.683308    22.410394    14.188002    19.733239    33.269765    9.5170127    12.612127     22.30075    14.235163 
  206200    134.19727     59210323            0     59210845    12.683356    22.410363    14.187904    19.738053    33.266652    9.5072811    12.612127     22.30075    14.235163 
  206400    184.27625     59211771            0     59212489    12.683266    22.410346     14.18791    19.729047    33.264998    9.5078473    12.612127     22.30075    14.235163 
  206600    89.800606     59212455            0     59212804    12.683325    22.410348    14.187806    19.734958    33.265178    9.4974104    12.612127     22.30075    14.235163 
  206800    356.09253     59211063            0     59212450    12.683326    22.410329    14.187811    19.735048    33.263261    9.4978916    12.612127     22.30075    14.235163 
  207000    208.40648     59211453            0     59212264    12.683329    22.410371    14.187977    19.735356    33.267452    9.5145172    12.612127     22.30075    14.235163 
  207200    318.55758     59211125            0     59212365    12.683323    22.410335    14.188015    19.734703    33.263821    9.5183167    12.612127     22.30075    14.235163 
  207400    264.64149     59211652            0     59212682    12.683315    22.410354    14.188133    19.733931    33.265751     9.530151    12.612127     22.30075    14.235163 
  207600    178.86608     59211852            0     59212548    12.683311    22.410361    14.188212    19.733524    33.266463    9.5380655    12.612127     22.30075    14.235163 
  207800    168.68118     59211887            0     59212543      12.6833    22.410371    14.188238    19.732446    33.267447    9.5406923    12.612127     22.30075    14.235163 
  208000    208.40327     59212170            0     59212981    12.683327     22.41033    14.188004    19.735173    33.263396    9.5171966    12.612127     22.30075    14.235163 
  208200    282.48977     59210944            0     59212044    12.683324    22.410348    14.188082    19.734887    33.265166    9.5250135    12.612127     22.30075    14.235163 
  208400    168.91919     59211528            0     59212186    12.683336    22.410304     14.18823    19.736069    33.260729    9.5398752    12.612127     22.30075    14.235163 
  208600    441.68124     59212072            0     59213792    12.683283    22.410361    14.187998    19.730762    33.266498    9.5166863    12.612127     22.30075    14.235163 
  208800    126.47953     59212042            0     59212534    12.683319    22.410342    14.188282    19.734397     33.26457    9.5450092    12.612127     22.30075    14.235163 
  209000    280.77118     59212437            0     59213530    12.683262    22.410381    14.187959    19.728643    33.268474    9.5127276    12.612127     22.30075    14.235163 
  209200    149.37719     59212230            0     59212812    12.683323    22.410315     14.18853    19.734701      33.2619    9.5698632    12.612127     22.30075    14.235163 
  209400    353.99798     59212904            0     59214282    12.683381     22.41029    14.188049    19.740594    33.259328    9.5217842    12.612127     22.30075    14.235163 
  209600    163.71139     59212763            0     59213400    12.683361    22.410318    14.187905    19.738593     33.26212    9.5073829    12.612127     22.30075    14.235163 
  209800    277.99427     59211758            0     59212840     12.68332    22.410347    14.187895    19.734441    33.265099    9.5063082    12.612127     22.30075    14.235163 
  210000    218.58692     59212090            0     59212941     12.68331    22.410327    14.188471    19.733472      33.2631     9.563947    12.612127     22.30075    14.235163 
  210200    281.05288     59210971            0     59212065    12.683319    22.410357    14.188043    19.734379    33.266107     9.521124    12.612127     22.30075    14.235163 
  210400    264.74952     59211581            0     59212612    12.683303    22.410283    14.188179    19.732724    33.258646    9.5347827    12.612127     22.30075    14.235163 
  210600    125.33156     59213290            0     59213777    12.683314    22.410323     14.18807    19.733838    33.262642    9.5238252    12.612127     22.30075    14.235163 
  210800    202.66524     59213258            0     59214047    12.683329    22.410353    14.188544    19.735314     33.26566    9.5712411    12.612127     22.30075    14.235163 
  211000     199.4378     59212207            0     59212983    12.683339    22.410354    14.188418    19.736315    33.265781    9.5586586    12.612127     22.30075    14.235163 
  211200     269.9371     59212080            0     59213130    12.683342    22.410344    14.187869     19.73667    33.264799    9.5037156    12.612127     22.30075    14.235163 
  211400    261.69798     59211504            0     59212523    12.683287    22.410356    14.187982    19.731127    33.265921    9.5150443    12.612127     22.30075    14.235163 
  211600    174.21664     59210756            0     59211434    12.683301    22.410329     14.18807     19.73252     33.26324    9.5238346    12.612127     22.30075    14.235163 
  211800     323.9606     59211345            0     59212607    12.683319    22.410359    14.188286    19.734351    33.266292    9.5454011    12.612127     22.30075    14.235163 
  212000    246.93163     59209904            0     59210866    12.683301    22.410344    14.188198    19.732525    33.264773    9.5366955    12.612127     22.30075    14.235163 
  212200    246.98914     59210075            0     59211037    12.683325    22.410334    14.188261    19.734932    33.263794    9.5429065    12.612127     22.30075    14.235163 
  212400    240.76935     59210414            0     59211352    12.683349    22.410351    14.188142    19.737328    33.265463    9.5309971    12.612127     22.30075    14.235163 
  212600    328.98605     59211244            0     59212525    12.683314    22.410353    14.188325     19.73386    33.265689    9.5493489    12.612127     22.30075    14.235163 
  212800    321.98733     59210652            0     59211905    12.683339    22.410352    14.188064     19.73637    33.265563    9.5232086    12.612127     22.30075    14.235163 
  213000    116.91612     59212139            0     59212594    12.683285    22.410399    14.188079     19.73099    33.270212    9.5247739    12.612127     22.30075    14.235163 
  213200    89.469312     59211494            0     59211843    12.683314     22.41036    14.188225    19.733868    33.266357     9.539335    12.612127     22.30075    14.235163 
  213400    95.447207     59210099            0     59210470    12.683316    22.410353    14.188124    19.734014    33.265683    9.5292726    12.612127     22.30075    14.235163 
  213600    286.88104     59211572            0     59212689    12.683318    22.410375    14.188209    19.734241    33.267814    9.5377005    12.612127     22.30075    14.235163 
  213800    208.05975     59211232            0     59212042    12.683309    22.410361    14.187939    19.733301    33.266468    9.5107531    12.612127     22.30075    14.235163 
  214000    266.11719     59210901            0     59211937    12.683331    22.410328    14.188432    19.735541    33.263195    9.5600933    12.612127     22.30075    14.235163 
  214200    230.21147     59210347            0     59211243    12.683304    22.410354    14.188083     19.73281    33.265734    9.5251688    12.612127     22.30075    14.235163 
  214400    126.65449     59212599            0     59213092    12.683369    22.410379    14.188271    19.739356     33.26823    9.5439568    12.612127     22.30075    14.235163 
  214600     421.1373     59212384            0     59214023     12.68329    22.410358    14.188148      19.7314    33.266157    9.5316531    12.612127     22.30075    14.235163 
  214800    306.98603     59211368            0     59212563    12.683316    22.410352    14.187974    19.734081    33.265591    9.5142314    12.612127     22.30075    14.235163 
  215000    269.04579     59211819            0     59212866    12.683338    22.410363     14.18813    19.736209    33.266706    9.5298474    12.612127     22.30075    14.235163 
  215200     279.3551     59211828            0     59212915    12.683295    22.410351    14.188082    19.731956    33.265419    9.5250299    12.612127     22.30075    14.235163 
  215400    211.35371     59211260            0     59212083    12.683342    22.410318    14.188319    19.736611    33.262159    9.5487211    12.612127     22.30075    14.235163 
  215600    181.55407     59212217            0     59212924    12.683352     22.41035    14.187976    19.737666     33.26531    9.5144385    12.612127     22.30075    14.235163 
  215800    227.96634     59212243            0     59213131    12.683301    22.410341    14.188133    19.732498    33.264494    9.5301206    12.612127     22.30075    14.235163 
  216000    201.88926     59210717            0     59211503    12.683305    22.410337    14.188168    19.732928    33.264098    9.5336535    12.612127     22.30075    14.235163 
  216200    400.07715     59210957            0     59212515    12.683308    22.410353    14.187986    19.733219    33.265703    9.5154309    12.612127     22.30075    14.235163 
  216400    251.58494     59212109            0     59213088    12.683312    22.410349    14.187689    19.733678    33.265212    9.4857338    12.612127     22.30075    14.235163 
  216600    292.78333     59211676            0     59212816    12.683322    22.410351    14.188396    19.734617    33.265487    9.5564437    12.612127     22.30075    14.235163 
  216800    192.69885     59212114            0     59212864    12.683329    22.410302    14.188549    19.735322    33.260596    9.5717775    12.612127     22.30075    14.235163 
  217000    235.94959     59211410            0     59212328    12.683243    22.410341    14.188446    19.726714    33.264425    9.5614936    12.612127     22.30075    14.235163 
  217200    180.78253     59210884            0     59211588    12.683305    22.410371    14.188045    19.732908    33.267421    9.5213822    12.612127     22.30075    14.235163 
  217400    351.25265     59210698            0     59212066    12.683325    22.410411    14.188007    19.734912    33.271451    9.5175285    12.612127     22.30075    14.235163 
  217600    196.63845     59211975            0     59212741     12.68336     22.41035    14.188378    19.738425    33.265346     9.554621    12.612127     22.30075    14.235163 
  217800    317.67976     59211931            0     59213167    12.683304    22.410328    14.188594     19.73288    33.263185    9.5763088    12.612127     22.30075    14.235163 
  218000    327.65329     59212525            0     59213801    12.683282    22.410364    14.188174    19.730675    33.266808    9.5342132    12.612127     22.30075    14.235163 
  218200    137.16713     59211343            0     59211877    12.683355    22.410314    14.188175    19.737956    33.261726    9.5343367    12.612127     22.30075    14.235163 
  218400    230.81374     59212315            0     59213213    12.683332    22.410348    14.188054     19.73568     33.26516    9.5222313    12.612127     22.30075    14.235163 
  218600    283.43137     59211638            0     59212741    12.683283    22.410365    14.188259    19.730696    33.266857    9.5427244    12.612127     22.30075    14.235163 
  218800    227.48985     59211109            0     59211994    12.683318    22.410343    14.188116    19.734247    33.264698    9.5284556    12.612127     22.30075    14.235163 
  219000    388.82002     59210614            0     59212127     12.68332    22.410353    14.188265    19.734472    33.265663    9.5433719    12.612127     22.30075    14.235163 
  219200    193.57531     59211629            0     59212382    12.683314    22.410356    14.188128    19.733857    33.266003      9.52967    12.612127     22.30075    14.235163 
  219400    238.01211     59213077            0     59214004    12.683316    22.410349    14.188178    19.734059    33.265303    9.5346415    12.612127     22.30075    14.235163 
  219600    171.57528     59212873            0     59213541    12.683314    22.410358    14.187938    19.733797     33.26613     9.510611    12.612127     22.30075    14.235163 
  219800    392.53489     59211375            0     59212903    12.683283    22.410349    14.188046    19.730731    33.265276     9.521412    12.612127     22.30075    14.235163 
  220000    149.27652     59211407            0     59211988    12.683311    22.410361    14.187952    19.733569    33.266415    9.5119986    12.612127     22.30075    14.235163 
  220200    200.43173     59211634            0     59212414    12.683293    22.410355    14.187999     19.73173    33.265819     9.516722    12.612127     22.30075    14.235163 
  220400    241.14172     59211483            0     59212421    12.683316    22.410353    14.188132     19.73402    33.265696    9.5300291    12.612127     22.30075    14.235163 
  220600    94.122339     59210466            0     59210832    12.683306    22.410362    14.188097    19.733025     33.26653    9.5265043    12.612127     22.30075    14.235163 
  220800    224.58373     59210702            0     59211576    12.683294     22.41037    14.188074    19.731871     33.26734    9.5242248    12.612127     22.30075    14.235163 
  221000    220.96243     59211950            0     59212811    12.683286    22.410357     14.18796     19.73109    33.266097    9.5128746    12.612127     22.30075    14.235163 
  221200     215.9061     59210972            0     59211812    12.683333    22.410352    14.188191    19.735718    33.265593    9.5359825    12.612127     22.30075    14.235163 
  221400     200.1176     59210515            0     59211294    12.683317    22.410343    14.188204    19.734158    33.264668    9.5372499    12.612127     22.30075    14.235163 
  221600    266.47216     59212519            0     59213556    12.683315    22.410344     14.18852    19.733923    33.264726    9.5688419    12.612127     22.30075    14.235163 
  221800     155.2355     59211906            0     59212510    12.683316    22.410359    14.188149    19.734044    33.266302     9.531757    12.612127     22.30075    14.235163 
  222000    151.57901     59211510            0     59212100    12.683328    22.410349    14.188435     19.73521    33.265212    9.5603123    12.612127     22.30075    14.235163 
  222200     158.6138     59211191            0     59211808    12.683354    22.410377    14.188204    19.737812    33.268026     9.537219    12.612127     22.30075    14.235163 
  222400    312.15401     59211618            0     59212833    12.683352    22.410324    14.188265    19.737629    33.262716    9.5433202    12.612127     22.30075    14.235163 
  222600    323.86001     59210238            0     59211499    12.683339     22.41037    14.188096     19.73637    33.267365    9.5263982    12.612127     22.30075    14.235163 
  222800    243.32186     59211408            0     59212355     12.68332    22.410321    14.188117    19.734452    33.262488     9.528583    12.612127     22.30075    14.235163 
  223000    304.55778     59211701            0     59212886    12.683307    22.410327    14.188146    19.733163    33.263104    9.5314021    12.612127     22.30075    14.235163 
  223200    315.65951     59211066            0     59212295    12.683319    22.410357    14.188023    19.734394    33.266033    9.5191305    12.612127     22.30075    14.235163 
  223400    271.65659     59211094            0     59212151    12.683316    22.410354    14.188038     19.73403    33.265712    9.5206443    12.612127     22.30075    14.235163 
  223600    210.18337     59210578            0     59211396     12.68331    22.410417    14.188169    19.733411    33.272015    9.5337114    12.612127     22.30075    14.235163 
  223800    392.34882     59211493            0     59213021    12.683318    22.410354    14.188122    19.734203    33.265711    9.5290874    12.612127     22.30075    14.235163 
  224000    319.39873     59211375            0     59212618    12.683319    22.410351    14.188173    19.734343    33.265428     9.534173    12.612127     22.30075    14.235163 
  224200    278.65117     59211200            0     59212285    12.683316    22.410356    14.188307    19.734041    33.265925    9.5475025    12.612127     22.30075    14.235163 
  224400    245.82849     59212855            0     59213812    12.683324    22.410376    14.187284    19.734817     33.26794    9.4452128    12.612127     22.30075    14.235163 
  224600    237.68646     59212608            0     59213533    12.683308    22.410387    14.187526     19.73328    33.269044    9.4694012    12.612127     22.30075    14.235163 
  224800    205.50149     59214037            0     59214837    12.683332    22.410338    14.187773    19.735611    33.264152    9.4941114    12.612127     22.30075    14.235163 
  225000    282.62688     59211562            0     59212662    12.683312     22.41035    14.187679    19.733659    33.265396    9.4847451    12.612127     22.30075    14.235163 
  225200    167.20285     59212273            0     59212924    12.683317    22.410355    14.187629    19.734155    33.265906    9.4797266    12.612127     22.30075    14.235163 
  225400    276.11887     59212198            0     59213273    12.683256    22.410322    14.187361    19.727996    33.262518    9.4529069    12.612127     22.30075    14.235163 
  225600    248.28983     59212830            0     59213797     12.68332     22.41036    14.187837    19.734481    33.266329    9.5004842    12.612127     22.30075    14.235163 
  225800    112.48667     59213264            0     59213702    12.683317    22.410356    14.188224    19.734195    33.265946    9.5392607    12.612127     22.30075    14.235163 
  226000    181.07727     59210897            0     59211602    12.683274    22.410364    14.187741    19.729796     33.26674    9.4909274    12.612127     22.30075    14.235163 
  226200    544.36518     59210993            0     59213112    12.683281    22.410381    14.188251    19.730499    33.268476    9.5419416    12.612127     22.30075    14.235163 
  226400    185.09628     59211593            0     59212314    12.683346    22.410385    14.188011    19.737055    33.268851    9.5179299    12.612127     22.30075    14.235163 
  226600    403.40886     59211395            0     59212966    12.683328    22.410333     14.18812    19.735231    33.263689    9.5288528    12.612127     22.30075    14.235163 
  226800    393.94023     59211188            0     59212721    12.683289    22.410313    14.188314    19.731366    33.261611    9.5482485    12.612127     22.30075    14.235163 
  227000    293.73004     59211339            0     59212482    12.683304    22.410348    14.188449     19.73282    33.265169    9.5617396    12.612127     22.30075    14.235163 
  227200    138.52247     59210188            0     59210727    12.683279    22.410403    14.188134    19.730309    33.270649    9.5302255    12.612127     22.30075    14.235163 
  227400    272.62087     59211302            0     59212364    12.683316    22.410354    14.188278    19.734034    33.265721    9.5446232    12.612127     22.30075    14.235163 
  227600     271.6725     59210623            0     59211681    12.683333    22.410348    14.188233    19.735767    33.265131    9.5401415    12.612127     22.30075    14.235163 
  227800    94.117542     59211530            0     59211896    12.683316    22.410353     14.18815    19.734013    33.265686    9.5318118    12.612127     22.30075    14.235163 
  228000    139.63498     59210826            0     59211369    12.683319    22.410354    14.187971     19.73439    33.265721     9.513927    12.612127     22.30075    14.235163 
  228200    355.30594     59211422            0     59212805    12.683313    22.410344    14.188321     19.73379    33.264711    9.5489973    12.612127     22.30075    14.235163 
  228400    232.69191     59210473            0     59211379    12.683357    22.410327    14.188221    19.738183    33.263071    9.5389892    12.612127     22.30075    14.235163 
  228600    347.48386     59210931            0     59212283    12.683296    22.410365    14.188144     19.73204    33.266815    9.5312506    12.612127     22.30075    14.235163 
  228800    322.85325     59211361            0     59212618    12.683335    22.410352    14.187915    19.735973    33.265582    9.5082952    12.612127     22.30075    14.235163 
  229000    247.50835     59210895            0     59211859    12.683325    22.410335    14.188074    19.734939    33.263837     9.524195    12.612127     22.30075    14.235163 
  229200    254.79743     59212838            0     59213830    12.683338    22.410352      14.1879    19.736284    33.265562    9.5067964    12.612127     22.30075    14.235163 
  229400    184.37266     59211225            0     59211943    12.683316    22.410353     14.18829    19.734021    33.265685    9.5458348    12.612127     22.30075    14.235163 
  229600    164.63829     59211360            0     59212001    12.683321     22.41036    14.187952    19.734552    33.266311    9.5120107    12.612127     22.30075    14.235163 
  229800    303.95405     59210504            0     59211687    12.683286    22.410331    14.188175    19.731096    33.263479    9.5343149    12.612127     22.30075    14.235163 
  230000    300.27844     59210353            0     59211522    12.683316    22.410353     14.18834    19.734014    33.265686    9.5508441    12.612127     22.30075    14.235163 
  230200     276.9254     59210847            0     59211925     12.68331    22.410341    14.188087     19.73341     33.26446    9.5255161    12.612127     22.30075    14.235163 
  230400    252.07433     59211421            0     59212403    12.683299     22.41034    14.187903     19.73231    33.264395    9.5071613    12.612127     22.30075    14.235163 
  230600    396.08784     59211327            0     59212869    12.683328    22.410312    14.188036     19.73523    33.261574    9.5204455    12.612127     22.30075    14.235163 
  230800    239.63199     59211054            0     59211987    12.683326    22.410332    14.187992    19.735074    33.263591    9.5160008    12.612127     22.30075    14.235163 
  231000    109.50732     59212420            0     59212846    12.683302    22.410377    14.188068    19.732623    33.268069    9.5236119    12.612127     22.30075    14.235163 
  231200    224.86287     59211641            0     59212516    12.683334    22.410317     14.18797    19.735853    33.262013    9.5138749    12.612127     22.30075    14.235163 
  231400    251.26453     59211285            0     59212263    12.683289    22.410363    14.188212    19.731317    33.266681    9.5380389    12.612127     22.30075    14.235163 
  231600    192.20148     59209987            0     59210735     12.68335    22.410369    14.188087    19.737493    33.267293    9.5255446    12.612127     22.30075    14.235163 
  231800    345.01778     59211476            0     59212819    12.683305    22.410407    14.188107    19.732974    33.271069    9.5275435    12.612127     22.30075    14.235163 
  232000    309.57533     59210888            0     59212093    12.683325    22.410362    14.187999    19.734913      33.2666    9.5167658    12.612127     22.30075    14.235163 
  232200    159.88131     59211879            0     59212502    12.683316    22.410353     14.18831    19.734013    33.265687    9.5478683    12.612127     22.30075    14.235163 
  232400    198.97925     59210135            0     59210909    12.683297    22.410341    14.188218    19.732161    33.264432    9.5386649    12.612127     22.30075    14.235163 
  232600    494.49933     59211057            0     59212982    12.683312    22.410354    14.188224    19.733672    33.265772    9.5392204    12.612127     22.30075    14.235163 
  232800    192.83064     59210434            0     59211185    12.683285    22.410377    14.188207     19.73091    33.268096    9.5375092    12.612127     22.30075    14.235163 
  233000    260.80507     59211183            0     59212199    12.683293    22.410355    14.188162    19.731793     33.26587    9.5330495    12.612127     22.30075    14.235163 
  233200    165.85724     59212001            0     59212646    12.683321     22.41035    14.188458    19.734502    33.265317    9.5626166    12.612127     22.30075    14.235163 
  233400    291.49549     59212556            0     59213691    12.683316    22.410354    14.187754    19.734079    33.265724    9.4922149    12.612127     22.30075    14.235163 
  233600    203.64176     59210918            0     59211711     12.68327    22.410344    14.187723    19.729418    33.264731    9.4891764    12.612127     22.30075    14.235163 
  233800    322.75793     59210343            0     59211600    12.683322    22.410345    14.188072    19.734636    33.264815    9.5240691    12.612127     22.30075    14.235163 
  234000    242.31269     59212262            0     59213206    12.683316    22.410353    14.188025    19.734014    33.265685    9.5193112    12.612127     22.30075    14.235163 
  234200    174.10304     59212151            0     59212829    12.683298    22.410316    14.188157    19.732226    33.261925    9.5325353    12.612127     22.30075    14.235163 
  234400     236.1019     59211538            0     59212457    12.683317    22.410353    14.188186    19.734187    33.265678    9.5354495    12.612127     22.30075    14.235163 
  234600     260.1784     59210703            0     59211715    12.683293    22.410387    14.188239    19.731723    33.269019    9.5407667    12.612127     22.30075    14.235163 
  234800    312.70954     59210729            0     59211947    12.683323    22.410364    14.188162    19.734709    33.266752    9.5330515    12.612127     22.30075    14.235163 
  235000    270.62892     59211573            0     59212626    12.683345     22.41035    14.188022    19.736989    33.265376    9.5190696    12.612127     22.30075    14.235163 
  235200    205.58004     59212312            0     59213112    12.683321    22.410373     14.18838    19.734535    33.267679    9.5548328    12.612127     22.30075    14.235163 
  235400    338.85957     59211341            0     59212660    12.683307    22.410368    14.188138    19.733139    33.267173      9.53069    12.612127     22.30075    14.235163 
  235600    111.73792     59211212            0     59211647    12.683297    22.410356    14.188587    19.732182    33.266007    9.5756073    12.612127     22.30075    14.235163 
  235800    244.74524     59211500            0     59212452    12.683259    22.410322     14.18856    19.728355    33.262599    9.5728787    12.612127     22.30075    14.235163 
  236000     313.4295     59211470            0     59212690    12.683335    22.410333     14.18856    19.735975    33.263622    9.5728631    12.612127     22.30075    14.235163 
  236200    205.51218     59211117            0     59211917    12.683289    22.410351    14.187741    19.731367    33.265475    9.4909099    12.612127     22.30075    14.235163 
  236400    165.63487     59210990            0     59211634    12.683327    22.410399    14.188003    19.735118    33.270257    9.5171787    12.612127     22.30075    14.235163 
  236600    219.15822     59212594            0     59213447    12.683305    22.410353    14.187785    19.732976    33.265619    9.4953039    12.612127     22.30075    14.235163 
  236800    278.29018     59212175            0     59213258    12.683308    22.410343    14.187852    19.733272    33.264674    9.5020098    12.612127     22.30075    14.235163 
  237000    273.84658     59211957            0     59213023    12.683314    22.410353    14.187823     19.73387    33.265694    9.4991525    12.612127     22.30075    14.235163 
  237200    278.99332     59210706            0     59211793    12.683327    22.410338    14.187936    19.735181    33.264163    9.5104487    12.612127     22.30075    14.235163 
  237400    235.17916     59211231            0     59212146    12.683334    22.410354    14.187942    19.735881     33.26578    9.5109943    12.612127     22.30075    14.235163 
  237600     233.4907     59210069            0     59210978    12.683315    22.410353    14.188135    19.733916    33.265691    9.5303712    12.612127     22.30075    14.235163 
  237800    173.00007     59211042            0     59211715    12.683309    22.410357    14.187998    19.733379    33.266085    9.5166841    12.612127     22.30075    14.235163 
  238000    91.269062     59210898            0     59211253    12.683299    22.410335    14.188269    19.732311    33.263867    9.5437931    12.612127     22.30075    14.235163 
  238200    254.20617     59210911            0     59211900    12.683296    22.410347    14.188078    19.732073    33.265081    9.5246065    12.612127     22.30075    14.235163 
  238400    399.32201     59212258            0     59213813     12.68337    22.410345     14.18819    19.739479    33.264903    9.5358686    12.612127     22.30075    14.235163 
  238600    247.62723     59211545            0     59212509    12.683333    22.410368    14.188102    19.735776    33.267141    9.5270591    12.612127     22.30075    14.235163 
  238800    190.40272     59210761            0     59211502    12.683358    22.410352    14.187925    19.738289    33.265544      9.50935    12.612127     22.30075    14.235163 
  239000    161.02749     59212318            0     59212945    12.683331    22.410352    14.188033    19.735586    33.265577    9.5201341    12.612127     22.30075    14.235163 
  239200    312.65753     59210756            0     59211973    12.683349    22.410358    14.188048    19.737365    33.266177    9.5216824    12.612127     22.30075    14.235163 
  239400    238.59679     59211331            0     59212260    12.683316    22.410354    14.188253    19.734041    33.265725    9.5421932    12.612127     22.30075    14.235163 
  239600    143.87417     59211890            0     59212450    12.683334    22.410352    14.188044    19.735827    33.265589    9.5212199    12.612127     22.30075    14.235163 
  239800    194.81899     59210612            0     59211371    12.683298    22.410378    14.188253    19.732223    33.268192    9.5421415    12.612127     22.30075    14.235163 
  240000    195.62741     59210105            0     59210867     12.68331    22.410364    14.188137    19.733462    33.266751    9.5305013    12.612127     22.30075    14.235163 
  240200    344.76086     59211343            0     59212685    12.683277    22.410316    14.187885     19.73014    33.261982    9.5053783    12.612127     22.30075    14.235163 
  240400    446.00475     59211374            0     59213110    12.683268     22.41037    14.188187    19.729206    33.267381    9.5355268    12.612127     22.30075    14.235163 
  240600    437.78844     59211811            0     59213515    12.683313    22.410347    14.188141    19.733789      33.2651    9.5309404    12.612127     22.30075    14.235163 
  240800    168.61405     59211859            0     59212516    12.683314    22.410357     14.18815    19.733845     33.26602    9.5318345    12.612127     22.30075    14.235163 
  241000    373.68523     59211613            0     59213068    12.683312     22.41034    14.187881    19.733627    33.264394    9.5049235    12.612127     22.30075    14.235163 
  241200    310.96712     59211235            0     59212446    12.683286     22.41035    14.187983     19.73107    33.265327    9.5151528    12.612127     22.30075    14.235163 
  241400    245.58995     59211254            0     59212210    12.683316    22.410353    14.187872    19.734024    33.265689    9.5039831    12.612127     22.30075    14.235163 
  241600    209.83671     59212745            0     59213562    12.683322    22.410336    14.188075    19.734668    33.263938    9.5243785    12.612127     22.30075    14.235163 
  241800    273.29482     59212059            0     59213123    12.683349    22.410375    14.187432    19.737338    33.267819    9.4600469    12.612127     22.30075    14.235163 
  242000    167.82722     59210461            0     59211114    12.683289    22.410356    14.188105    19.731351    33.265976     9.527309    12.612127     22.30075    14.235163 
  242200    334.02612     59211464            0     59212764    12.683319    22.410358    14.187998    19.734378    33.266188     9.516644    12.612127     22.30075    14.235163 
  242400    352.89324     59211099            0     59212472    12.683315    22.410355    14.187914     19.73391    33.265907    9.5082091    12.612127     22.30075    14.235163 
  242600    381.22084     59211596            0     59213080    12.683332    22.410351    14.188123    19.735691    33.265499    9.5291798    12.612127     22.30075    14.235163 
  242800    212.98884     59210694            0     59211524    12.683346    22.410288    14.188165    19.737039    33.259125    9.5333285    12.612127     22.30075    14.235163 
  243000    230.39422     59211714            0     59212611    12.683294    22.410354     14.18825    19.731887    33.265804    9.5418189    12.612127     22.30075    14.235163 
  243200    170.80497     59211694            0     59212359    12.683359     22.41036    14.188221    19.738345    33.266338    9.5389359    12.612127     22.30075    14.235163 
  243400    277.91675     59211283            0     59212365    12.683326    22.410376    14.188247    19.735082    33.267961    9.5415543    12.612127     22.30075    14.235163 
  243600    242.57611     59210201            0     59211145    12.683329    22.410375    14.188224    19.735348     33.26786    9.5392537    12.612127     22.30075    14.235163 
  243800    239.28335     59210373            0     59211304    12.683285    22.410336    14.188051     19.73095    33.263914    9.5219465    12.612127     22.30075    14.235163 
  244000     190.9109     59211182            0     59211925    12.683351    22.410343    14.188255    19.737518    33.264612    9.5423459    12.612127     22.30075    14.235163 
  244200    335.73541     59211840            0     59213147    12.683315    22.410355    14.188253    19.733914    33.265884    9.5421768    12.612127     22.30075    14.235163 
  244400    230.32944     59211941            0     59212838    12.683354    22.410328    14.188061    19.737853    33.263157    9.5229774    12.612127     22.30075    14.235163 
  244600    276.04109     59211283            0     59212358    12.683337    22.410368    14.188256    19.736122     33.26714    9.5424036    12.612127     22.30075    14.235163 
  244800    219.31978     59210339            0     59211192    12.683349    22.410367    14.188315    19.737367    33.267045    9.5483324    12.612127     22.30075    14.235163 
  245000    237.10353     59211682            0     59212605    12.683305    22.410374    14.187922     19.73294    33.267807    9.5089944    12.612127     22.30075    14.235163 
  245200    197.30209     59211125            0     59211893    12.683309    22.410339    14.188252    19.733312    33.264304    9.5420783    12.612127     22.30075    14.235163 
  245400    234.11379     59210919            0     59211830    12.683297     22.41036    14.188284    19.732171    33.266339    9.5452424    12.612127     22.30075    14.235163 
  245600    232.04134     59210488            0     59211391     12.68331    22.410385    14.188113    19.733482    33.268822    9.5281191    12.612127     22.30075    14.235163 
  245800    253.54044     59212063            0     59213051    12.683307     22.41037    14.188128    19.733178    33.267356    9.5296579    12.612127     22.30075    14.235163 
  246000    442.66725     59211402            0     59213125    12.683316    22.410353    14.188061    19.734014    33.265686    9.5229467    12.612127     22.30075    14.235163 
  246200    288.54954     59210622            0     59211745    12.683334    22.410371    14.187972    19.735834    33.267477    9.5140395    12.612127     22.30075    14.235163 
  246400    196.36576     59211214            0     59211978    12.683293    22.410368    14.188035    19.731722    33.267161    9.5203643    12.612127     22.30075    14.235163 
  246600    224.78962     59211182            0     59212057    12.683324    22.410456    14.187988    19.734849    33.275924    9.5156545    12.612127     22.30075    14.235163 
  246800    149.36674     59211408            0     59211989    12.683308    22.410343     14.18801    19.733249    33.264673    9.5178216    12.612127     22.30075    14.235163 
  247000    335.44492     59210268            0     59211574    12.683318    22.410349    14.188146    19.734246    33.265259    9.5314103    12.612127     22.30075    14.235163 
  247200    122.70999     59210949            0     59211426    12.683345    22.410367    14.187939     19.73694    33.267022    9.5107507    12.612127     22.30075    14.235163 
  247400    235.96023     59210446            0     59211365    12.683323    22.410333    14.188147    19.734785    33.263703    9.5315767    12.612127     22.30075    14.235163 
  247600    186.95982     59211000            0     59211728    12.683325    22.410337    14.188079    19.734993    33.264099     9.524783    12.612127     22.30075    14.235163 
  247800    162.21384     59210733            0     59211364    12.683319    22.410353     14.18821    19.734332    33.265654    9.5378466    12.612127     22.30075    14.235163 
  248000    203.21371     59211111            0     59211902    12.683367    22.410366    14.188158    19.739141    33.266936    9.5326807    12.612127     22.30075    14.235163 
  248200     240.2083     59211071            0     59212006    12.683342     22.41038    14.188363    19.736628    33.268359    9.5531925    12.612127     22.30075    14.235163 
  248400    285.63935     59211400            0     59212512    12.683291    22.410393     14.18796    19.731538    33.269673    9.5128343    12.612127     22.30075    14.235163 
  248600    197.95797     59210766            0     59211537    12.683322     22.41034    14.188022    19.734692    33.264345    9.5190669    12.612127     22.30075    14.235163 
  248800    286.70057     59211718            0     59212834    12.683346    22.410375    14.188218    19.737072    33.267861    9.5386765    12.612127     22.30075    14.235163 
  249000    112.62222     59211484            0     59211922    12.683315    22.410354    14.187956     19.73394     33.26577    9.5123932    12.612127     22.30075    14.235163 
  249200    293.76851     59211149            0     59212293    12.683316    22.410353    14.188068    19.734019    33.265684    9.5236429    12.612127     22.30075    14.235163 
  249400    289.72452     59210663            0     59211790    12.683333    22.410358    14.188302    19.735699    33.266109    9.5470673    12.612127     22.30075    14.235163 
  249600    388.60232     59212065            0     59213577    12.683303    22.410375    14.187955    19.732732    33.267862     9.512305    12.612127     22.30075    14.235163 
  249800    324.86381     59211055            0     59212320    12.683313    22.410353    14.188146    19.733744    33.265629    9.5314005    12.612127     22.30075    14.235163 
  250000    263.90104     59210550            0     59211577    12.683317    22.410333    14.188138    19.734189    33.263684    9.5306378    12.612127     22.30075    14.235163 
  250200    328.57937     59211219            0     59212499    12.683333    22.410336    14.188301    19.735726    33.263945    9.5469711    12.612127     22.30075    14.235163 
  250400    115.97332     59210743            0     59211195    12.683317    22.410358    14.188301    19.734174    33.266116    9.5469962    12.612127     22.30075    14.235163 
  250600    397.12916     59210885            0     59212431    12.683301    22.410382    14.188236    19.732555     33.26857    9.5404305    12.612127     22.30075    14.235163 
  250800    187.44037     59211677            0     59212407    12.683273    22.410356    14.187876    19.729775    33.265922    9.5044698    12.612127     22.30075    14.235163 
  251000    180.51472     59211636            0     59212339    12.683305    22.410369    14.187892    19.732961    33.267233    9.5060594    12.612127     22.30075    14.235163 
  251200    297.48615     59212083            0     59213241    12.683318    22.410353    14.188344    19.734246    33.265673    9.5512477    12.612127     22.30075    14.235163 
  251400    277.57088     59212334            0     59213414    12.683316    22.410353    14.188217    19.734014    33.265699     9.538538    12.612127     22.30075    14.235163 
  251600    187.24597     59211233            0     59211962    12.683322    22.410373    14.187973    19.734628    33.267629    9.5141206    12.612127     22.30075    14.235163 
  251800    229.18812     59210387            0     59211279    12.683312    22.410336    14.188111    19.733657    33.263989    9.5279322    12.612127     22.30075    14.235163 
  252000    163.25983     59211996            0     59212632    12.683315    22.410353    14.187934    19.733995    33.265704    9.5102277    12.612127     22.30075    14.235163 
  252200    168.99072     59210683            0     59211341    12.683347    22.410346    14.188132    19.737108    33.264967    9.5300101    12.612127     22.30075    14.235163 
  252400    293.71739     59211240            0     59212383     12.68333    22.410369     14.18813    19.735411    33.267247    9.5298556    12.612127     22.30075    14.235163 
  252600     182.9575     59210806            0     59211518    12.683319    22.410353    14.188137    19.734329    33.265676    9.5305663    12.612127     22.30075    14.235163 
  252800    158.33027     59211716            0     59212332    12.683312    22.410373    14.187766    19.733653    33.267708    9.4934753    12.612127     22.30075    14.235163 
  253000    247.37899     59211449            0     59212412    12.683316    22.410353    14.187624    19.734016    33.265686      9.47922    12.612127     22.30075    14.235163 
  253200    408.69993     59210368            0     59211959    12.683309    22.410343    14.188144    19.733395     33.26463    9.5312882    12.612127     22.30075    14.235163 
  253400    429.36608     59210438            0     59212110    12.683276    22.410354    14.188163    19.730095    33.265798    9.5331639    12.612127     22.30075    14.235163 
  253600    262.32292     59211630            0     59212651    12.683262    22.410332    14.187919    19.728619    33.263554    9.5087155    12.612127     22.30075    14.235163 
  253800     251.1721     59212122            0     59213100    12.683301    22.410365    14.188416    19.732512    33.266845    9.5584251    12.612127     22.30075    14.235163 
  254000    243.26709     59210776            0     59211723    12.683329    22.410353    14.188157    19.735303    33.265616    9.5325517    12.612127     22.30075    14.235163 
  254200    136.05742     59210019            0     59210548    12.683335    22.410352    14.188109    19.735944    33.265581    9.5277616    12.612127     22.30075    14.235163 
  254400    112.27402     59212580            0     59213018    12.683356    22.410339    14.187839    19.738094    33.264267    9.5007117    12.612127     22.30075    14.235163 
  254600    178.34334     59211717            0     59212411    12.683312    22.410378    14.187881    19.733623    33.268161    9.5049465    12.612127     22.30075    14.235163 
  254800    180.00008     59210871            0     59211572    12.683315    22.410355    14.188334    19.733954    33.265817     9.550219    12.612127     22.30075    14.235163 
  255000    236.89012     59211560            0     59212483    12.683307    22.410353    14.188246    19.733126    33.265702    9.5414719    12.612127     22.30075    14.235163 
  255200    307.26044     59210965            0     59212161    12.683292    22.410372    14.188246    19.731624    33.267522    9.5414966    12.612127     22.30075    14.235163 
  255400     95.16789     59212638            0     59213008    12.683314    22.410346    14.188271    19.733876     33.26499     9.543909    12.612127     22.30075    14.235163 
  255600     260.7113     59210896            0     59211911    12.683324     22.41035    14.188096    19.734806    33.265391    9.5264561    12.612127     22.30075    14.235163 
  255800    351.66843     59211968            0     59213337    12.683316    22.410353    14.188033    19.734015    33.265687    9.5201316    12.612127     22.30075    14.235163 
  256000    230.55095     59211176            0     59212073     12.68333    22.410373    14.188004    19.735414    33.267705    9.5172112    12.612127     22.30075    14.235163 
  256200    169.32766     59212401            0     59213060    12.683326    22.410386    14.188339       19.735    33.268966    9.5507833    12.612127     22.30075    14.235163 
  256400    149.39641     59211457            0     59212039    12.683338     22.41035    14.187871    19.736248    33.265352    9.5039387    12.612127     22.30075    14.235163 
  256600    430.07658     59210922            0     59212596     12.68334    22.410333    14.188361    19.736428    33.263614    9.5529193    12.612127     22.30075    14.235163 
  256800    270.67962     59211612            0     59212666    12.683293    22.410318    14.188278    19.731705    33.262187    9.5446582    12.612127     22.30075    14.235163 
  257000    160.59943     59211098            0     59211723    12.683359    22.410344    14.188085    19.738359    33.264748     9.525354    12.612127     22.30075    14.235163 
  257200    194.26519     59211451            0     59212207    12.683295     22.41032    14.188322    19.731922    33.262319    9.5490616    12.612127     22.30075    14.235163 
  257400    190.87738     59210792            0     59211535    12.683316    22.410353    14.188165    19.734019    33.265686    9.5333792    12.612127     22.30075    14.235163 
  257600    293.07779     59211188            0     59212329    12.683316    22.410353    14.188029    19.734014    33.265686    9.5197162    12.612127     22.30075    14.235163 
  257800    236.14997     59210870            0     59211789    12.683303    22.410354    14.188158    19.732791    33.265767    9.5326394    12.612127     22.30075    14.235163 
  258000    223.00617     59210899            0     59211767    12.683317    22.410354    14.188343    19.734101    33.265732    9.5511844    12.612127     22.30075    14.235163 
  258200    396.10503     59211314            0     59212856    12.683307    22.410346    14.188091    19.733126    33.264978    9.5259012    12.612127     22.30075    14.235163 
  258400    326.70341     59211652            0     59212924    12.683295    22.410354    14.188105    19.731958     33.26577    9.5273843    12.612127     22.30075    14.235163 
  258600    108.42232     59212220            0     59212642    12.683355    22.410351    14.188164    19.737994    33.265415     9.533197    12.612127     22.30075    14.235163 
  258800    172.35284     59211671            0     59212342     12.68331    22.410358    14.188183    19.733429    33.266134    9.5351845    12.612127     22.30075    14.235163 
  259000    234.24366     59210837            0     59211749    12.683319    22.410346    14.188181    19.734336    33.264969    9.5349799    12.612127     22.30075    14.235163 
  259200    279.57203     59210886            0     59211974     12.68332    22.410334     14.18822    19.734465    33.263806      9.53885    12.612127     22.30075    14.235163 
  259400    295.98769     59210750            0     59211903    12.683315    22.410353    14.188293    19.733995    33.265687    9.5461337    12.612127     22.30075    14.235163 
  259600    398.57078     59211461            0     59213013    12.683313    22.410357    14.188214    19.733708    33.266028    9.5382845    12.612127     22.30075    14.235163 
  259800    161.77797     59210795            0     59211425    12.683313    22.410326     14.18799    19.733711    33.262943     9.515857    12.612127     22.30075    14.235163 
  260000    148.70512     59210742            0     59211321    12.683316    22.410367    14.188032    19.734059    33.267041    9.5200043    12.612127     22.30075    14.235163 
  260200    258.44127     59212194            0     59213200     12.68329    22.410394    14.188551    19.731475    33.269795    9.5719481    12.612127     22.30075    14.235163 
  260400    200.79919     59211798            0     59212579     12.68334    22.410346    14.187918    19.736428    33.264984    9.5086348    12.612127     22.30075    14.235163 
  260600    431.63837     59209952            0     59211632    12.683314    22.410353    14.188052    19.733888    33.265694    9.5220889    12.612127     22.30075    14.235163 
  260800    349.62664     59210342            0     59211703    12.683316    22.410353    14.188131    19.734013    33.265688    9.5299252    12.612127     22.30075    14.235163 
  261000    142.25018     59211834            0     59212388     12.68334    22.410351    14.187926    19.736454    33.265475    9.5094649    12.612127     22.30075    14.235163 
  261200    385.21514     59210434            0     59211934    12.683269    22.410356    14.188254    19.729376    33.265949    9.5422555    12.612127     22.30075    14.235163 
  261400    271.04651     59209973            0     59211028    12.683309    22.410371    14.188052    19.733373     33.26743    9.5220042    12.612127     22.30075    14.235163 
  261600    147.18519     59211998            0     59212571    12.683352    22.410345    14.188254    19.737602    33.264875    9.5422634    12.612127     22.30075    14.235163 
  261800    152.63282     59211721            0     59212315    12.683326    22.410364    14.188359    19.735079    33.266785    9.5527993    12.612127     22.30075    14.235163 
  262000    281.48734     59210885            0     59211980    12.683326    22.410343       14.188    19.735059    33.264666    9.5168485    12.612127     22.30075    14.235163 
  262200     186.4329     59211624            0     59212350    12.683313     22.41035    14.188306    19.733772    33.265317    9.5474698    12.612127     22.30075    14.235163 
  262400    94.168848     59211015            0     59211381    12.683313    22.410358    14.188166    19.733792    33.266185    9.5333988    12.612127     22.30075    14.235163 
  262600    252.14055     59211268            0     59212249    12.683316    22.410353     14.18825    19.734014    33.265686    9.5418533    12.612127     22.30075    14.235163 
  262800     341.2564     59211203            0     59212532    12.683309    22.410355    14.187902    19.733305    33.265824    9.5069871    12.612127     22.30075    14.235163 
  263000    134.23259     59210854            0     59211377    12.683312    22.410357    14.188237    19.733606     33.26606    9.5405857    12.612127     22.30075    14.235163 
  263200    260.30311     59212234            0     59213248    12.683312     22.41037    14.188121    19.733653    33.267326    9.5289363    12.612127     22.30075    14.235163 
  263400    391.45301     59210886            0     59212410    12.683336    22.410313    14.188147    19.736028    33.261626    9.5315736    12.612127     22.30075    14.235163 
  263600    151.04356     59210744            0     59211332    12.683312    22.410386    14.188189    19.733648    33.268969    9.5357259    12.612127     22.30075    14.235163 
  263800     141.8425     59211495            0     59212047    12.683317    22.410351    14.188107    19.734124    33.265455    9.5275038    12.612127     22.30075    14.235163 
  264000    77.995127     59211397            0     59211700    12.683304    22.410353    14.188048    19.732896    33.265676    9.5215965    12.612127     22.30075    14.235163 
  264200    350.38504     59210774            0     59212138    12.683351     22.41035     14.18795    19.737534    33.265361    9.5118145    12.612127     22.30075    14.235163 
  264400    194.81055     59211330            0     59212089    12.683358    22.410347    14.187924    19.738286    33.265032    9.5091997    12.612127     22.30075    14.235163 
  264600    159.01309     59210898            0     59211517    12.683307    22.410365    14.188137    19.733189    33.266903    9.5305786    12.612127     22.30075    14.235163 
  264800    194.36012     59212230            0     59212986    12.683346     22.41035    14.188204    19.737086    33.265362    9.5372714    12.612127     22.30075    14.235163 
  265000    271.55735     59211158            0     59212215    12.683315    22.410354    14.188174    19.733982    33.265721    9.5342299    12.612127     22.30075    14.235163 
  265200    254.59937     59210613            0     59211604    12.683316    22.410353    14.187915    19.734012    33.265685    9.5083806    12.612127     22.30075    14.235163 
  265400    248.00668     59211161            0     59212127    12.683313    22.410355    14.188287    19.733773    33.265893    9.5455197    12.612127     22.30075    14.235163 
  265600    443.01929     59210897            0     59212622    12.683294    22.410354       14.188    19.731824    33.265808     9.516811    12.612127     22.30075    14.235163 
  265800    224.01445     59210448            0     59211321     12.68332     22.41036    14.188079    19.734398    33.266403    9.5247855    12.612127     22.30075    14.235163 
  266000    265.73198     59212548            0     59213583    12.683332    22.410379    14.188187    19.735642    33.268282    9.5355402    12.612127     22.30075    14.235163 
  266200    275.32277     59211806            0     59212878     12.68333    22.410353     14.18816    19.735461     33.26563    9.5328727    12.612127     22.30075    14.235163 
  266400     73.02813     59212254            0     59212539    12.683327    22.410339    14.188029     19.73513    33.264296    9.5197036    12.612127     22.30075    14.235163 
  266600    155.57755     59210947            0     59211552    12.683302    22.410347    14.187881    19.732633    33.265014    9.5049551    12.612127     22.30075    14.235163 
  266800    311.25481     59210803            0     59212015    12.683331    22.410371    14.188159    19.735536    33.267421    9.5327792    12.612127     22.30075    14.235163 
  267000    340.36138     59211775            0     59213100    12.683295    22.410349    14.188176    19.731955    33.265257    9.5344552    12.612127     22.30075    14.235163 
  267200    183.46598     59211305            0     59212019    12.683339    22.410352    14.188107    19.736342    33.265557    9.5275675    12.612127     22.30075    14.235163 
  267400    179.66977     59211837            0     59212537    12.683285    22.410311    14.188446     19.73097    33.261488    9.5614698    12.612127     22.30075    14.235163 
  267600     329.0427     59210805            0     59212086    12.683334    22.410337    14.188219    19.735873    33.264087    9.5387364    12.612127     22.30075    14.235163 
  267800    248.10006     59212002            0     59212968    12.683318    22.410356    14.188213    19.734236    33.265927    9.5381509    12.612127     22.30075    14.235163 
  268000    179.40383     59212296            0     59212994    12.683318    22.410359    14.188068    19.734203    33.266215    9.5236815    12.612127     22.30075    14.235163 
  268200    281.65042     59212957            0     59214054     12.68336    22.410381    14.187907    19.738451    33.268467    9.5075498    12.612127     22.30075    14.235163 
  268400    220.44024     59212988            0     59213846    12.683311    22.410353    14.188033    19.733567    33.265658    9.5201508    12.612127     22.30075    14.235163 
  268600    222.87584     59211843            0     59212710    12.683325    22.410366    14.187899    19.734926    33.266955    9.5067598    12.612127     22.30075    14.235163 
  268800    170.19798     59211807            0     59212470    12.683311    22.410337    14.187712    19.733529    33.264096     9.488009    12.612127     22.30075    14.235163 
  269000    258.16535     59211877            0     59212882    12.683309    22.410366    14.188366    19.733372    33.266919    9.5534769    12.612127     22.30075    14.235163 
  269200    340.02544     59211601            0     59212924    12.683303    22.410358    14.188202    19.732796    33.266164    9.5370623    12.612127     22.30075    14.235163 
  269400    187.95423     59211293            0     59212024    12.683274    22.410381    14.188183    19.729881    33.268506    9.5351122    12.612127     22.30075    14.235163 
  269600    144.00804     59212553            0     59213114    12.683291    22.410357    14.188586    19.731544    33.266032    9.5755067    12.612127     22.30075    14.235163 
  269800    308.18847     59211750            0     59212950    12.683316    22.410355     14.18831    19.734061     33.26587    9.5478025    12.612127     22.30075    14.235163 
  270000    119.89339     59211300            0     59211767    12.683336    22.410338    14.188399    19.736056    33.264159    9.5567561    12.612127     22.30075    14.235163 
  270200    217.43939     59210425            0     59211272    12.683332     22.41038    14.188081    19.735696    33.268404    9.5249891    12.612127     22.30075    14.235163 
  270400    274.83577     59211261            0     59212330    12.683316    22.410353     14.18796    19.734014    33.265686    9.5128053    12.612127     22.30075    14.235163 
  270600    199.36456     59211894            0     59212671    12.683338    22.410363    14.188077    19.736236    33.266671    9.5245227    12.612127     22.30075    14.235163 
  270800    464.77407     59210975            0     59212785    12.683344    22.410356    14.188198    19.736857    33.265967    9.5366597    12.612127     22.30075    14.235163 
  271000    149.87223     59211380            0     59211963    12.683323     22.41037    14.188098    19.734767    33.267358    9.5266924    12.612127     22.30075    14.235163 
  271200    212.61387     59212607            0     59213434    12.683318    22.410349    14.188205    19.734234    33.265303    9.5373493    12.612127     22.30075    14.235163 
  271400    155.98372     59210067            0     59210674    12.683316    22.410353    14.188156    19.734004    33.265666    9.5324041    12.612127     22.30075    14.235163 
  271600    150.93167     59210747            0     59211335    12.683337     22.41038    14.188096    19.736115      33.2684    9.5264405    12.612127     22.30075    14.235163 
  271800    417.69409     59210818            0     59212444    12.683288    22.410351    14.188375    19.731259    33.265427    9.5543226    12.612127     22.30075    14.235163 
  272000    137.36609     59211403            0     59211938     12.68332    22.410363    14.187964    19.734415    33.266684    9.5132849    12.612127     22.30075    14.235163 
  272200    186.15469     59211410            0     59212135    12.683303    22.410377    14.188094    19.732782    33.268103    9.5261955    12.612127     22.30075    14.235163 
  272400    287.45824     59210762            0     59211881    12.683307    22.410369    14.188252    19.733163    33.267263    9.5420976    12.612127     22.30075    14.235163 
  272600     215.2545     59210597            0     59211435    12.683321    22.410342    14.188161    19.734562    33.264603    9.5329713    12.612127     22.30075    14.235163 
  272800    215.18742     59210240            0     59211077    12.683323    22.410354    14.188148    19.734707    33.265738    9.5316465    12.612127     22.30075    14.235163 
  273000    205.86639     59211277            0     59212078    12.683299    22.410365     14.18809    19.732377    33.266902    9.5257963    12.612127     22.30075    14.235163 
  273200    236.17345     59210992            0     59211912    12.683279    22.410369    14.188132    19.730309    33.267257    9.5300626    12.612127     22.30075    14.235163 
  273400    330.08752     59210634            0     59211919    12.683322    22.410329    14.188236    19.734626     33.26322    9.5404934    12.612127     22.30075    14.235163 
  273600    250.79494     59210861            0     59211838    12.683316    22.410354    14.188157    19.734069    33.265804    9.5325416    12.612127     22.30075    14.235163 
  273800    214.18338     59211293            0     59212127    12.683294    22.410356    14.188233    19.731882     33.26596    9.5401791    12.612127     22.30075    14.235163 
  274000    116.54092     59210941            0     59211395    12.683315    22.410353    14.188271    19.733993    33.265653    9.5439723    12.612127     22.30075    14.235163 
  274200    158.38469     59210947            0     59211563    12.683325     22.41036    14.187905    19.734921     33.26631     9.507358    12.612127     22.30075    14.235163 
  274400    92.248958     59211025            0     59211384    12.683315    22.410352    14.188298    19.733964    33.265607    9.5466237    12.612127     22.30075    14.235163 
  274600    329.10967     59211592            0     59212874    12.683316    22.410353    14.188203    19.734014    33.265686    9.5371551    12.612127     22.30075    14.235163 
  274800    290.27871     59210836            0     59211966    12.683292    22.410341    14.188122    19.731636    33.264428    9.5290566    12.612127     22.30075    14.235163 
  275000    183.43826     59211466            0     59212180    12.683314     22.41035    14.188137    19.733818    33.265365    9.5305066    12.612127     22.30075    14.235163 
  275200    237.67835     59210313            0     59211238    12.683305    22.410336    14.188026    19.732907    33.264003     9.519435    12.612127     22.30075    14.235163 
  275400    270.04193     59211374            0     59212425    12.683289    22.410356    14.187928     19.73134    33.265966    9.5096142    12.612127     22.30075    14.235163 
  275600    168.62476     59211521            0     59212177    12.683292    22.410333    14.188106    19.731671    33.263625    9.5274117    12.612127     22.30075    14.235163 
  275800    234.98591     59210864            0     59211779    12.683316    22.410365    14.188155    19.734021    33.266835    9.5323638    12.612127     22.30075    14.235163 
  276000     318.1564     59210278            0     59211517    12.683315    22.410345    14.188334     19.73392    33.264889    9.5502929    12.612127     22.30075    14.235163 
  276200    200.64204     59211186            0     59211967    12.683316    22.410354    14.188179    19.734025    33.265725    9.5347501    12.612127     22.30075    14.235163 
  276400     147.5671     59211444            0     59212018    12.683314    22.410353    14.188092    19.733878    33.265702    9.5260709    12.612127     22.30075    14.235163 
  276600     199.7812     59210846            0     59211624    12.683296    22.410351    14.188199    19.732001    33.265411    9.5367613    12.612127     22.30075    14.235163 
  276800    210.46834     59211422            0     59212241     12.68335    22.410362    14.187869     19.73748    33.266532    9.5037247    12.612127     22.30075    14.235163 
  277000    280.36396     59210844            0     59211936     12.68329    22.410339    14.187932    19.731489    33.264266    9.5100281    12.612127     22.30075    14.235163 
  277200    121.08954     59211538            0     59212009    12.683309    22.410367    14.188193    19.733331    33.267039    9.5360991    12.612127     22.30075    14.235163 
  277400    134.01327     59210689            0     59211211    12.683318    22.410345    14.187946    19.734296    33.264883    9.5113965    12.612127     22.30075    14.235163 
  277600    101.64158     59210840            0     59211236    12.683315    22.410353    14.188109    19.733962    33.265688    9.5277005    12.612127     22.30075    14.235163 
  277800    253.01844     59211631            0     59212616    12.683274    22.410343    14.187943    19.729816    33.264686    9.5111384    12.612127     22.30075    14.235163 
  278000    135.15307     59210947            0     59211473    12.683351    22.410312    14.188245    19.737524    33.261579     9.541396    12.612127     22.30075    14.235163 
  278200    140.65543     59210805            0     59211353    12.683338    22.410329    14.188153    19.736233    33.263282    9.5321376    12.612127     22.30075    14.235163 
  278400    326.39544     59210546            0     59211817    12.683311    22.410356    14.188018    19.733588    33.265954    9.5186504    12.612127     22.30075    14.235163 
  278600    224.26868     59211776            0     59212650    12.683315    22.410353     14.18826    19.733969    33.265693    9.5428576    12.612127     22.30075    14.235163 
  278800    141.65085     59210868            0     59211419    12.683295    22.410354    14.188268    19.731935    33.265783    9.5436761    12.612127     22.30075    14.235163 
  279000    229.23523     59210837            0     59211729    12.683307    22.410353    14.188189    19.733133    33.265706     9.535792    12.612127     22.30075    14.235163 
  279200     340.2059     59211176            0     59212501    12.683306    22.410383    14.187977    19.733024    33.268659    9.5145739    12.612127     22.30075    14.235163 
  279400    203.60703     59212180            0     59212972    12.683348    22.410378    14.188122    19.737242     33.26819     9.529039    12.612127     22.30075    14.235163 
  279600    311.32378     59211548            0     59212760    12.683309    22.410344    14.188219    19.733364    33.264749    9.5387784    12.612127     22.30075    14.235163 
  279800    260.19005     59210729            0     59211742    12.683324    22.410352    14.188069    19.734814    33.265536    9.5237909    12.612127     22.30075    14.235163 
  280000    133.59592     59210096            0     59210616    12.683313     22.41037    14.188145    19.733702    33.267405     9.531339    12.612127     22.30075    14.235163 
  280200    200.74017     59211258            0     59212039    12.683307     22.41037    14.188442     19.73314    33.267392    9.5610872    12.612127     22.30075    14.235163 
  280400    249.68138     59210979            0     59211951    12.683301    22.410382    14.188195    19.732549    33.268585    9.5362972    12.612127     22.30075    14.235163 
  280600     229.0518     59210988            0     59211880    12.683293    22.410324    14.188078      19.7317    33.262803    9.5246362    12.612127     22.30075    14.235163 
  280800    206.30214     59211911            0     59212714    12.683325    22.410352    14.188121    19.734902    33.265512    9.5289358    12.612127     22.30075    14.235163 
  281000    194.79302     59211961            0     59212719    12.683279    22.410372    14.187832    19.730326    33.267592    9.5000808    12.612127     22.30075    14.235163 
  281200    154.92545     59210462            0     59211065    12.683309    22.410382    14.188198    19.733347    33.268546    9.5366213    12.612127     22.30075    14.235163 
  281400      166.428     59211594            0     59212242    12.683319     22.41037    14.188343    19.734302     33.26731    9.5511842    12.612127     22.30075    14.235163 
  281600    195.61656     59211132            0     59211894     12.68332    22.410346    14.188295    19.734425    33.264938    9.5463043    12.612127     22.30075    14.235163 
  281800    111.86704     59212021            0     59212456     12.68334    22.410351    14.188179    19.736411    33.265502    9.5347573    12.612127     22.30075    14.235163 
  282000    152.30149     59210384            0     59210976    12.683341    22.410352    14.188126     19.73653    33.265556    9.5294492    12.612127     22.30075    14.235163 
  282200    188.21045     59210100            0     59210832     12.68336    22.410369    14.188224    19.738484    33.267276    9.5392079    12.612127     22.30075    14.235163 
  282400    306.94925     59211443            0     59212638    12.683302    22.410377    14.187877     19.73268    33.268068    9.5044938    12.612127     22.30075    14.235163 
  282600    146.03676     59210264            0     59210832    12.683291    22.410355    14.188088    19.731525    33.265864    9.5256683    12.612127     22.30075    14.235163 
  282800    348.10051     59211825            0     59213180    12.683309    22.410369    14.188107    19.733348    33.267258     9.527501    12.612127     22.30075    14.235163 
  283000    286.32592     59211793            0     59212908    12.683316    22.410353    14.188053    19.734014    33.265686    9.5221619    12.612127     22.30075    14.235163 
  283200    173.05731     59210047            0     59210721    12.683295    22.410313    14.188137    19.731939    33.261627    9.5305519    12.612127     22.30075    14.235163 
  283400    309.35318     59211571            0     59212775    12.683313    22.410353    14.188224    19.733708    33.265656    9.5392893    12.612127     22.30075    14.235163 
  283600    416.91044     59210137            0     59211760    12.683329    22.410352    14.188172    19.735356    33.265538    9.5340247    12.612127     22.30075    14.235163 
  283800    277.61106     59212426            0     59213506     12.68332    22.410362    14.188046    19.734443    33.266513    9.5214793    12.612127     22.30075    14.235163 
  284000    175.37094     59210825            0     59211507     12.68331    22.410401    14.188239     19.73348    33.270476    9.5407048    12.612127     22.30075    14.235163 
  284200    307.26222     59211886            0     59213082    12.683316    22.410353     14.18832    19.734014    33.265686    9.5488884    12.612127     22.30075    14.235163 
  284400    233.38224     59211068            0     59211976    12.683304    22.410358    14.188185    19.732808    33.266147    9.5353847    12.612127     22.30075    14.235163 
  284600     191.2942     59211247            0     59211992    12.683311    22.410355    14.188256    19.733538    33.265809    9.5424877    12.612127     22.30075    14.235163 
  284800     233.5551     59212215            0     59213124    12.683328    22.410329    14.188309    19.735226    33.263302    9.5477015    12.612127     22.30075    14.235163 
  285000    228.82057     59212324            0     59213215    12.683295    22.410337     14.18822     19.73192    33.264035    9.5388798    12.612127     22.30075    14.235163 
  285200    102.19475     59211236            0     59211634    12.683309    22.410352    14.187938    19.733303    33.265565    9.5106201    12.612127     22.30075    14.235163 
  285400    305.46822     59212957            0     59214146     12.68332    22.410355    14.187723    19.734413    33.265822    9.4891579    12.612127     22.30075    14.235163 
  285600     320.6323     59211425            0     59212673    12.683328    22.410372    14.188251    19.735225    33.267525     9.541972    12.612127     22.30075    14.235163 
  285800    329.12015     59210859            0     59212140    12.683311    22.410353    14.188091    19.733589    33.265699    9.5259371    12.612127     22.30075    14.235163 
  286000    181.96849     59211323            0     59212031    12.683306    22.410337    14.187831    19.733024    33.264062    9.4998827    12.612127     22.30075    14.235163 
  286200    160.16093     59211353            0     59211976    12.683316    22.410353    14.188128    19.734013    33.265684    9.5296115    12.612127     22.30075    14.235163 
  286400    233.19557     59210866            0     59211774    12.683326    22.410323    14.188167    19.735061    33.262638    9.5335577    12.612127     22.30075    14.235163 
  286600    257.15292     59211810            0     59212812    12.683327    22.410343    14.188002    19.735181    33.264643    9.5170149    12.612127     22.30075    14.235163 
  286800    164.16281     59211388            0     59212027    12.683311    22.410361     14.18808    19.733538    33.266478    9.5248502    12.612127     22.30075    14.235163 
  287000    399.64291     59210918            0     59212474    12.683316    22.410352    14.188054     19.73407    33.265577    9.5222241    12.612127     22.30075    14.235163 
  287200    238.89646     59212251            0     59213181    12.683313    22.410348    14.188061    19.733735    33.265194    9.5228926    12.612127     22.30075    14.235163 
  287400    205.39574     59211829            0     59212628    12.683303     22.41034    14.187894    19.732778    33.264379    9.5062327    12.612127     22.30075    14.235163 
  287600    142.10731     59211741            0     59212294    12.683327    22.410341    14.188246    19.735154    33.264409    9.5414043    12.612127     22.30075    14.235163 
  287800     256.6931     59211191            0     59212191    12.683288    22.410356    14.187982    19.731237    33.265935    9.5150558    12.612127     22.30075    14.235163 
  288000    308.73725     59211125            0     59212327    12.683335     22.41036    14.188152    19.735946    33.266376    9.5320217    12.612127     22.30075    14.235163 
  288200    153.42495     59210903            0     59211500    12.683332    22.410361    14.188034     19.73569    33.266413    9.5202299    12.612127     22.30075    14.235163 
  288400    217.51761     59211239            0     59212086    12.683283    22.410354    14.188196    19.730706    33.265776    9.5364809    12.612127     22.30075    14.235163 
  288600    220.80361     59212204            0     59213063    12.683298    22.410373    14.188245    19.732267    33.267622    9.5413828    12.612127     22.30075    14.235163 
  288800    386.34352     59209909            0     59211413    12.683312    22.410356    14.188015    19.733656    33.265963    9.5183705    12.612127     22.30075    14.235163 
  289000    306.94677     59211471            0     59212665    12.683316    22.410353    14.188198    19.734014    33.265686    9.5366405    12.612127     22.30075    14.235163 
  289200    327.90522     59210919            0     59212195    12.683336    22.410312    14.188183    19.736077    33.261582    9.5351507    12.612127     22.30075    14.235163 
  289400    307.80463     59211118            0     59212316    12.683309    22.410358    14.188137    19.733384    33.266206    9.5305861    12.612127     22.30075    14.235163 
  289600    285.61861     59210495            0     59211606    12.683316    22.410353    14.188036    19.734013    33.265686    9.5204523    12.612127     22.30075    14.235163 
  289800    118.87327     59210457            0     59210920    12.683275    22.410343      14.1881    19.729954    33.264618    9.5268052    12.612127     22.30075    14.235163 
  290000     173.5188     59210579            0     59211254    12.683306     22.41031    14.188288    19.733084     33.26139    9.5456703    12.612127     22.30075    14.235163 
  290200    191.89872     59213027            0     59213774    12.683322    22.410363     14.18817    19.734634    33.266635    9.5338092    12.612127     22.30075    14.235163 
  290400    281.45284     59209885            0     59210981    12.683322    22.410378    14.188207    19.734647    33.268174    9.5375032    12.612127     22.30075    14.235163 
  290600    226.79501     59210870            0     59211753    12.683319    22.410349    14.188091    19.734336     33.26529    9.5259701    12.612127     22.30075    14.235163 
  290800    171.90129     59211322            0     59211991    12.683317    22.410339    14.188131    19.734133    33.264287    9.5299183    12.612127     22.30075    14.235163 
  291000    117.19315     59212231            0     59212688    12.683307    22.410354    14.187912    19.733119    33.265746    9.5080824    12.612127     22.30075    14.235163 
  291200    255.92364     59211815            0     59212811    12.683323     22.41034    14.187945    19.734783    33.264395    9.5113132    12.612127     22.30075    14.235163 
  291400    424.53485     59211275            0     59212928    12.683309    22.410345    14.188115    19.733372    33.264836    9.5283436    12.612127     22.30075    14.235163 
  291600    352.78003     59211624            0     59212998    12.683305    22.410374    14.188046    19.732968    33.267753    9.5214433    12.612127     22.30075    14.235163 
  291800    164.58269     59211606            0     59212246    12.683283    22.410332    14.187975    19.730727    33.263579    9.5143553    12.612127     22.30075    14.235163 
  292000    316.44542     59211057            0     59212289    12.683295    22.410346    14.188254    19.731943    33.264951    9.5422064    12.612127     22.30075    14.235163 
  292200    128.45264     59210104            0     59210604    12.683353    22.410351     14.18811    19.737799    33.265477    9.5278275    12.612127     22.30075    14.235163 
  292400    152.04965     59211464            0     59212056    12.683285     22.41034    14.188401    19.730919    33.264371    9.5569749    12.612127     22.30075    14.235163 
  292600    166.09757     59212278            0     59212925    12.683311     22.41035    14.187885    19.733527    33.265343    9.5053813    12.612127     22.30075    14.235163 
  292800    162.55272     59211702            0     59212335    12.683323    22.410351    14.188149    19.734754    33.265422    9.5317896    12.612127     22.30075    14.235163 
  293000    185.07744     59211768            0     59212488    12.683316    22.410353    14.187995    19.734071    33.265688    9.5163803    12.612127     22.30075    14.235163 
  293200    415.86244     59211283            0     59212901    12.683365    22.410352    14.188087    19.738913     33.26554    9.5255173    12.612127     22.30075    14.235163 
  293400    124.38169     59209995            0     59210479    12.683302    22.410344    14.188145    19.732609     33.26476    9.5313228    12.612127     22.30075    14.235163 
  293600    286.64809     59211015            0     59212131    12.683316    22.410353    14.188099    19.734014    33.265686    9.5267017    12.612127     22.30075    14.235163 
  293800    247.69594     59211702            0     59212667    12.683306    22.410363    14.187986     19.73303    33.266613    9.5154723    12.612127     22.30075    14.235163 
  294000    198.41142     59210929            0     59211702     12.68332    22.410334    14.187943    19.734436    33.263742    9.5111275    12.612127     22.30075    14.235163 
  294200    94.914659     59211738            0     59212108    12.683298    22.410377    14.188313    19.732218    33.268059    9.5481509    12.612127     22.30075    14.235163 
  294400    394.91245     59210229            0     59211767     12.68332    22.410353    14.188063    19.734491    33.265623    9.5231712    12.612127     22.30075    14.235163 
  294600    82.090713     59212177            0     59212496    12.683317    22.410353    14.188252    19.734186    33.265677     9.542041    12.612127     22.30075    14.235163 
  294800    302.20416     59210672            0     59211849    12.683295    22.410371    14.188154    19.731981     33.26743    9.5322422    12.612127     22.30075    14.235163 
  295000    120.72599     59211532            0     59212002    12.683308    22.410341    14.188128     19.73322    33.264494    9.5296296    12.612127     22.30075    14.235163 
  295200    237.71415     59210556            0     59211481    12.683316    22.410356    14.188062    19.734045    33.265941    9.5229942    12.612127     22.30075    14.235163 
  295400    188.51393     59211366            0     59212100    12.683308    22.410333    14.188146    19.733259    33.263608    9.5314055    12.612127     22.30075    14.235163 
  295600    369.29157     59211852            0     59213290    12.683316    22.410352    14.188052    19.734054     33.26557    9.5220588    12.612127     22.30075    14.235163 
  295800    171.05027     59210863            0     59211529    12.683307    22.410339    14.188225    19.733174    33.264295    9.5393242    12.612127     22.30075    14.235163 
  296000    203.84816     59211875            0     59212668    12.683292    22.410388    14.187927    19.731615    33.269186    9.5094965    12.612127     22.30075    14.235163 
  296200    353.91514     59210560            0     59211937     12.68333    22.410357    14.188168    19.735428    33.266087    9.5336382    12.612127     22.30075    14.235163 
  296400     240.4145     59211176            0     59212112    12.683331    22.410376    14.188142    19.735517    33.267987    9.5310453    12.612127     22.30075    14.235163 
  296600    272.74746     59211407            0     59212469    12.683322    22.410376    14.188056    19.734679    33.267929    9.5224787    12.612127     22.30075    14.235163 
  296800    227.24034     59211489            0     59212374    12.683317    22.410357    14.188172     19.73416    33.266058    9.5340727    12.612127     22.30075    14.235163 
  297000    103.08569     59211960            0     59212362    12.683323    22.410366    14.188266    19.734713    33.266957    9.5434276    12.612127     22.30075    14.235163 
  297200    291.67652     59210656            0     59211792    12.683316    22.410353    14.188169    19.734014    33.265686    9.5337537    12.612127     22.30075    14.235163 
  297400    351.53212     59211007            0     59212375    12.683316    22.410353    14.187955    19.734045    33.265666    9.5123716    12.612127     22.30075    14.235163 
  297600    399.70925     59211637            0     59213193     12.68331    22.410356    14.188291    19.733457    33.265981     9.545914    12.612127     22.30075    14.235163 
  297800    197.08672     59211975            0     59212742    12.683321    22.410353     14.18827    19.734544    33.265652    9.5438919    12.612127     22.30075    14.235163 
  298000    152.72761     59210735            0     59211329     12.68332    22.410359    14.188198    19.734436    33.266296    9.5366563    12.612127     22.30075    14.235163 
  298200    488.58517     59210946            0     59212848    12.683329    22.410355    14.188016    19.735311    33.265863    9.5184585    12.612127     22.30075    14.235163 
  298400    274.38971     59211066            0     59212134    12.683323    22.410353    14.188021    19.734712    33.265649    9.5189699    12.612127     22.30075    14.235163 
  298600    258.11367     59210262            0     59211267    12.683325    22.410344    14.188128    19.734991    33.264715    9.5296475    12.612127     22.30075    14.235163 
  298800    229.43295     59210210            0     59211103    12.683316    22.410353    14.188092     19.73407     33.26568    9.5260752    12.612127     22.30075    14.235163 
  299000    222.00285     59210505            0     59211369    12.683295    22.410325     14.18823    19.731953    33.262865    9.5398468    12.612127     22.30075    14.235163 
  299200    98.691127     59211243            0     59211627    12.683292    22.410331    14.188304    19.731661    33.263471    9.5472435    12.612127     22.30075    14.235163 
  299400    142.89465     59212220            0     59212777    12.683284    22.410355    14.188245    19.730876    33.265873    9.5413239    12.612127     22.30075    14.235163 
  299600    250.44714     59210639            0     59211614    12.683327    22.410335    14.188153    19.735155    33.263827    9.5321863    12.612127     22.30075    14.235163 
  299800     169.1417     59210956            0     59211614    12.683316     22.41036    14.188306    19.734028    33.266368    9.5474063    12.612127     22.30075    14.235163 
  300000    348.59602     59210855            0     59212212    12.683333    22.410357    14.188221    19.735793    33.266079    9.5389356    12.612127     22.30075    14.235163 
  300200    164.17791     59211102            0     59211741    12.683348    22.410348    14.187746    19.737279    33.265118    9.4914468    12.612127     22.30075    14.235163 
  300400    243.27604     59211841            0     59212788    12.683308     22.41033    14.188356    19.733253    33.263328    9.5524238    12.612127     22.30075    14.235163 
  300600    217.53166     59211048            0     59211895    12.683303    22.410342    14.188058    19.732787    33.264605    9.5226317    12.612127     22.30075    14.235163 
  300800    200.40993     59210811            0     59211591    12.683329    22.410371    14.188072    19.735393    33.267509    9.5240166    12.612127     22.30075    14.235163 
  301000     181.4608     59211485            0     59212191    12.683323    22.410346    14.188177    19.734723    33.264965    9.5345509    12.612127     22.30075    14.235163 
  301200    149.73831     59211784            0     59212367     12.68332    22.410364    14.188236    19.734484    33.266714    9.5404067    12.612127     22.30075    14.235163 
  301400    117.71616     59212377            0     59212836    12.683322     22.41034    14.188083    19.734655    33.264402    9.5251686    12.612127     22.30075    14.235163 
  301600    289.43934     59210669            0     59211795    12.683355    22.410376     14.18809    19.737935    33.267991    9.5258177    12.612127     22.30075    14.235163 
  301800    166.14662     59210435            0     59211082    12.683327     22.41036    14.188079    19.735106    33.266366    9.5247655    12.612127     22.30075    14.235163 
  302000     179.5657     59210911            0     59211610    12.683314    22.410353    14.188216    19.733846    33.265694    9.5384526    12.612127     22.30075    14.235163 
  302200    385.60715     59211268            0     59212769    12.683288    22.410353     14.18826    19.731229    33.265688    9.5428576    12.612127     22.30075    14.235163 
  302400    85.908649     59211238            0     59211573    12.683361     22.41029    14.188105    19.738532    33.259329      9.52736    12.612127     22.30075    14.235163 
  302600    302.79105     59211080            0     59212259    12.683332    22.410328    14.188271     19.73567    33.263148    9.5439058    12.612127     22.30075    14.235163 
  302800    166.35352     59211846            0     59212493    12.683316    22.410353    14.187729    19.734023    33.265686    9.4897677    12.612127     22.30075    14.235163 
  303000    324.21815     59210781            0     59212043    12.683316    22.410353     14.18818    19.734046    33.265622    9.5348293    12.612127     22.30075    14.235163 
  303200    239.14382     59212224            0     59213155    12.683326    22.410356    14.188135    19.735015    33.265952    9.5303502    12.612127     22.30075    14.235163 
  303400    421.38651     59212385            0     59214025    12.683311    22.410347     14.18839    19.733542    33.265101    9.5558062    12.612127     22.30075    14.235163 
  303600    327.36906     59210651            0     59211925    12.683311    22.410352    14.188229    19.733582    33.265525    9.5397066    12.612127     22.30075    14.235163 
  303800    291.54496     59210920            0     59212055     12.68336    22.410351    14.188244    19.738463     33.26544    9.5412545    12.612127     22.30075    14.235163 
  304000     216.3433     59211498            0     59212341    12.683317    22.410355    14.187869    19.734109    33.265827    9.5037169    12.612127     22.30075    14.235163 
  304200    162.08464     59211560            0     59212191    12.683305    22.410351    14.188275    19.732898    33.265447    9.5443639    12.612127     22.30075    14.235163 
  304400    398.18563     59210775            0     59212325    12.683329    22.410353    14.188206    19.735355    33.265632    9.5374369    12.612127     22.30075    14.235163 
  304600    301.39449     59211494            0     59212667    12.683322    22.410339    14.188501    19.734637    33.264232    9.5669596    12.612127     22.30075    14.235163 
  304800    224.04883     59211387            0     59212259    12.683326    22.410382    14.188254    19.735089    33.268548    9.5422077    12.612127     22.30075    14.235163 
  305000    249.70767     59210843            0     59211815    12.683316    22.410353    14.188016    19.734014    33.265682    9.5184012    12.612127     22.30075    14.235163 
  305200    281.69846     59211301            0     59212397     12.68328     22.41034    14.188134    19.730488    33.264404    9.5302782    12.612127     22.30075    14.235163 
  305400    188.11823     59210840            0     59211572    12.683291    22.410318    14.188194     19.73159    33.262197    9.5362537    12.612127     22.30075    14.235163 
  305600    208.00499     59210714            0     59211524     12.68333    22.410352    14.188154    19.735482    33.265538    9.5322481    12.612127     22.30075    14.235163 
  305800    295.60108     59211569            0     59212720    12.683313    22.410339    14.188019    19.733751    33.264298    9.5187477    12.612127     22.30075    14.235163 
  306000    199.69086     59211661            0     59212438    12.683316    22.410353    14.188165    19.734013    33.265686    9.5333015    12.612127     22.30075    14.235163 
  306200    205.89093     59210607            0     59211409    12.683333    22.410364    14.188033    19.735745    33.266741     9.520131    12.612127     22.30075    14.235163 
  306400    241.05754     59210824            0     59211763    12.683323    22.410344    14.188414     19.73476    33.264709    9.5582741    12.612127     22.30075    14.235163 
  306600    158.83199     59211250            0     59211868    12.683312    22.410338    14.187983    19.733663    33.264121    9.5151226    12.612127     22.30075    14.235163 
  306800    107.76557     59211967            0     59212386    12.683285    22.410374    14.187986    19.730924    33.267782    9.5154573    12.612127     22.30075    14.235163 
  307000    143.59388     59211334            0     59211893    12.683308    22.410329    14.188134    19.733246    33.263293    9.5302572    12.612127     22.30075    14.235163 
  307200    278.63738     59210788            0     59211873    12.683371    22.410351    14.188104    19.739591    33.265504    9.5272222    12.612127     22.30075    14.235163 
  307400    263.77664     59211324            0     59212351    12.683321    22.410334    14.188102    19.734588    33.263807    9.5270497    12.612127     22.30075    14.235163 
  307600    136.76079     59210748            0     59211281    12.683332    22.410352    14.188282    19.735674     33.26555    9.5450422    12.612127     22.30075    14.235163 
  307800    271.71579     59211216            0     59212274    12.683299     22.41037     14.18812    19.732328    33.267335    9.5287945    12.612127     22.30075    14.235163 
  308000    167.90951     59211833            0     59212487    12.683312    22.410357    14.188037    19.733601    33.266103    9.5205524    12.612127     22.30075    14.235163 
  308200    126.86013     59210404            0     59210898    12.683325    22.410368    14.188116    19.734927    33.267156     9.528446    12.612127     22.30075    14.235163 
  308400    141.41035     59212098            0     59212649    12.683316    22.410353    14.187967    19.734006    33.265682    9.5135811    12.612127     22.30075    14.235163 
  308600    158.33006     59211011            0     59211627    12.683319    22.410358    14.187967    19.734334    33.266176    9.5134871    12.612127     22.30075    14.235163 
  308800    318.94163     59210657            0     59211898    12.683317    22.410376     14.18801    19.734106    33.267955    9.5177976    12.612127     22.30075    14.235163 
  309000    192.87801     59210409            0     59211160    12.683307    22.410354    14.188222    19.733165    33.265733    9.5390874    12.612127     22.30075    14.235163 
  309200    203.50078     59210369            0     59211161    12.683313    22.410359    14.188174    19.733705    33.266297    9.5341979    12.612127     22.30075    14.235163 
  309400    264.44633     59211999            0     59213029    12.683322    22.410395    14.188139    19.734641     33.26991    9.5307579    12.612127     22.30075    14.235163 
  309600    190.15097     59211717            0     59212457    12.683315    22.410353    14.188231    19.733941    33.265696    9.5399631    12.612127     22.30075    14.235163 
  309800    256.73376     59210288            0     59211288    12.683284    22.410363    14.188271    19.730892    33.266641    9.5439075    12.612127     22.30075    14.235163 
  310000    263.71237     59210795            0     59211821    12.683315    22.410354    14.188032    19.733976     33.26576    9.5200563    12.612127     22.30075    14.235163 
  310200    461.28289     59210412            0     59212208    12.683325    22.410363    14.188048     19.73499    33.266696    9.5215937    12.612127     22.30075    14.235163 
  310400     210.0825     59211371            0     59212189    12.683335     22.41035    14.188177    19.735921    33.265332    9.5345953    12.612127     22.30075    14.235163 
  310600    169.53734     59211937            0     59212597    12.683304    22.410374    14.188047    19.732894    33.267744    9.5215167    12.612127     22.30075    14.235163 
  310800    280.28412     59210762            0     59211853    12.683317    22.410366    14.188021    19.734187    33.267002    9.5189006    12.612127     22.30075    14.235163 
  311000    314.03974     59211102            0     59212324    12.683316    22.410353    14.188224    19.734014    33.265686    9.5392179    12.612127     22.30075    14.235163 
  311200    264.22453     59211224            0     59212252     12.68331    22.410328     14.18838    19.733493    33.263203    9.5548533    12.612127     22.30075    14.235163 
  311400    328.55049     59210724            0     59212003    12.683327    22.410352    14.188256    19.735195    33.265581    9.5424577    12.612127     22.30075    14.235163 
  311600    139.96173     59210323            0     59210868    12.683329    22.410391    14.188289    19.735335    33.269493    9.5457242    12.612127     22.30075    14.235163 
  311800    243.21092     59211307            0     59212254     12.68332    22.410378    14.188085    19.734465    33.268174    9.5253838    12.612127     22.30075    14.235163 
  312000    192.39798     59211955            0     59212704    12.683328    22.410363    14.188201    19.735258    33.266698    9.5369759    12.612127     22.30075    14.235163 
  312200    80.150531     59210210            0     59210522    12.683275    22.410293    14.188137     19.72992    33.259648    9.5305082    12.612127     22.30075    14.235163 
  312400    169.77796     59211467            0     59212128      12.6833    22.410331    14.188071    19.732447    33.263474    9.5239211    12.612127     22.30075    14.235163 
  312600    212.15749     59210781            0     59211607    12.683328    22.410329    14.188041    19.735296    33.263265    9.5209481    12.612127     22.30075    14.235163 
  312800    283.95124     59211349            0     59212455    12.683286    22.410356    14.188029    19.731045    33.265984    9.5197413    12.612127     22.30075    14.235163 
  313000    290.48319     59210097            0     59211228    12.683309    22.410365    14.188146    19.733392    33.266907    9.5314343    12.612127     22.30075    14.235163 
  313200     129.0325     59211015            0     59211517    12.683316    22.410353    14.188128    19.734013    33.265686    9.5296488    12.612127     22.30075    14.235163 
  313400     288.2032     59211351            0     59212473    12.683323    22.410339    14.188119    19.734753    33.264223    9.5287685    12.612127     22.30075    14.235163 
  313600     115.9639     59211352            0     59211803    12.683313    22.410361    14.188113     19.73378    33.266425    9.5281275    12.612127     22.30075    14.235163 
  313800    154.17906     59212410            0     59213010    12.683312    22.410353    14.188428    19.733671    33.265705     9.559648    12.612127     22.30075    14.235163 
  314000    150.97976     59210628            0     59211215     12.68329    22.410378    14.188158    19.731419    33.268192    9.5326515    12.612127     22.30075    14.235163 
  314200    133.46226     59211986            0     59212505     12.68331    22.410331    14.188199    19.733441    33.263474    9.5367121    12.612127     22.30075    14.235163 
  314400    101.19258     59211664            0     59212058    12.683335    22.410334    14.188107    19.735987    33.263746    9.5275185    12.612127     22.30075    14.235163 
  314600    209.48033     59210456            0     59211271    12.683302    22.410347    14.188135    19.732625    33.265016    9.5302998    12.612127     22.30075    14.235163 
  314800    235.60015     59210486            0     59211403    12.683316    22.410353    14.188202    19.734029    33.265697    9.5370158    12.612127     22.30075    14.235163 
  315000    271.57822     59211198            0     59212256     12.68332    22.410353    14.188122    19.734442    33.265662    9.5290893    12.612127     22.30075    14.235163 
  315200     328.5576     59210830            0     59212109     12.68334    22.410362    14.188231     19.73647    33.266536    9.5399367    12.612127     22.30075    14.235163 
  315400    245.76469     59209997            0     59210953    12.683316    22.410353    14.188106    19.734055    33.265651    9.5274193    12.612127     22.30075    14.235163 
  315600    292.41046     59210697            0     59211835     12.68332     22.41035    14.188119     19.73448    33.265403    9.5287758    12.612127     22.30075    14.235163 
  315800     278.4924     59210951            0     59212035     12.68333    22.410341    14.188135     19.73547    33.264467    9.5303399    12.612127     22.30075    14.235163 
  316000    225.04655     59212366            0     59213242    12.683366     22.41034    14.188091     19.73902     33.26431     9.525946    12.612127     22.30075    14.235163 
  316200    159.42732     59211399            0     59212020    12.683314    22.410356    14.188136    19.733883    33.265917    9.5304895    12.612127     22.30075    14.235163 
  316400    148.87021     59210532            0     59211111    12.683339    22.410307    14.188239    19.736332    33.261104    9.5407465    12.612127     22.30075    14.235163 
  316600    215.17933     59211286            0     59212123    12.683315     22.41035    14.188212    19.733922    33.265324    9.5380701    12.612127     22.30075    14.235163 
  316800    243.34127     59210880            0     59211828    12.683362    22.410337    14.188195    19.738665    33.264009    9.5363672    12.612127     22.30075    14.235163 
  317000    367.52671     59211252            0     59212682    12.683304    22.410351    14.188031    19.732854     33.26547    9.5199551    12.612127     22.30075    14.235163 
  317200    338.35524     59211169            0     59212486    12.683322    22.410349    14.188341    19.734681    33.265258    9.5510028    12.612127     22.30075    14.235163 
  317400    316.48457     59211467            0     59212699    12.683313    22.410364    14.187808     19.73379    33.266762    9.4976654    12.612127     22.30075    14.235163 
  317600    298.18179     59210796            0     59211957    12.683308    22.410341    14.187827    19.733235    33.264454    9.4994867    12.612127     22.30075    14.235163 
  317800     227.9455     59210213            0     59211100    12.683315    22.410353    14.188224    19.733962    33.265689    9.5392243    12.612127     22.30075    14.235163 
  318000    270.35029     59210956            0     59212009    12.683316    22.410353    14.188365    19.734015    33.265684    9.5533225    12.612127     22.30075    14.235163 
  318200    132.01443     59210914            0     59211428    12.683306    22.410352    14.187905    19.733014    33.265604     9.507359    12.612127     22.30075    14.235163 
  318400    389.87715     59211465            0     59212983    12.683313    22.410349    14.188084    19.733791     33.26529    9.5252404    12.612127     22.30075    14.235163 
  318600    154.19375     59210798            0     59211399    12.683385    22.410349    14.187975    19.740915    33.265304    9.5143493    12.612127     22.30075    14.235163 
  318800    292.33352     59211659            0     59212797    12.683317    22.410352    14.188017    19.734106    33.265601    9.5185298    12.612127     22.30075    14.235163 
  319000    113.46347     59211570            0     59212011    12.683316    22.410353    14.187833    19.734014    33.265685    9.5000922    12.612127     22.30075    14.235163 
  319200    252.98451     59211356            0     59212341    12.683318    22.410349     14.18796    19.734233     33.26526    9.5128251    12.612127     22.30075    14.235163 
  319400    206.70143     59210118            0     59210922    12.683304    22.410344       14.188    19.732824    33.264754    9.5168078    12.612127     22.30075    14.235163 
  319600    282.92376     59212058            0     59213159    12.683287    22.410356    14.188263    19.731132     33.26596    9.5431174    12.612127     22.30075    14.235163 
  319800    260.87013     59211164            0     59212180    12.683318    22.410346     14.18819     19.73422    33.264957    9.5358529    12.612127     22.30075    14.235163 
  320000    275.78776     59212296            0     59213369    12.683283    22.410322    14.188287    19.730758    33.262597    9.5455362    12.612127     22.30075    14.235163 
  320200    187.54431     59210747            0     59211478     12.68331    22.410344    14.188003    19.733438      33.2648    9.5171861    12.612127     22.30075    14.235163 
  320400    97.757425     59211226            0     59211607    12.683312    22.410348    14.187886     19.73369    33.265205    9.5053902    12.612127     22.30075    14.235163 
  320600    197.89548     59210386            0     59211156    12.683283    22.410373    14.188097     19.73079    33.267657    9.5265547    12.612127     22.30075    14.235163 
  320800    158.07827     59210957            0     59211572    12.683322    22.410352     14.18785    19.734688    33.265559    9.5018744    12.612127     22.30075    14.235163 
  321000    163.90287     59211540            0     59212178    12.683316    22.410353     14.18817    19.734051    33.265614    9.5338128    12.612127     22.30075    14.235163 
  321200    125.99163     59212097            0     59212588    12.683326    22.410333    14.188273    19.735057    33.263625    9.5441014    12.612127     22.30075    14.235163 
  321400    273.51999     59210730            0     59211795    12.683322    22.410341    14.187932    19.734634     33.26444    9.5100721    12.612127     22.30075    14.235163 
  321600    160.54725     59211436            0     59212061    12.683315    22.410346    14.188035    19.733901    33.264931    9.5202983    12.612127     22.30075    14.235163 
  321800    334.49793     59210513            0     59211816    12.683315    22.410354    14.188086    19.733964    33.265715    9.5253931    12.612127     22.30075    14.235163 
  322000    185.30118     59210621            0     59211342    12.683307     22.41035    14.188285    19.733133     33.26531    9.5453062    12.612127     22.30075    14.235163 
  322200    388.92698     59210221            0     59211735    12.683309    22.410355    14.188131    19.733341    33.265814    9.5299562    12.612127     22.30075    14.235163 
  322400    269.62043     59211424            0     59212474    12.683314    22.410356    14.188124    19.733883    33.265947    9.5292465    12.612127     22.30075    14.235163 
  322600    193.15087     59211058            0     59211810    12.683321    22.410357    14.187973     19.73458     33.26604    9.5141233    12.612127     22.30075    14.235163 
  322800    338.81033     59210302            0     59211621    12.683291    22.410341     14.18814    19.731593     33.26443     9.530796    12.612127     22.30075    14.235163 
  323000    320.26228     59211234            0     59212481    12.683316    22.410353    14.188241    19.734097    33.265681    9.5408996    12.612127     22.30075    14.235163 
  323200     204.0301     59210747            0     59211542    12.683316    22.410353    14.188252    19.734029    33.265686      9.54208    12.612127     22.30075    14.235163 
  323400    222.95365     59210996            0     59211864    12.683333    22.410334    14.188426    19.735783    33.263774    9.5594319    12.612127     22.30075    14.235163 
  323600    183.92523     59210676            0     59211392    12.683309     22.41036    14.188163    19.733373    33.266314    9.5331045    12.612127     22.30075    14.235163 
  323800    282.60338     59210091            0     59211191    12.683321    22.410327    14.188226    19.734502    33.263085    9.5394946    12.612127     22.30075    14.235163 
  324000    159.32902     59211258            0     59211878    12.683311    22.410344    14.188175    19.733588    33.264782    9.5343651    12.612127     22.30075    14.235163 
  324200     221.7856     59210651            0     59211515    12.683299    22.410376    14.188186    19.732356    33.267991    9.5354955    12.612127     22.30075    14.235163 
  324400    193.47235     59212231            0     59212984    12.683333    22.410353    14.188014    19.735703    33.265682    9.5182538    12.612127     22.30075    14.235163 
  324600    182.81832     59210375            0     59211087    12.683319    22.410347       14.188    19.734317    33.265084    9.5168402    12.612127     22.30075    14.235163 
  324800    235.62181     59211402            0     59212320    12.683313    22.410354    14.188061    19.733745    33.265772    9.5229822    12.612127     22.30075    14.235163 
  325000    463.88837     59210879            0     59212685    12.683312    22.410348    14.188093    19.733617    33.265125    9.5261554    12.612127     22.30075    14.235163 
  325200    294.07042     59211827            0     59212971    12.683317    22.410359    14.188201    19.734148     33.26628    9.5369614    12.612127     22.30075    14.235163 
  325400    145.97767     59211303            0     59211871    12.683293    22.410369    14.188125    19.731705    33.267266    9.5293698    12.612127     22.30075    14.235163 
  325600     381.1988     59211792            0     59213276    12.683337    22.410352    14.188193    19.736136    33.265547    9.5361154    12.612127     22.30075    14.235163 
  325800    258.09423     59210843            0     59211848    12.683313    22.410364    14.188318    19.733744    33.266712     9.548688    12.612127     22.30075    14.235163 
  326000    398.55206     59210221            0     59211772    12.683309    22.410333    14.188194    19.733389    33.263644    9.5362454    12.612127     22.30075    14.235163 
  326200    316.55801     59210968            0     59212201    12.683308    22.410338     14.18824    19.733244    33.264165    9.5408248    12.612127     22.30075    14.235163 
  326400    234.07489     59211769            0     59212680    12.683343    22.410332    14.187871    19.736729    33.263532    9.5039795    12.612127     22.30075    14.235163 
  326600     225.1601     59211010            0     59211886    12.683302    22.410355    14.188179    19.732662     33.26587    9.5347794    12.612127     22.30075    14.235163 
  326800     217.3111     59210418            0     59211264     12.68332    22.410373     14.18812    19.734398    33.267658    9.5288754    12.612127     22.30075    14.235163 
  327000    380.39473     59210383            0     59211864    12.683323    22.410339    14.187986     19.73472    33.264213    9.5154462    12.612127     22.30075    14.235163 
  327200    293.61344     59211380            0     59212523    12.683325    22.410372    14.188285    19.734913    33.267573    9.5453932    12.612127     22.30075    14.235163 
  327400    189.06106     59211214            0     59211950    12.683317    22.410352    14.188127     19.73416    33.265584    9.5295024    12.612127     22.30075    14.235163 
  327600    115.49886     59210018            0     59210467    12.683335     22.41035    14.188213    19.735927    33.265347    9.5381278    12.612127     22.30075    14.235163 
  327800    193.51977     59211359            0     59212112    12.683319    22.410348    14.188126    19.734384    33.265195    9.5294824    12.612127     22.30075    14.235163 
  328000    296.42706     59210768            0     59211922    12.683326    22.410348    14.188187    19.735021    33.265194      9.53553    12.612127     22.30075    14.235163 
  328200     106.3064     59212667            0     59213081    12.683323    22.410339    14.188303    19.734745    33.264209    9.5471113    12.612127     22.30075    14.235163 
  328400    209.79645     59211622            0     59212439    12.683318    22.410353    14.188022    19.734205    33.265677    9.5190168    12.612127     22.30075    14.235163 
  328600    225.20084     59210536            0     59211413    12.683324    22.410328    14.188155    19.734887    33.263185    9.5323631    12.612127     22.30075    14.235163 
  328800    258.39365     59210630            0     59211636    12.683307    22.410352    14.188247    19.733165    33.265512     9.541573    12.612127     22.30075    14.235163 
  329000    236.57594     59210379            0     59211300    12.683316    22.410353    14.188172    19.734014    33.265686    9.5339999    12.612127     22.30075    14.235163 
  329200    193.55802     59210294            0     59211048    12.683287     22.41031    14.188012    19.731128    33.261362    9.5180088    12.612127     22.30075    14.235163 
  329400    254.99936     59210989            0     59211982    12.683317    22.410379    14.188094    19.734143    33.268263    9.5261949    12.612127     22.30075    14.235163 
  329600     135.0995     59211558            0     59212083    12.683313    22.410367    14.188146    19.733703    33.267099     9.531482    12.612127     22.30075    14.235163 
  329800    161.82079     59210658            0     59211288    12.683324    22.410346     14.18802    19.734804    33.264957    9.5188551    12.612127     22.30075    14.235163 
  330000    218.29466     59211200            0     59212050    12.683314    22.410358    14.188018    19.733806     33.26612    9.5186089    12.612127     22.30075    14.235163 
  330200    199.24274     59211734            0     59212509    12.683317     22.41034    14.188065    19.734151    33.264357    9.5233529    12.612127     22.30075    14.235163 
  330400    136.21313     59211895            0     59212425    12.683299    22.410354    14.188281    19.732328    33.265753    9.5449003    12.612127     22.30075    14.235163 
  330600    80.588203     59210424            0     59210738    12.683316    22.410353    14.188124    19.734013    33.265686    9.5292123    12.612127     22.30075    14.235163 
  330800    388.48113     59210926            0     59212439    12.683324    22.410352     14.18823    19.734821    33.265525    9.5398506    12.612127     22.30075    14.235163 
  331000    229.64079     59211317            0     59212211    12.683321    22.410343    14.188087    19.734539    33.264646    9.5255091    12.612127     22.30075    14.235163 
  331200    248.71656     59211388            0     59212356    12.683325    22.410305    14.188177    19.734903     33.26082    9.5345734    12.612127     22.30075    14.235163 
  331400    332.11222     59211615            0     59212908    12.683319    22.410353    14.188002    19.734366    33.265663    9.5170663    12.612127     22.30075    14.235163 
  331600    187.46542     59212015            0     59212744    12.683324    22.410299    14.188199     19.73487    33.260304    9.5367862    12.612127     22.30075    14.235163 
  331800    386.66562     59210198            0     59211703    12.683303    22.410358    14.188124    19.732761    33.266111     9.529245    12.612127     22.30075    14.235163 
  332000    392.19597     59210264            0     59211790     12.68331    22.410354    14.188323    19.733447    33.265718    9.5491728    12.612127     22.30075    14.235163 
  332200    238.04509     59209751            0     59210677    12.683324    22.410305    14.188143    19.734851     33.26089    9.5311755    12.612127     22.30075    14.235163 
  332400    237.79064     59211097            0     59212023    12.683334    22.410352    14.188423     19.73586    33.265582    9.5591982    12.612127     22.30075    14.235163 
  332600    303.96601     59211323            0     59212506    12.683316    22.410353    14.187922    19.734013    33.265686    9.5090843    12.612127     22.30075    14.235163 
  332800    174.14981     59210837            0     59211515    12.683308    22.410353    14.188096    19.733273    33.265682    9.5264162    12.612127     22.30075    14.235163 
  333000    159.54878     59210895            0     59211516    12.683275    22.410372    14.188044    19.729929    33.267545    9.5212167    12.612127     22.30075    14.235163 
  333200    396.48107     59211173            0     59212717    12.683323    22.410355    14.188186    19.734764     33.26584    9.5354136    12.612127     22.30075    14.235163 
  333400    246.29753     59211895            0     59212854    12.683345    22.410344    14.188331    19.736907    33.264771    9.5499418    12.612127     22.30075    14.235163 
  333600    206.97805     59211145            0     59211951     12.68332    22.410334    14.188023    19.734473    33.263717    9.5191233    12.612127     22.30075    14.235163 
  333800     303.8895     59210455            0     59211638    12.683316    22.410353    14.188113    19.734024    33.265684    9.5281448    12.612127     22.30075    14.235163 
  334000     121.6049     59211538            0     59212011    12.683357    22.410351    14.187971    19.738168    33.265454    9.5139652    12.612127     22.30075    14.235163 
  334200    305.58375     59210613            0     59211802    12.683301    22.410354    14.187989    19.732571    33.265741    9.5157837    12.612127     22.30075    14.235163 
  334400    340.35095     59210256            0     59211581     12.68331    22.410358     14.18791    19.733466    33.266128    9.5078123    12.612127     22.30075    14.235163 
  334600    332.61433     59211650            0     59212945    12.683316    22.410353    14.188228    19.734021    33.265625    9.5396565    12.612127     22.30075    14.235163 
  334800    130.92711     59211269            0     59211779    12.683297    22.410374    14.188195    19.732133    33.267798    9.5363906    12.612127     22.30075    14.235163 
  335000    152.12752     59211118            0     59211710    12.683303    22.410344    14.188098    19.732739     33.26473    9.5266887    12.612127     22.30075    14.235163 
  335200    301.77572     59211954            0     59213129    12.683305    22.410341    14.187891    19.732913    33.264468    9.5059573    12.612127     22.30075    14.235163 
  335400    171.69241     59210500            0     59211168    12.683315    22.410342    14.188092    19.733982    33.264581    9.5260401    12.612127     22.30075    14.235163 
  335600    246.62712     59211331            0     59212291    12.683341    22.410335    14.188317    19.736592    33.263904    9.5485607    12.612127     22.30075    14.235163 
  335800    179.68354     59210464            0     59211163    12.683313    22.410379    14.188112    19.733742     33.26829    9.5280638    12.612127     22.30075    14.235163 
  336000    166.71477     59210876            0     59211525    12.683327    22.410362     14.18804    19.735125    33.266567    9.5208115    12.612127     22.30075    14.235163 
  336200     275.3604     59211803            0     59212875    12.683327    22.410328    14.188397    19.735178    33.263166    9.5565227    12.612127     22.30075    14.235163 
  336400    111.89277     59210356            0     59210792    12.683307    22.410365    14.188183    19.733164     33.26687    9.5351128    12.612127     22.30075    14.235163 
  336600    141.90809     59211484            0     59212036    12.683305    22.410357    14.188073    19.732991    33.266079    9.5241264    12.612127     22.30075    14.235163 
  336800    137.40055     59210920            0     59211455    12.683329    22.410325    14.188108    19.735306    33.262853    9.5276861    12.612127     22.30075    14.235163 
  337000    171.13218     59210907            0     59211574    12.683314    22.410352    14.188306    19.733806    33.265521    9.5474945    12.612127     22.30075    14.235163 
  337200    210.67386     59210369            0     59211189    12.683315    22.410344      14.1879    19.733995    33.264754    9.5068028    12.612127     22.30075    14.235163 
  337400    339.37603     59211017            0     59212338    12.683345    22.410346     14.18791    19.736964    33.264939     9.507839    12.612127     22.30075    14.235163 
  337600    131.41578     59211154            0     59211665    12.683314    22.410357    14.188083    19.733835    33.266082    9.5251592    12.612127     22.30075    14.235163 
  337800    244.75918     59211196            0     59212149    12.683341     22.41035    14.188358    19.736563     33.26532     9.552646    12.612127     22.30075    14.235163 
  338000      142.585     59211599            0     59212154    12.683312    22.410348    14.188181    19.733694    33.265198    9.5349169    12.612127     22.30075    14.235163 
  338200    91.349935     59210530            0     59210886    12.683341      22.4104    14.188042     19.73652     33.27038    9.5210746    12.612127     22.30075    14.235163 
  338400    87.746922     59211932            0     59212273    12.683315    22.410344    14.188119    19.733927    33.264742    9.5287776    12.612127     22.30075    14.235163 
  338600    170.77859     59211008            0     59211673    12.683334    22.410336    14.187968    19.735852    33.263976     9.513621    12.612127     22.30075    14.235163 
  338800    227.35424     59210578            0     59211463     12.68332    22.410351    14.187866    19.734431    33.265422    9.5034175    12.612127     22.30075    14.235163 
  339000    221.30237     59211047            0     59211909    12.683325    22.410371    14.188052    19.734902    33.267437    9.5220019    12.612127     22.30075    14.235163 
  339200     467.4981     59211116            0     59212936    12.683315    22.410352    14.188244    19.733944    33.265579    9.5412935    12.612127     22.30075    14.235163 
  339400     221.5751     59210027            0     59210890     12.68331    22.410354    14.188141    19.733485    33.265719    9.5309895    12.612127     22.30075    14.235163 
  339600    182.32543     59211505            0     59212215    12.683353    22.410404    14.188271    19.737754    33.270755    9.5439928    12.612127     22.30075    14.235163 
  339800    161.45072     59210847            0     59211476    12.683307     22.41036    14.188283    19.733158    33.266333    9.5451106    12.612127     22.30075    14.235163 
  340000    207.98255     59212345            0     59213155    12.683315    22.410354    14.188295    19.733954    33.265795    9.5463109    12.612127     22.30075    14.235163 
  340200    187.00151     59211442            0     59212170    12.683272    22.410385    14.188303    19.729657    33.268844    9.5471178    12.612127     22.30075    14.235163 
  340400    261.83288     59210586            0     59211606    12.683331    22.410393    14.188034    19.735525    33.269625    9.5202577    12.612127     22.30075    14.235163 
  340600    188.37236     59210639            0     59211372    12.683321     22.41032    14.188132    19.734519    33.262372    9.5300822    12.612127     22.30075    14.235163 
  340800    218.29735     59210729            0     59211579    12.683312    22.410348    14.188258    19.733614    33.265208    9.5426262    12.612127     22.30075    14.235163 
  341000    157.97063     59210647            0     59211262    12.683334    22.410364     14.18805    19.735847    33.266738    9.5218383    12.612127     22.30075    14.235163 
  341200    44.390089     59211484            0     59211657    12.683319    22.410354    14.188205    19.734397    33.265781    9.5373801    12.612127     22.30075    14.235163 
  341400    201.93753     59210735            0     59211521    12.683311    22.410351    14.188227     19.73356    33.265433    9.5395454    12.612127     22.30075    14.235163 
  341600    179.05506     59210624            0     59211321    12.683318    22.410353    14.188217    19.734245    33.265673    9.5385227    12.612127     22.30075    14.235163 
  341800    241.51136     59211915            0     59212855    12.683317     22.41035    14.187952    19.734168    33.265381    9.5120183    12.612127     22.30075    14.235163 
  342000    199.79423     59211001            0     59211779    12.683283    22.410375    14.188027    19.730743     33.26783    9.5195165    12.612127     22.30075    14.235163 
  342200    287.07263     59211045            0     59212162    12.683317     22.41035     14.18798    19.734156    33.265406    9.5148359    12.612127     22.30075    14.235163 
  342400    132.81382     59209909            0     59210426    12.683283    22.410354    14.188019    19.730744      33.2658    9.5187008    12.612127     22.30075    14.235163 
  342600    230.59292     59209784            0     59210682    12.683326    22.410342    14.188151    19.735096    33.264545    9.5319668    12.612127     22.30075    14.235163 
  342800    402.09216     59210058            0     59211624    12.683301    22.410366    14.188136    19.732513    33.266915    9.5304541    12.612127     22.30075    14.235163 
  343000    274.66233     59210433            0     59211502    12.683316    22.410353    14.188261    19.734004    33.265685    9.5429621    12.612127     22.30075    14.235163 
  343200    140.20988     59211664            0     59212209    12.683302    22.410383    14.187908    19.732647    33.268621    9.5076413    12.612127     22.30075    14.235163 
  343400    118.29824     59211797            0     59212257     12.68333     22.41036    14.188223    19.735423     33.26634     9.539168    12.612127     22.30075    14.235163 
  343600    353.56332     59210536            0     59211912    12.683293    22.410346    14.188241    19.731783    33.264948    9.5409434    12.612127     22.30075    14.235163 
  343800    274.04526     59211070            0     59212137    12.683334    22.410343    14.188247    19.735799    33.264628    9.5415319    12.612127     22.30075    14.235163 
  344000    283.49891     59210767            0     59211870    12.683318     22.41035    14.188216    19.734215    33.265368    9.5384097    12.612127     22.30075    14.235163 
  344200    180.19317     59211064            0     59211765    12.683284    22.410362    14.188207    19.730815    33.266587    9.5375473    12.612127     22.30075    14.235163 
  344400    177.77049     59210436            0     59211128    12.683321    22.410323    14.188308    19.734588    33.262646    9.5476599    12.612127     22.30075    14.235163 
  344600    121.34169     59211420            0     59211893    12.683323    22.410337     14.18812    19.734756    33.264038    9.5288014    12.612127     22.30075    14.235163 
  344800    301.30735     59210664            0     59211836    12.683295    22.410338    14.188201     19.73191    33.264181    9.5369631    12.612127     22.30075    14.235163 
  345000    249.67046     59211695            0     59212667    12.683303     22.41034    14.188193    19.732709    33.264344     9.536139    12.612127     22.30075    14.235163 
  345200    182.32575     59210644            0     59211354    12.683343    22.410348    14.187948    19.736761    33.265135    9.5115999    12.612127     22.30075    14.235163 
  345400    217.77858     59211060            0     59211907    12.683297     22.41035    14.188086    19.732106    33.265389    9.5254529    12.612127     22.30075    14.235163 
  345600    174.77764     59211630            0     59212310    12.683307     22.41034    14.188075    19.733164    33.264322    9.5243288    12.612127     22.30075    14.235163 
  345800    158.93524     59210752            0     59211371    12.683306    22.410356    14.188313    19.733025    33.265909    9.5481737    12.612127     22.30075    14.235163 
  346000    389.66491     59210247            0     59211764     12.68331    22.410364    14.188126    19.733489     33.26679    9.5294925    12.612127     22.30075    14.235163 
  346200     175.9605     59211850            0     59212535    12.683315    22.410344    14.188291    19.733921    33.264765    9.5459317    12.612127     22.30075    14.235163 
  346400    292.39657     59212228            0     59213366    12.683325    22.410359    14.188021      19.7349    33.266298    9.5189279    12.612127     22.30075    14.235163 
  346600    157.04841     59210772            0     59211383    12.683337    22.410371    14.188295    19.736184    33.267444    9.5463759    12.612127     22.30075    14.235163 
  346800    310.18146     59210833            0     59212040    12.683296    22.410357    14.188301    19.732048    33.266091    9.5469377    12.612127     22.30075    14.235163 
  347000    159.43664     59211931            0     59212552    12.683336    22.410352    14.188277    19.736008    33.265598    9.5445723    12.612127     22.30075    14.235163 
  347200    174.07149     59212613            0     59213291    12.683318    22.410348     14.18827    19.734261    33.265196    9.5438731    12.612127     22.30075    14.235163 
  347400    421.85788     59210280            0     59211922    12.683316    22.410352     14.18818    19.734055    33.265604    9.5348682    12.612127     22.30075    14.235163 
  347600      292.586     59210827            0     59211966    12.683327    22.410353    14.188045    19.735184     33.26561    9.5213123    12.612127     22.30075    14.235163 
  347800    250.50117     59210639            0     59211614    12.683302    22.410332     14.18809    19.732667     33.26356     9.525885    12.612127     22.30075    14.235163 
  348000     224.3052     59211203            0     59212077    12.683317    22.410354    14.188105    19.734145    33.265743    9.5273667    12.612127     22.30075    14.235163 
  348200    274.02342     59211090            0     59212156    12.683327    22.410379    14.188224    19.735191    33.268265    9.5392219    12.612127     22.30075    14.235163 
  348400    80.803458     59210407            0     59210722    12.683333    22.410379    14.187918    19.735703    33.268301    9.5086311    12.612127     22.30075    14.235163 
  348600    216.68944     59210814            0     59211658    12.683336    22.410372    14.188088    19.736004    33.267573    9.5256739    12.612127     22.30075    14.235163 
  348800    354.96436     59211324            0     59212706    12.683329    22.410355     14.18807    19.735334    33.265814    9.5238402    12.612127     22.30075    14.235163 
  349000     96.51419     59210626            0     59211002    12.683318    22.410398    14.188121    19.734232    33.270148    9.5289356    12.612127     22.30075    14.235163 
  349200    348.95743     59210996            0     59212354    12.683314    22.410356    14.188293    19.733865    33.265974    9.5461298    12.612127     22.30075    14.235163 
  349400    224.65221     59210637            0     59211512    12.683299    22.410357    14.187923     19.73239    33.266073    9.5091262    12.612127     22.30075    14.235163 
  349600    116.27328     59210062            0     59210515    12.683306    22.410356    14.188158    19.733071    33.265938    9.5326172    12.612127     22.30075    14.235163 
  349800    247.24778     59212316            0     59213278    12.683311     22.41033    14.187944    19.733504    33.263376    9.5112091    12.612127     22.30075    14.235163 
  350000    174.69012     59211503            0     59212183    12.683316    22.410355    14.188188    19.734003    33.265814    9.5356125    12.612127     22.30075    14.235163 
  350200    153.46946     59210994            0     59211591    12.683313    22.410355    14.187962    19.733773    33.265855    9.5130657    12.612127     22.30075    14.235163 
  350400    315.18809     59211578            0     59212805    12.683329    22.410327    14.188329    19.735334    33.263079    9.5497108    12.612127     22.30075    14.235163 
  350600    334.85515     59211190            0     59212493    12.683316    22.410353     14.18815    19.734018    33.265688    9.5318478    12.612127     22.30075    14.235163 
  350800    239.96664     59211525            0     59212460    12.683327    22.410346    14.188152    19.735099    33.264931    9.5320274    12.612127     22.30075    14.235163 
  351000     169.8209     59210252            0     59210913    12.683328     22.41034     14.18807    19.735243    33.264339    9.5238094    12.612127     22.30075    14.235163 
  351200    323.24199     59210970            0     59212228     12.68331    22.410355    14.188151    19.733444    33.265843    9.5319907    12.612127     22.30075    14.235163 
  351400     216.1858     59210870            0     59211712    12.683315    22.410307     14.18808    19.733956    33.261087    9.5248366    12.612127     22.30075    14.235163 
  351600    114.67833     59211554            0     59212000    12.683284    22.410355    14.187951    19.730819    33.265904    9.5119065    12.612127     22.30075    14.235163 
  351800     219.1793     59210934            0     59211787    12.683316    22.410353    14.187923    19.734031    33.265612    9.5091452    12.612127     22.30075    14.235163 
  352000    369.63132     59211470            0     59212909    12.683311    22.410389    14.188263    19.733571    33.269224    9.5431804    12.612127     22.30075    14.235163 
  352200    142.11222     59211137            0     59211690    12.683333    22.410344    14.188101    19.735764    33.264776    9.5269754    12.612127     22.30075    14.235163 
  352400    167.70812     59211689            0     59212342    12.683338    22.410391    14.188086    19.736218     33.26942    9.5253992    12.612127     22.30075    14.235163 
  352600    333.50297     59210940            0     59212238    12.683324    22.410403    14.188192    19.734835    33.270624    9.5360196    12.612127     22.30075    14.235163 
  352800    337.73956     59210746            0     59212060    12.683332     22.41037    14.188208    19.735694    33.267358    9.5376879    12.612127     22.30075    14.235163 
  353000    259.88976     59211155            0     59212167    12.683306    22.410356    14.188092    19.733051    33.265939    9.5260881    12.612127     22.30075    14.235163 
  353200     407.6497     59210926            0     59212513    12.683316    22.410353     14.18817    19.734014    33.265685    9.5338137    12.612127     22.30075    14.235163 
  353400    227.24263     59211406            0     59212290    12.683294    22.410351    14.188308    19.731805    33.265414    9.5476783    12.612127     22.30075    14.235163 
  353600    201.52409     59212201            0     59212986    12.683317    22.410356    14.188193    19.734129    33.265945    9.5361913    12.612127     22.30075    14.235163 
  353800    170.66405     59212139            0     59212803     12.68331    22.410365    14.188352    19.733471     33.26681    9.5520425    12.612127     22.30075    14.235163 
  354000    161.77855     59210709            0     59211338    12.683316    22.410352    14.188133     19.73404    33.265584    9.5301802    12.612127     22.30075    14.235163 
  354200    238.29986     59211516            0     59212444    12.683332    22.410374    14.188318    19.735679    33.267741    9.5486957    12.612127     22.30075    14.235163 
  354400    305.82348     59210668            0     59211859    12.683293    22.410349    14.188211    19.731704    33.265232    9.5379534    12.612127     22.30075    14.235163 
  354600    205.02105     59210089            0     59210887    12.683315    22.410353    14.188127    19.733938    33.265665    9.5295681    12.612127     22.30075    14.235163 
  354800    181.41243     59210319            0     59211025    12.683334    22.410381    14.188115    19.735824    33.268452    9.5283377    12.612127     22.30075    14.235163 
  355000    184.62851     59211918            0     59212636    12.683347    22.410337    14.188287    19.737197    33.264101    9.5455739    12.612127     22.30075    14.235163 
  355200    112.85036     59211989            0     59212429    12.683318    22.410376    14.188238    19.734234    33.267968    9.5406654    12.612127     22.30075    14.235163 
  355400    341.29606     59211510            0     59212838    12.683312    22.410348    14.188066    19.733682     33.26517    9.5234053    12.612127     22.30075    14.235163 
  355600    212.40303     59211153            0     59211980    12.683297     22.41039    14.188021    19.732195    33.269319    9.5189482    12.612127     22.30075    14.235163 
  355800     160.4355     59211902            0     59212527    12.683316    22.410352    14.188106    19.734076    33.265566    9.5274326    12.612127     22.30075    14.235163 
  356000    148.52152     59210817            0     59211395    12.683308    22.410339    14.188236    19.733291    33.264214    9.5404927    12.612127     22.30075    14.235163 
  356200    238.81585     59210907            0     59211837    12.683338    22.410363    14.188232    19.736293    33.266638    9.5400284    12.612127     22.30075    14.235163 
  356400    286.69702     59210929            0     59212045    12.683317    22.410355    14.187987    19.734189    33.265872    9.5155191    12.612127     22.30075    14.235163 
  356600    195.62304     59210185            0     59210946    12.683318    22.410353    14.188201    19.734244    33.265661    9.5369449    12.612127     22.30075    14.235163 
  356800    257.69845     59210514            0     59211517    12.683314    22.410355    14.188129     19.73384    33.265889    9.5297888    12.612127     22.30075    14.235163 
  357000     245.1567     59211498            0     59212452    12.683319    22.410376    14.188129     19.73436    33.267914    9.5297192    12.612127     22.30075    14.235163 
  357200    231.32272     59210849            0     59211750    12.683343    22.410324    14.187993    19.736759    33.262766    9.5161821    12.612127     22.30075    14.235163 
  357400     83.85979     59212801            0     59213128    12.683301    22.410385    14.188081    19.732536    33.268869    9.5249458    12.612127     22.30075    14.235163 
  357600    258.66924     59211582            0     59212589    12.683332     22.41032    14.188317    19.735619    33.262365    9.5485198    12.612127     22.30075    14.235163 
  357800    229.89278     59210209            0     59211104    12.683334    22.410345    14.188033    19.735881    33.264819    9.5201801    12.612127     22.30075    14.235163 
  358000    150.39029     59211922            0     59212508    12.683311    22.410332    14.188163    19.733567    33.263566    9.5331173    12.612127     22.30075    14.235163 
  358200    241.84498     59210844            0     59211786    12.683312    22.410314    14.188043    19.733666    33.261789    9.5211491    12.612127     22.30075    14.235163 
  358400    217.16693     59211056            0     59211902    12.683307    22.410372    14.188191    19.733102    33.267582    9.5359253    12.612127     22.30075    14.235163 
  358600    300.56381     59211428            0     59212598    12.683284     22.41035    14.188035     19.73086    33.265399    9.5203864    12.612127     22.30075    14.235163 
  358800    164.19645     59210829            0     59211468    12.683313    22.410333     14.18815    19.733775    33.263647    9.5318264    12.612127     22.30075    14.235163 
  359000    248.87599     59211471            0     59212440    12.683317     22.41035    14.187999    19.734195    33.265367     9.516772    12.612127     22.30075    14.235163 
  359200    158.41902     59209967            0     59210584     12.68331    22.410357    14.188126    19.733418    33.266046    9.5294738    12.612127     22.30075    14.235163 
  359400    298.63535     59211683            0     59212846    12.683301    22.410361    14.188148    19.732535      33.2665    9.5316386    12.612127     22.30075    14.235163 
  359600    226.02195     59210298            0     59211178    12.683296    22.410349    14.188183    19.732056    33.265216    9.5351592    12.612127     22.30075    14.235163 
  359800    87.850987     59211090            0     59211432    12.683305    22.410377    14.187735    19.732902    33.268024    9.4902886    12.612127     22.30075    14.235163 
  360000    252.27849     59211672            0     59212654     12.68334    22.410334      14.1881    19.736467    33.263791    9.5268334    12.612127     22.30075    14.235163 
  360200    226.33387     59211120            0     59212001     12.68333    22.410326    14.188163    19.735404    33.262938    9.5331175    12.612127     22.30075    14.235163 
  360400    112.01067     59211389            0     59211825    12.683317    22.410351    14.188162    19.734156    33.265487    9.5330296    12.612127     22.30075    14.235163 
  360600    544.43235     59210873            0     59212993    12.683323    22.410337    14.188297    19.734704    33.264062    9.5465569    12.612127     22.30075    14.235163 
  360800    242.36708     59211470            0     59212413    12.683306    22.410344    14.188054    19.733003    33.264765     9.522194    12.612127     22.30075    14.235163 
  361000    184.07519     59211349            0     59212066    12.683338    22.410351    14.188189    19.736291    33.265468    9.5357695    12.612127     22.30075    14.235163 
  361200    145.77737     59210418            0     59210985    12.683318    22.410367    14.188053    19.734215    33.267086    9.5221069    12.612127     22.30075    14.235163 
  361400    334.11764     59210643            0     59211944    12.683316    22.410353    14.187986    19.734025     33.26567    9.5154741    12.612127     22.30075    14.235163 
  361600    197.78974     59209778            0     59210548    12.683316    22.410353    14.188006    19.734013    33.265686    9.5174242    12.612127     22.30075    14.235163 
  361800    91.021524     59211801            0     59212155    12.683304    22.410377     14.18807    19.732825    33.268056     9.523793    12.612127     22.30075    14.235163 
  362000     252.5234     59210512            0     59211495    12.683322    22.410352    14.188176    19.734645    33.265546    9.5344139    12.612127     22.30075    14.235163 
  362200    300.72869     59210886            0     59212057    12.683304    22.410351    14.188281    19.732889    33.265459    9.5449974    12.612127     22.30075    14.235163 
  362400    388.98654     59211161            0     59212675    12.683316    22.410354    14.188088    19.734083    33.265774      9.52568    12.612127     22.30075    14.235163 
  362600    267.76408     59211483            0     59212525    12.683316    22.410353    14.188311    19.734088    33.265702    9.5479339    12.612127     22.30075    14.235163 
  362800    292.20407     59211554            0     59212692    12.683326    22.410367    14.188197    19.735082    33.267104    9.5365187    12.612127     22.30075    14.235163 
  363000    119.78534     59211037            0     59211504    12.683316    22.410353    14.188178    19.734034    33.265685    9.5346479    12.612127     22.30075    14.235163 
  363200    418.77414     59209969            0     59211599    12.683321    22.410333    14.188197    19.734525    33.263665    9.5364983    12.612127     22.30075    14.235163 
  363400    84.396214     59211071            0     59211399    12.683282    22.410363    14.187886    19.730611    33.266652    9.5053857    12.612127     22.30075    14.235163 
  363600    404.35203     59210841            0     59212416    12.683314     22.41035    14.188202    19.733842    33.265377    9.5370397    12.612127     22.30075    14.235163 
  363800    226.09298     59210244            0     59211124    12.683314    22.410368    14.188073    19.733823    33.267132     9.524111    12.612127     22.30075    14.235163 
  364000    236.31131     59211779            0     59212699    12.683297    22.410326    14.188014    19.732169    33.262994    9.5182836    12.612127     22.30075    14.235163 
  364200    349.23361     59211712            0     59213071    12.683316    22.410353    14.188308    19.734013    33.265687    9.5476483    12.612127     22.30075    14.235163 
  364400    219.23612     59210728            0     59211581    12.683307    22.410356    14.187899    19.733197    33.265953    9.5067238    12.612127     22.30075    14.235163 
  364600    233.42883     59210572            0     59211481     12.68335    22.410358    14.188094    19.737403    33.266207    9.5262803    12.612127     22.30075    14.235163 
  364800    258.02584     59211012            0     59212016    12.683315    22.410354    14.188309    19.733984    33.265719    9.5477474    12.612127     22.30075    14.235163 
  365000    273.09765     59209806            0     59210869    12.683316    22.410353    14.188064    19.734013    33.265686    9.5232863    12.612127     22.30075    14.235163 
  365200    295.63083     59210958            0     59212108     12.68332    22.410356    14.188273     19.73447    33.265947    9.5441279    12.612127     22.30075    14.235163 
  365400    175.47834     59210202            0     59210885    12.683339    22.410352    14.188243    19.736335    33.265537    9.5411472    12.612127     22.30075    14.235163 
  365600    167.90194     59210601            0     59211254    12.683352    22.410351    14.188215    19.737623    33.265417    9.5383083    12.612127     22.30075    14.235163 
  365800     300.4297     59210082            0     59211252    12.683326    22.410353    14.188225    19.735052    33.265634    9.5393513    12.612127     22.30075    14.235163 
  366000    361.33276     59211709            0     59213115    12.683318     22.41035    14.188226    19.734235    33.265329    9.5394654    12.612127     22.30075    14.235163 
  366200    157.30465     59211047            0     59211659    12.683304    22.410354    14.187946    19.732839    33.265746    9.5114686    12.612127     22.30075    14.235163 
  366400    147.99652     59210579            0     59211155     12.68334    22.410315    14.188218    19.736485    33.261845     9.538653    12.612127     22.30075    14.235163 
  366600    345.55189     59210475            0     59211820    12.683304    22.410344    14.188137    19.732819    33.264792    9.5305519    12.612127     22.30075    14.235163 
  366800    189.20215     59210825            0     59211561    12.683328    22.410337    14.188044     19.73528    33.264056    9.5212299    12.612127     22.30075    14.235163 
  367000    307.40759     59211571            0     59212768    12.683322    22.410337    14.187938    19.734651    33.264009    9.5106555    12.612127     22.30075    14.235163 
  367200    222.65139     59210895            0     59211762    12.683302    22.410344    14.188098    19.732614    33.264784     9.526611    12.612127     22.30075    14.235163 
  367400    270.46405     59211009            0     59212062    12.683301     22.41033     14.18796      19.7325    33.263359    9.5128319    12.612127     22.30075    14.235163 
  367600    293.16743     59211099            0     59212240    12.683294    22.410337    14.188085    19.731826    33.264035    9.5253421    12.612127     22.30075    14.235163 
  367800    129.75002     59210301            0     59210807    12.683323    22.410343    14.188215    19.734714    33.264638    9.5383454    12.612127     22.30075    14.235163 
  368000    191.92331     59210456            0     59211203    12.683316    22.410353    14.188207    19.734012    33.265682    9.5375576    12.612127     22.30075    14.235163 
  368200    228.70633     59211397            0     59212288    12.683316     22.41036     14.18812       19.734    33.266357    9.5288163    12.612127     22.30075    14.235163 
  368400    227.89667     59211513            0     59212400     12.68332    22.410343    14.188092     19.73446    33.264682    9.5260866    12.612127     22.30075    14.235163 
  368600    273.23082     59210855            0     59211918    12.683304    22.410332    14.188259    19.732828    33.263599    9.5427444    12.612127     22.30075    14.235163 
  368800    190.35622     59211153            0     59211894    12.683339    22.410366    14.188093     19.73634    33.266927    9.5261923    12.612127     22.30075    14.235163 
  369000    198.20144     59211541            0     59212313    12.683294    22.410357    14.188158    19.731854    33.266066    9.5326313    12.612127     22.30075    14.235163 
  369200    173.95005     59212611            0     59213288    12.683316    22.410353    14.188157       19.734    33.265685     9.532571    12.612127     22.30075    14.235163 
  369400    368.87277     59210986            0     59212422    12.683316    22.410353    14.188328    19.734026    33.265686    9.5496366    12.612127     22.30075    14.235163 
  369600    208.39464     59210767            0     59211579     12.68329    22.410382    14.188225    19.731496    33.268511    9.5393083    12.612127     22.30075    14.235163 
  369800    218.67182     59210864            0     59211715    12.683259    22.410367    14.187965     19.72835    33.267039    9.5133352    12.612127     22.30075    14.235163 
  370000    361.52858     59211006            0     59212414    12.683332    22.410367    14.188085    19.735605    33.267076    9.5253591    12.612127     22.30075    14.235163 
  370200    331.05136     59210741            0     59212030    12.683327    22.410353    14.188084    19.735102    33.265625    9.5252659    12.612127     22.30075    14.235163 
  370400    212.37698     59210654            0     59211481    12.683317    22.410356    14.188205     19.73418    33.265937    9.5373109    12.612127     22.30075    14.235163 
  370600    273.57767     59211055            0     59212120    12.683291    22.410348    14.188218     19.73152    33.265112    9.5386611    12.612127     22.30075    14.235163 
  370800    278.17985     59210907            0     59211990    12.683316    22.410329    14.187995    19.734023    33.263261     9.516291    12.612127     22.30075    14.235163 
  371000    242.50727     59210426            0     59211370    12.683315    22.410346    14.188051    19.733941    33.264998    9.5219894    12.612127     22.30075    14.235163 
  371200    142.26078     59210730            0     59211284    12.683327    22.410353    14.188068    19.735155    33.265634    9.5235946    12.612127     22.30075    14.235163 
  371400    194.87276     59211857            0     59212615    12.683316    22.410353    14.187881    19.734015    33.265687    9.5049425    12.612127     22.30075    14.235163 
  371600    195.99707     59211467            0     59212230    12.683329    22.410328    14.187899    19.735303    33.263136    9.5067577    12.612127     22.30075    14.235163 
  371800    163.10432     59211110            0     59211745    12.683313    22.410358    14.188337    19.733792    33.266128    9.5505838    12.612127     22.30075    14.235163 
  372000    259.71549     59210220            0     59211231    12.683314    22.410372    14.188188    19.733806    33.267514    9.5356283    12.612127     22.30075    14.235163 
  372200    350.44831     59211043            0     59212407    12.683309    22.410342    14.188039     19.73338    33.264585    9.5207213    12.612127     22.30075    14.235163 
  372400    302.13738     59210997            0     59212174    12.683331    22.410349    14.188122    19.735514    33.265239    9.5290261    12.612127     22.30075    14.235163 
  372600    289.52824     59210615            0     59211743    12.683314    22.410352    14.188293    19.733847    33.265512    9.5461505    12.612127     22.30075    14.235163 
  372800    154.45168     59210866            0     59211468    12.683351    22.410351    14.188077    19.737505    33.265475    9.5245817    12.612127     22.30075    14.235163 
  373000     125.6381     59212383            0     59212872    12.683317    22.410356    14.187889    19.734184    33.265953    9.5057207    12.612127     22.30075    14.235163 
  373200     353.9038     59211232            0     59212610    12.683316    22.410353    14.188343    19.734013    33.265686    9.5511656    12.612127     22.30075    14.235163 
  373400    200.39085     59212172            0     59212952    12.683316    22.410353    14.188175     19.73402    33.265676     9.534315    12.612127     22.30075    14.235163 
  373600    192.73995     59211589            0     59212340    12.683335     22.41035     14.18795    19.735922    33.265361    9.5118536    12.612127     22.30075    14.235163 
  373800    163.71149     59210454            0     59211091    12.683311    22.410346     14.18813    19.733571    33.264936     9.529872    12.612127     22.30075    14.235163 
  374000    123.72654     59211371            0     59211853    12.683287    22.410365    14.188059    19.731177    33.266849    9.5227898    12.612127     22.30075    14.235163 
  374200    113.29665     59210924            0     59211365    12.683331    22.410333     14.18808    19.735553    33.263625    9.5248656    12.612127     22.30075    14.235163 
  374400    120.07947     59210856            0     59211323     12.68331    22.410342    14.188118    19.733419    33.264541    9.5286287    12.612127     22.30075    14.235163 
  374600    279.33193     59211102            0     59212189    12.683316    22.410354    14.188174    19.734056    33.265774    9.5342317    12.612127     22.30075    14.235163 
  374800    157.95527     59210272            0     59210887    12.683316    22.410353    14.188106    19.734016    33.265688    9.5274385    12.612127     22.30075    14.235163 
  375000     110.3151     59211059            0     59211488    12.683328    22.410374    14.188031    19.735216    33.267784    9.5199557    12.612127     22.30075    14.235163 
  375200    304.40608     59211017            0     59212202    12.683316    22.410353    14.188265    19.734022    33.265669    9.5433302    12.612127     22.30075    14.235163 
  375400    215.11576     59212014            0     59212852    12.683298    22.410359    14.188106    19.732239    33.266248    9.5274083    12.612127     22.30075    14.235163 
  375600     289.6364     59212862            0     59213989    12.683315    22.410349    14.188279    19.733903    33.265305    9.5447174    12.612127     22.30075    14.235163 
  375800    135.30079     59210702            0     59211228    12.683323    22.410353    14.188159    19.734733    33.265646     9.532789    12.612127     22.30075    14.235163 
  376000    139.72647     59211018            0     59211562    12.683341    22.410351     14.18825      19.7365    33.265455     9.541871    12.612127     22.30075    14.235163 
  376200    208.12098     59210472            0     59211282    12.683271     22.41035    14.188296    19.729548    33.265377    9.5464344    12.612127     22.30075    14.235163 
  376400    266.01722     59212951            0     59213986    12.683316    22.410353    14.188078    19.734013    33.265686    9.5246114    12.612127     22.30075    14.235163 
  376600    128.25442     59211369            0     59211868    12.683288    22.410364    14.188209    19.731281    33.266803    9.5377302    12.612127     22.30075    14.235163 
  376800    228.98062     59211277            0     59212168    12.683305    22.410331    14.187825    19.732935    33.263477    9.4993569    12.612127     22.30075    14.235163 
  377000    229.43637     59210461            0     59211354    12.683284    22.410323    14.188197     19.73088    33.262648    9.5365578    12.612127     22.30075    14.235163 
  377200    243.83988     59212275            0     59213224    12.683316    22.410343    14.188357    19.734055    33.264609    9.5525532    12.612127     22.30075    14.235163 
  377400    46.481256     59210549            0     59210730    12.683317    22.410351     14.18813    19.734118    33.265477    9.5298237    12.612127     22.30075    14.235163 
  377600    206.45949     59210687            0     59211490      12.6833     22.41037      14.1881    19.732422    33.267359    9.5268577    12.612127     22.30075    14.235163 
  377800    190.47403     59212137            0     59212879    12.683322    22.410364    14.187895    19.734626    33.266759    9.5063267    12.612127     22.30075    14.235163 
  378000    218.72359     59210719            0     59211571    12.683316    22.410353    14.188281    19.734013    33.265686    9.5449178    12.612127     22.30075    14.235163 
  378200    191.59128     59212285            0     59213031    12.683323    22.410359    14.187847    19.734737    33.266276    9.5015259    12.612127     22.30075    14.235163 
  378400    373.65685     59210405            0     59211860    12.683312    22.410351    14.188175    19.733642    33.265436    9.5343438    12.612127     22.30075    14.235163 
  378600    167.87414     59210364            0     59211017    12.683316    22.410353    14.188204     19.73406    33.265683    9.5372449    12.612127     22.30075    14.235163 
  378800     138.6658     59211623            0     59212163     12.68336    22.410351    14.188077    19.738402    33.265442    9.5245344    12.612127     22.30075    14.235163 
  379000    209.48188     59210730            0     59211546    12.683336    22.410366    14.188042    19.736085    33.266937    9.5210677    12.612127     22.30075    14.235163 
  379200     201.8289     59210662            0     59211448    12.683332    22.410331    14.188009    19.735681    33.263478    9.5176902    12.612127     22.30075    14.235163 
  379400    238.29694     59210433            0     59211361    12.683311    22.410367    14.188174    19.733553    33.267025    9.5342851    12.612127     22.30075    14.235163 
  379600    118.37083     59210972            0     59211432    12.683333    22.410358     14.18807    19.735757    33.266147    9.5238643    12.612127     22.30075    14.235163 
  379800    182.70016     59211213            0     59211924    12.683305    22.410374    14.188206    19.732959    33.267769     9.537459    12.612127     22.30075    14.235163 
  380000    345.37848     59211360            0     59212705     12.68333     22.41033    14.188095    19.735458    33.263407      9.52637    12.612127     22.30075    14.235163 
  380200    244.20737     59210273            0     59211224    12.683282    22.410329    14.188072    19.730603    33.263296    9.5240469    12.612127     22.30075    14.235163 
  380400    209.66887     59211920            0     59212736     12.68331    22.410369    14.188387    19.733421    33.267272    9.5555794    12.612127     22.30075    14.235163 
  380600    137.62011     59211845            0     59212381    12.683291    22.410308    14.188189    19.731511    33.261196    9.5357211    12.612127     22.30075    14.235163 
  380800    211.56695     59211041            0     59211865    12.683344    22.410409     14.18812    19.736869    33.271284    9.5288604    12.612127     22.30075    14.235163 
  381000    75.205219     59211906            0     59212199    12.683319    22.410358    14.187995     19.73436    33.266205     9.516357    12.612127     22.30075    14.235163 
  381200    433.19512     59210582            0     59212268    12.683323    22.410353    14.187997    19.734707    33.265663    9.5165223    12.612127     22.30075    14.235163 
  381400    223.16062     59211774            0     59212643    12.683327     22.41036    14.188273    19.735163    33.266389    9.5441877    12.612127     22.30075    14.235163 
  381600    242.10617     59211069            0     59212012    12.683305    22.410354    14.188253    19.732949    33.265748    9.5421009    12.612127     22.30075    14.235163 
  381800    200.92105     59211515            0     59212297    12.683306    22.410372    14.188264    19.733022    33.267584    9.5432824    12.612127     22.30075    14.235163 
  382000    268.29218     59211399            0     59212443    12.683316    22.410353    14.188229    19.734013    33.265689    9.5397876    12.612127     22.30075    14.235163 
  382200    127.57088     59212182            0     59212679    12.683319    22.410359     14.18769    19.734313     33.26621    9.4858294    12.612127     22.30075    14.235163 
  382400     305.0085     59210176            0     59211364    12.683316    22.410352    14.188241    19.734028    33.265579    9.5409646    12.612127     22.30075    14.235163 
  382600     221.2834     59210583            0     59211444    12.683317    22.410353    14.188106    19.734148     33.26568    9.5273964    12.612127     22.30075    14.235163 
  382800     428.2143     59211405            0     59213072    12.683353    22.410351    14.188141    19.737751     33.26548    9.5309102    12.612127     22.30075    14.235163 
  383000    192.65585     59211211            0     59211961    12.683334    22.410351    14.188184    19.735857    33.265434     9.535271    12.612127     22.30075    14.235163 
  383200    145.08037     59211714            0     59212279    12.683308    22.410369    14.188091    19.733222    33.267253     9.525903    12.612127     22.30075    14.235163 
  383400    171.69498     59211092            0     59211761    12.683297    22.410382    14.188154    19.732158    33.268593    9.5322924    12.612127     22.30075    14.235163 
  383600    287.33476     59210529            0     59211648    12.683336    22.410356    14.187995    19.736047    33.265933    9.5162938    12.612127     22.30075    14.235163 
  383800    153.24417     59211826            0     59212422    12.683354     22.41033     14.18821    19.737804    33.263405    9.5378807    12.612127     22.30075    14.235163 
  384000    177.16794     59209767            0     59210457    12.683326    22.410344    14.188039    19.735043    33.264733    9.5207289    12.612127     22.30075    14.235163 
  384200    141.77342     59210795            0     59211347    12.683322    22.410337     14.18828    19.734612    33.264105    9.5448163    12.612127     22.30075    14.235163 
  384400    152.60105     59211465            0     59212059    12.683292    22.410367    14.188153    19.731691    33.267093    9.5321683    12.612127     22.30075    14.235163 
  384600    100.92476     59210955            0     59211347    12.683327    22.410371    14.188159    19.735117    33.267414     9.532737    12.612127     22.30075    14.235163 
  384800    126.36551     59211893            0     59212385    12.683349    22.410339    14.188039    19.737397    33.264244    9.5207339    12.612127     22.30075    14.235163 
  385000    188.29024     59210284            0     59211017    12.683315    22.410354    14.187881    19.733961    33.265722     9.504913    12.612127     22.30075    14.235163 
  385200    115.48734     59210551            0     59211001    12.683299    22.410384    14.188128    19.732363    33.268786    9.5296616    12.612127     22.30075    14.235163 
  385400    179.07169     59210632            0     59211329    12.683322    22.410345    14.188005    19.734632    33.264839    9.5172924    12.612127     22.30075    14.235163 
  385600    250.25019     59209644            0     59210619    12.683317    22.410355    14.188168    19.734181    33.265904    9.5336278    12.612127     22.30075    14.235163 
  385800    183.79166     59210179            0     59210894    12.683294    22.410381      14.1883    19.731811    33.268435     9.546861    12.612127     22.30075    14.235163 
  386000    209.44784     59211280            0     59212096    12.683334    22.410357    14.188072    19.735885    33.266009    9.5240173    12.612127     22.30075    14.235163 
  386200     175.0844     59211013            0     59211694    12.683317    22.410352    14.188296    19.734142    33.265576    9.5464991    12.612127     22.30075    14.235163 
  386400    271.59914     59210741            0     59211798    12.683301    22.410366    14.187952    19.732516    33.266922    9.5120639    12.612127     22.30075    14.235163 
  386600    141.41836     59211457            0     59212007    12.683316    22.410353      14.1879    19.734014    33.265685    9.5067905    12.612127     22.30075    14.235163 
  386800    163.27072     59211340            0     59211975    12.683339    22.410379    14.188024    19.736351    33.268234    9.5192704    12.612127     22.30075    14.235163 
  387000    120.47427     59211653            0     59212122    12.683315    22.410355    14.187857    19.733939    33.265809    9.5024998    12.612127     22.30075    14.235163 
  387200    226.93108     59211460            0     59212343    12.683331    22.410323    14.188111    19.735549    33.262645    9.5279587    12.612127     22.30075    14.235163 
  387400    95.540688     59211130            0     59211502    12.683306    22.410374    14.188177    19.733003    33.267769    9.5345001    12.612127     22.30075    14.235163 
  387600    293.67085     59211491            0     59212635    12.683343    22.410346     14.18835    19.736788    33.264987    9.5518757    12.612127     22.30075    14.235163 
  387800    216.29598     59210548            0     59211390    12.683313    22.410361    14.188276    19.733699    33.266451    9.5444251    12.612127     22.30075    14.235163 
  388000     221.6936     59211550            0     59212413    12.683309    22.410354    14.188164    19.733355    33.265722    9.5332651    12.612127     22.30075    14.235163 
  388200    113.49177     59211503            0     59211945    12.683315    22.410328    14.188167    19.733971    33.263196    9.5335758    12.612127     22.30075    14.235163 
  388400    228.21861     59211678            0     59212567    12.683338    22.410346    14.188154     19.73622    33.264995    9.5322017    12.612127     22.30075    14.235163 
  388600    229.03204     59210303            0     59211195     12.68334    22.410344    14.188201    19.736428     33.26472    9.5369524    12.612127     22.30075    14.235163 
  388800    316.57296     59211140            0     59212373    12.683322    22.410363    14.188042    19.734673    33.266695    9.5209927    12.612127     22.30075    14.235163 
  389000    125.96962     59210694            0     59211185    12.683326    22.410353    14.188213    19.735045    33.265613    9.5381246    12.612127     22.30075    14.235163 
  389200    253.87119     59210127            0     59211115    12.683321     22.41037    14.188275    19.734522     33.26735    9.5443694    12.612127     22.30075    14.235163 
  389400    152.44136     59210616            0     59211209    12.683299    22.410378    14.187932    19.732327    33.268196     9.510011    12.612127     22.30075    14.235163 
  389600    186.85441     59210867            0     59211595    12.683319    22.410379    14.188184    19.734318    33.268235    9.5352301    12.612127     22.30075    14.235163 
  389800     332.5031     59211626            0     59212920     12.68329    22.410347    14.188076    19.731492    33.265038    9.5244657    12.612127     22.30075    14.235163 
  390000    132.18999     59211078            0     59211593    12.683316    22.410353    14.188155    19.734036    33.265624    9.5323233    12.612127     22.30075    14.235163 
  390200    227.62846     59211297            0     59212183    12.683289    22.410359    14.187999    19.731355    33.266306    9.5166956    12.612127     22.30075    14.235163 
  390400    254.86117     59210925            0     59211917    12.683302    22.410322    14.188095    19.732654    33.262509    9.5263134    12.612127     22.30075    14.235163 
  390600    104.14458     59211414            0     59211820    12.683273    22.410365    14.188277    19.729713    33.266826    9.5445857    12.612127     22.30075    14.235163 
  390800    210.57435     59210974            0     59211793    12.683313    22.410341    14.188307    19.733724    33.264478    9.5475147    12.612127     22.30075    14.235163 
  391000    228.39768     59210556            0     59211445    12.683307    22.410368    14.188026    19.733111    33.267118    9.5193957    12.612127     22.30075    14.235163 
  391200    223.31159     59211067            0     59211937    12.683326    22.410355     14.18813    19.735043    33.265896    9.5298706    12.612127     22.30075    14.235163 
  391400    288.65549     59212067            0     59213191    12.683284    22.410347    14.188109    19.730818    33.265068    9.5277351    12.612127     22.30075    14.235163 
  391600    144.54046     59211111            0     59211674    12.683319    22.410356    14.187908    19.734334    33.265957    9.5076263    12.612127     22.30075    14.235163 
  391800    305.52732     59211523            0     59212712    12.683306    22.410342     14.18832    19.733018    33.264535    9.5489013    12.612127     22.30075    14.235163 
  392000    228.29526     59210968            0     59211856    12.683309    22.410339    14.188373    19.733327     33.26428    9.5541067    12.612127     22.30075    14.235163 
  392200    153.15196     59211456            0     59212053    12.683275    22.410358    14.188143    19.729907    33.266134    9.5311815    12.612127     22.30075    14.235163 
  392400    110.86325     59210599            0     59211031    12.683297    22.410369     14.18806    19.732134    33.267247    9.5228398    12.612127     22.30075    14.235163 
  392600    311.43721     59210145            0     59211357    12.683308    22.410371    14.188132     19.73325    33.267462    9.5299962    12.612127     22.30075    14.235163 
  392800    249.48552     59212032            0     59213003    12.683321    22.410365    14.187899    19.734559    33.266866    9.5067557    12.612127     22.30075    14.235163 
  393000    193.12999     59211358            0     59212110    12.683283    22.410354    14.187957    19.730753    33.265738    9.5124949    12.612127     22.30075    14.235163 
  393200    174.55697     59210924            0     59211604    12.683316    22.410353     14.18823    19.734013    33.265686    9.5398544    12.612127     22.30075    14.235163 
  393400    209.17855     59210865            0     59211679    12.683302    22.410372    14.188162    19.732664    33.267534    9.5330943    12.612127     22.30075    14.235163 
  393600    232.19566     59210912            0     59211816    12.683303    22.410355    14.188182    19.732776    33.265819    9.5350335    12.612127     22.30075    14.235163 
  393800    290.75558     59211530            0     59212662    12.683279    22.410335     14.18803    19.730371    33.263856    9.5198618    12.612127     22.30075    14.235163 
  394000    290.03133     59210962            0     59212091     12.68329    22.410373     14.18814    19.731487    33.267639    9.5308548    12.612127     22.30075    14.235163 
  394200    267.44498     59211076            0     59212118    12.683303    22.410334    14.187887    19.732758    33.263763    9.5055646    12.612127     22.30075    14.235163 
  394400    234.49364     59210140            0     59211053    12.683324    22.410362    14.188143    19.734878    33.266559    9.5311146    12.612127     22.30075    14.235163 
  394600     207.8199     59210727            0     59211536    12.683315    22.410353     14.18812    19.733974    33.265629    9.5288506    12.612127     22.30075    14.235163 
  394800    223.55427     59211474            0     59212344    12.683271    22.410362    14.187989    19.729532    33.266603    9.5157019    12.612127     22.30075    14.235163 
  395000    410.68038     59211889            0     59213487    12.683316    22.410353    14.188087    19.734021    33.265689    9.5255175    12.612127     22.30075    14.235163 
  395200     172.0792     59211139            0     59211809    12.683321    22.410362    14.188054    19.734546    33.266597    9.5222222    12.612127     22.30075    14.235163 
  395400    246.72274     59211075            0     59212036    12.683285    22.410334    14.188188     19.73098    33.263772    9.5356847    12.612127     22.30075    14.235163 
  395600    279.78801     59211361            0     59212450    12.683313    22.410369    14.187974    19.733746    33.267243    9.5142573    12.612127     22.30075    14.235163 
  395800     235.5959     59210451            0     59211369    12.683338    22.410332    14.188385    19.736229    33.263588    9.5553624    12.612127     22.30075    14.235163 
  396000    222.64931     59211555            0     59212422    12.683317     22.41035    14.188162    19.734162    33.265395    9.5330104    12.612127     22.30075    14.235163 
  396200    211.57981     59210021            0     59210845    12.683309    22.410361    14.188045     19.73336    33.266445    9.5213778    12.612127     22.30075    14.235163 
  396400    274.63528     59210646            0     59211715    12.683305    22.410336    14.187983    19.732974     33.26396    9.5151751    12.612127     22.30075    14.235163 
  396600    109.34871     59210911            0     59211336    12.683296     22.41038    14.188244     19.73209    33.268402    9.5412227    12.612127     22.30075    14.235163 
  396800    258.48362     59211116            0     59212122    12.683306    22.410328    14.188225    19.732999    33.263123    9.5393511    12.612127     22.30075    14.235163 
  397000    243.80496     59210696            0     59211645    12.683313    22.410344    14.187938    19.733742    33.264726    9.5106506    12.612127     22.30075    14.235163 
  397200    297.82706     59210715            0     59211875    12.683325    22.410326    14.188138     19.73492    33.262912    9.5306306    12.612127     22.30075    14.235163 
  397400     189.5565     59209582            0     59210320    12.683335    22.410356    14.188195    19.735899     33.26596    9.5363636    12.612127     22.30075    14.235163 
  397600    221.10321     59210601            0     59211462    12.683316    22.410353    14.188265    19.734005    33.265666    9.5433571    12.612127     22.30075    14.235163 
  397800    157.87586     59212158            0     59212772    12.683306    22.410349    14.188239       19.733    33.265238    9.5407024    12.612127     22.30075    14.235163 
  398000    230.48888     59210412            0     59211309    12.683303    22.410367     14.18808     19.73272    33.267043    9.5248829    12.612127     22.30075    14.235163 
  398200    315.25342     59211560            0     59212787    12.683348    22.410357    14.188549    19.737245    33.266033    9.5717659    12.612127     22.30075    14.235163 
  398400    160.11664     59210874            0     59211497    12.683293    22.410328    14.187968    19.731731     33.26317    9.5136288    12.612127     22.30075    14.235163 
  398600     169.2008     59211046            0     59211705    12.683295    22.410361    14.188285    19.731977     33.26643    9.5453027    12.612127     22.30075    14.235163 
  398800    220.75405     59212212            0     59213072    12.683287     22.41038    14.187966    19.731101    33.268371    9.5134181    12.612127     22.30075    14.235163 
  399000    191.62937     59211376            0     59212122    12.683319    22.410361    14.188325    19.734345    33.266478     9.549332    12.612127     22.30075    14.235163 
  399200    334.49108     59211026            0     59212328    12.683323    22.410339     14.18825    19.734733    33.264272    9.5418981    12.612127     22.30075    14.235163 
  399400    197.42378     59211836            0     59212604     12.68328    22.410351    14.187943    19.730411    33.265484    9.5111853    12.612127     22.30075    14.235163 
  399600    247.81385     59210810            0     59211775    12.683311    22.410331    14.188235    19.733568    33.263465    9.5403911    12.612127     22.30075    14.235163 
  399800    215.22856     59211279            0     59212117     12.68334    22.410345    14.187962    19.736498    33.264884     9.513027    12.612127     22.30075    14.235163 
  400000    277.24579     59210678            0     59211758    12.683316    22.410346    14.188052    19.734016     33.26496    9.5220397    12.612127     22.30075    14.235163 
  400200    246.29573     59211079            0     59212038    12.683315    22.410354    14.188298    19.733959    33.265775    9.5466672    12.612127     22.30075    14.235163 
  400400    229.61368     59210976            0     59211870    12.683325    22.410318    14.188306    19.734977    33.262204    9.5474525    12.612127     22.30075    14.235163 
  400600    283.74494     59211428            0     59212533    12.683308    22.410351    14.187999    19.733276    33.265484    9.5167465    12.612127     22.30075    14.235163 
  400800    408.54706     59210817            0     59212408    12.683327    22.410339    14.187987    19.735103    33.264261    9.5155264    12.612127     22.30075    14.235163 
  401000     322.5037     59210497            0     59211753    12.683304    22.410378    14.188053    19.732816    33.268178    9.5221372    12.612127     22.30075    14.235163 
  401200    443.73038     59210814            0     59212542    12.683316    22.410353    14.188042    19.734029    33.265685    9.5210258    12.612127     22.30075    14.235163 
  401400    266.19853     59210498            0     59211535    12.683315    22.410353    14.188102    19.733996    33.265658    9.5270158    12.612127     22.30075    14.235163 
  401600    142.07856     59209706            0     59210260    12.683302    22.410326    14.188087     19.73263    33.262993     9.525552    12.612127     22.30075    14.235163 
  401800    249.26567     59210662            0     59211632    12.683346    22.410339    14.188011    19.737008    33.264294    9.5179149    12.612127     22.30075    14.235163 
  402000    166.23718     59211619            0     59212266    12.683316    22.410353    14.187944    19.734015    33.265686    9.5112803    12.612127     22.30075    14.235163 
  402200     231.6821     59210310            0     59211212    12.683316    22.410353    14.188002    19.734001    33.265687    9.5169994    12.612127     22.30075    14.235163 
  402400    178.76446     59210960            0     59211656    12.683361    22.410336    14.188262    19.738548    33.263931     9.543039    12.612127     22.30075    14.235163 
  402600    280.74651     59211154            0     59212247    12.683312    22.410361    14.188278    19.733655    33.266469    9.5446892    12.612127     22.30075    14.235163 
  402800     167.4469     59211863            0     59212515     12.68327    22.410402    14.188288    19.729405    33.270555    9.5456468    12.612127     22.30075    14.235163 
  403000     278.0915     59212501            0     59213583    12.683284    22.410351    14.188121    19.730814    33.265456    9.5289793    12.612127     22.30075    14.235163 
  403200    286.38124     59210269            0     59211384    12.683307    22.410347    14.188267     19.73318    33.265089    9.5435004    12.612127     22.30075    14.235163 
  403400    304.09864     59211421            0     59212605    12.683324    22.410367    14.188075     19.73485    33.267049    9.5243614    12.612127     22.30075    14.235163 
  403600    249.18637     59210208            0     59211178    12.683285    22.410364    14.188171    19.730932     33.26671    9.5339069    12.612127     22.30075    14.235163 
  403800    319.48081     59210492            0     59211736    12.683348    22.410353    14.188033    19.737202    33.265642     9.520188    12.612127     22.30075    14.235163 
  404000    141.67239     59212009            0     59212561    12.683313    22.410351    14.188132    19.733708    33.265453    9.5300134    12.612127     22.30075    14.235163 
  404200    181.36113     59211958            0     59212664    12.683288    22.410375    14.187753    19.731233    33.267842    9.4921159    12.612127     22.30075    14.235163 
  404400    217.24882     59212388            0     59213234    12.683315    22.410354    14.188264    19.733956    33.265803    9.5432917    12.612127     22.30075    14.235163 
  404600    187.09079     59211349            0     59212078      12.6833    22.410352    14.188075    19.732465    33.265598    9.5243853    12.612127     22.30075    14.235163 
  404800    169.56266     59212264            0     59212924    12.683315    22.410354    14.188353     19.73392    33.265785    9.5521614    12.612127     22.30075    14.235163 
  405000    273.35896     59211625            0     59212689    12.683329    22.410353    14.187992    19.735301    33.265616    9.5160365    12.612127     22.30075    14.235163 
  405200    317.69049     59210547            0     59211784      12.6833     22.41031    14.188305    19.732467    33.261398    9.5473687    12.612127     22.30075    14.235163 
  405400    178.77521     59210486            0     59211182    12.683305     22.41036    14.188126    19.732923    33.266313    9.5294694    12.612127     22.30075    14.235163 
  405600    176.39407     59211260            0     59211946     12.68333    22.410343    14.187959    19.735409    33.264617    9.5127268    12.612127     22.30075    14.235163 
  405800     170.9996     59211950            0     59212616    12.683336    22.410334    14.187986    19.736063    33.263801     9.515432    12.612127     22.30075    14.235163 
  406000    67.552732     59211128            0     59211391    12.683303    22.410329    14.188271    19.732749    33.263247    9.5439578    12.612127     22.30075    14.235163 
  406200    96.595497     59210845            0     59211221     12.68332    22.410378    14.188094    19.734431    33.268206    9.5262538    12.612127     22.30075    14.235163 
  406400    124.13015     59210269            0     59210752    12.683313    22.410353    14.188235    19.733714    33.265703    9.5403022    12.612127     22.30075    14.235163 
  406600    369.62053     59211255            0     59212694    12.683327    22.410352    14.188216    19.735175    33.265538    9.5384051    12.612127     22.30075    14.235163 
  406800    280.47806     59210142            0     59211233    12.683323    22.410328    14.188176    19.734713     33.26318    9.5344898    12.612127     22.30075    14.235163 
  407000    197.14668     59211961            0     59212728    12.683316    22.410353    14.188154    19.733998    33.265687    9.5321978    12.612127     22.30075    14.235163 
  407200    221.07554     59210635            0     59211495    12.683329    22.410353    14.187855    19.735379    33.265649     9.502382    12.612127     22.30075    14.235163 
  407400     347.5247     59211078            0     59212431    12.683326    22.410339    14.187823    19.735081    33.264296    9.4990823    12.612127     22.30075    14.235163 
  407600    210.66442     59211253            0     59212074    12.683337    22.410363    14.188109    19.736146    33.266646    9.5277737    12.612127     22.30075    14.235163 
  407800    135.68725     59211778            0     59212306    12.683318    22.410355    14.188031    19.734226     33.26582    9.5199752    12.612127     22.30075    14.235163 
  408000    181.15363     59210720            0     59211425    12.683337    22.410357    14.188327    19.736111    33.266083    9.5495624    12.612127     22.30075    14.235163 
  408200    140.05253     59210546            0     59211091    12.683348     22.41037    14.188165    19.737246    33.267389     9.533383    12.612127     22.30075    14.235163 
  408400    289.29833     59211482            0     59212608    12.683316    22.410353    14.188379    19.734015    33.265683    9.5547701    12.612127     22.30075    14.235163 
  408600    80.334812     59211381            0     59211694    12.683307    22.410364    14.188095    19.733115     33.26679    9.5263402    12.612127     22.30075    14.235163 
  408800    154.37648     59210971            0     59211572    12.683303    22.410337    14.188256    19.732718     33.26409    9.5424475    12.612127     22.30075    14.235163 
  409000    276.26263     59211432            0     59212508    12.683289    22.410355    14.187983    19.731386    33.265871     9.515109    12.612127     22.30075    14.235163 
  409200     254.8906     59210108            0     59211100    12.683318    22.410353    14.187956    19.734287    33.265646    9.5124664    12.612127     22.30075    14.235163 
  409400    415.87206     59211591            0     59213210    12.683332    22.410354       14.188    19.735673     33.26573    9.5168061    12.612127     22.30075    14.235163 
  409600     317.8755     59211190            0     59212428    12.683304    22.410359    14.187881    19.732851    33.266217    9.5049259    12.612127     22.30075    14.235163 
  409800    82.027332     59211037            0     59211356    12.683309    22.410341    14.188048    19.733378    33.264467    9.5215942    12.612127     22.30075    14.235163 
  410000    324.34463     59210676            0     59211938    12.683325    22.410358    14.188096    19.734994    33.266135    9.5263975    12.612127     22.30075    14.235163 
  410200    115.88292     59211528            0     59211979    12.683315    22.410325    14.188178    19.733925    33.262853    9.5346559    12.612127     22.30075    14.235163 
  410400    136.34848     59210823            0     59211354    12.683312    22.410352    14.188182    19.733623    33.265591    9.5350942    12.612127     22.30075    14.235163 
  410600    205.86208     59211843            0     59212644    12.683339    22.410352    14.187923    19.736321    33.265559    9.5091026    12.612127     22.30075    14.235163 
  410800    257.55569     59211175            0     59212177    12.683341    22.410374    14.188258    19.736529    33.267797    9.5426663    12.612127     22.30075    14.235163 
  411000    104.95977     59210718            0     59211126    12.683324    22.410348    14.187936    19.734819    33.265203    9.5103933    12.612127     22.30075    14.235163 
  411200    133.34596     59210620            0     59211139    12.683321    22.410312       14.188     19.73453    33.261544     9.516802    12.612127     22.30075    14.235163 
  411400    160.84445     59211879            0     59212506    12.683337    22.410345    14.188104    19.736155    33.264826    9.5272797    12.612127     22.30075    14.235163 
  411600    269.00255     59210793            0     59211840    12.683319    22.410352    14.188268    19.734359    33.265556    9.5436679    12.612127     22.30075    14.235163 
  411800    333.49743     59210834            0     59212133    12.683317    22.410353    14.187875    19.734168    33.265686    9.5043579    12.612127     22.30075    14.235163 
  412000    160.63083     59212205            0     59212831    12.683315    22.410353    14.188036    19.733957    33.265656    9.5204831    12.612127     22.30075    14.235163 
  412200    273.49183     59211639            0     59212703    12.683319    22.410377    14.188187    19.734359    33.268101    9.5355236    12.612127     22.30075    14.235163 
  412400    420.06669     59211510            0     59213145    12.683315    22.410353    14.188132    19.733982    33.265673    9.5300379    12.612127     22.30075    14.235163 
  412600    150.18403     59211278            0     59211863    12.683307    22.410363    14.188319     19.73316    33.266649    9.5487558    12.612127     22.30075    14.235163 
  412800    325.99157     59210670            0     59211939    12.683331     22.41036    14.188106    19.735585    33.266316    9.5274744    12.612127     22.30075    14.235163 
  413000    246.83067     59211210            0     59212170    12.683318    22.410355    14.187867    19.734255    33.265858    9.5035478    12.612127     22.30075    14.235163 
  413200    191.45345     59212197            0     59212942    12.683333    22.410362    14.188203    19.735784     33.26657    9.5371101    12.612127     22.30075    14.235163 
  413400    264.15214     59210742            0     59211770    12.683292    22.410317    14.188118    19.731619    33.262047    9.5285964    12.612127     22.30075    14.235163 
  413600    196.59822     59210767            0     59211533    12.683308    22.410356    14.188039    19.733246    33.265945    9.5207208    12.612127     22.30075    14.235163 
  413800    167.33545     59210323            0     59210975    12.683316    22.410353    14.188105    19.734014    33.265687    9.5273701    12.612127     22.30075    14.235163 
  414000    373.12289     59210698            0     59212150     12.68331    22.410364    14.188068    19.733487    33.266767    9.5236891    12.612127     22.30075    14.235163 
  414200    128.19225     59212034            0     59212533    12.683269    22.410339    14.188345     19.72933     33.26422    9.5513653    12.612127     22.30075    14.235163 
  414400    201.52573     59211221            0     59212005    12.683324    22.410362    14.188258    19.734834     33.26656    9.5426521    12.612127     22.30075    14.235163 
  414600    177.69799     59211424            0     59212115    12.683352    22.410306    14.188155    19.737599    33.260924    9.5323101    12.612127     22.30075    14.235163 
  414800    281.97704     59211586            0     59212684    12.683328    22.410343    14.188201    19.735258    33.264634    9.5369253    12.612127     22.30075    14.235163 
  415000    127.61235     59212052            0     59212548    12.683299    22.410376    14.188034    19.732347    33.267922    9.5202533    12.612127     22.30075    14.235163 
  415200    280.03327     59211596            0     59212687    12.683324    22.410331    14.188041    19.734878    33.263473    9.5209188    12.612127     22.30075    14.235163 
  415400    93.783728     59211856            0     59212221     12.68333    22.410325    14.187932    19.735443    33.262865    9.5100019    12.612127     22.30075    14.235163 
  415600     388.3138     59211450            0     59212961    12.683316    22.410353    14.187892    19.734014    33.265686    9.5060555    12.612127     22.30075    14.235163 
  415800    225.38011     59210164            0     59211042    12.683335    22.410373     14.18802    19.735963    33.267633    9.5188818    12.612127     22.30075    14.235163 
  416000    180.45621     59210238            0     59210940    12.683309    22.410341    14.188087    19.733305    33.264488    9.5255231    12.612127     22.30075    14.235163 
  416200    173.68755     59211256            0     59211933    12.683304    22.410361    14.188079    19.732826    33.266438    9.5246942    12.612127     22.30075    14.235163 
  416400    249.34063     59210585            0     59211556    12.683295    22.410367    14.188089    19.731975    33.267024    9.5257072    12.612127     22.30075    14.235163 
  416600    179.12439     59210528            0     59211225    12.683294    22.410353    14.188067    19.731818     33.26563    9.5235656    12.612127     22.30075    14.235163 
  416800    77.263654     59211503            0     59211804      12.6833     22.41035    14.188228    19.732462    33.265373    9.5396257    12.612127     22.30075    14.235163 
  417000    115.25333     59211085            0     59211533    12.683293    22.410356    14.188254     19.73177    33.265916    9.5422585    12.612127     22.30075    14.235163 
  417200    151.22687     59212026            0     59212615    12.683312    22.410366    14.188093    19.733615    33.266909    9.5261058    12.612127     22.30075    14.235163 
  417400    159.27304     59210823            0     59211443    12.683311    22.410348    14.187983    19.733545    33.265144    9.5151726    12.612127     22.30075    14.235163 
  417600    309.26331     59211075            0     59212279    12.683331    22.410353     14.18825    19.735558    33.265661    9.5418966    12.612127     22.30075    14.235163 
  417800    184.56175     59211551            0     59212269    12.683353     22.41036    14.188126    19.737747     33.26635    9.5294094    12.612127     22.30075    14.235163 
  418000    107.58003     59210434            0     59210853    12.683312    22.410374    14.188077    19.733669    33.267735    9.5245654    12.612127     22.30075    14.235163 
  418200    163.07457     59210362            0     59210997    12.683326    22.410344    14.188004    19.735077    33.264709    9.5172062    12.612127     22.30075    14.235163 
  418400    222.51474     59211215            0     59212081    12.683312    22.410339    14.188423    19.733655    33.264218    9.5591712    12.612127     22.30075    14.235163 
  418600    235.84343     59211069            0     59211988    12.683316    22.410353    14.188127    19.734014    33.265686    9.5295222    12.612127     22.30075    14.235163 
  418800    257.73238     59210942            0     59211946    12.683322    22.410348    14.188039    19.734644    33.265147    9.5207638    12.612127     22.30075    14.235163 
  419000    203.55798     59211069            0     59211862    12.683334    22.410337    14.187915     19.73584    33.264074    9.5083737    12.612127     22.30075    14.235163 
  419200    217.90911     59211751            0     59212600    12.683343    22.410387    14.187987    19.736772    33.269071     9.515588    12.612127     22.30075    14.235163 
  419400    141.21246     59210941            0     59211490    12.683316    22.410353    14.188237    19.734007    33.265686    9.5405143    12.612127     22.30075    14.235163 
  419600    310.72947     59211132            0     59212341    12.683304    22.410377    14.188017    19.732816     33.26805    9.5184969    12.612127     22.30075    14.235163 
  419800    192.65623     59212628            0     59213378    12.683316    22.410353    14.188439    19.734004    33.265684     9.560731    12.612127     22.30075    14.235163 
  420000    165.03888     59210865            0     59211508     12.68334    22.410337     14.18827    19.736491    33.264034     9.543889    12.612127     22.30075    14.235163 
  420200    207.95287     59212169            0     59212978    12.683317    22.410355    14.188135    19.734182    33.265872    9.5303093    12.612127     22.30075    14.235163 
  420400    161.38067     59210176            0     59210805    12.683324    22.410352     14.18808    19.734864    33.265543    9.5248615    12.612127     22.30075    14.235163 
  420600    337.67939     59211436            0     59212751    12.683314    22.410356    14.188332    19.733847    33.265933    9.5500563    12.612127     22.30075    14.235163 
  420800    341.19654     59210887            0     59212216    12.683317    22.410338    14.188103    19.734116    33.264198    9.5271546    12.612127     22.30075    14.235163 
  421000    212.00447     59211854            0     59212679    12.683302    22.410325    14.188129    19.732697    33.262897    9.5297619    12.612127     22.30075    14.235163 
  421200    295.91298     59211010            0     59212162    12.683322     22.41035    14.187985    19.734646    33.265309    9.5153756    12.612127     22.30075    14.235163 
  421400    377.64588     59211091            0     59212561      12.6833    22.410354    14.188098    19.732423    33.265756     9.526608    12.612127     22.30075    14.235163 
  421600    182.63985     59211650            0     59212361    12.683334    22.410352    14.187854    19.735821    33.265561    9.5022637    12.612127     22.30075    14.235163 
  421800    345.24036     59211138            0     59212482    12.683305    22.410344    14.188182    19.732983    33.264723    9.5350449    12.612127     22.30075    14.235163 
  422000    128.10745     59211263            0     59211762    12.683299    22.410366    14.188099    19.732337    33.266938     9.526787    12.612127     22.30075    14.235163 
  422200    78.398431     59211368            0     59211673     12.68333    22.410354    14.188185    19.735424    33.265739    9.5353628    12.612127     22.30075    14.235163 
  422400    245.09015     59211194            0     59212148    12.683315    22.410354    14.188257     19.73395    33.265761    9.5425107    12.612127     22.30075    14.235163 
  422600     261.3299     59211432            0     59212449    12.683316    22.410353    14.187962    19.734018     33.26568    9.5130417    12.612127     22.30075    14.235163 
  422800    432.57677     59210914            0     59212598    12.683316    22.410353    14.188266    19.734009    33.265688    9.5434418    12.612127     22.30075    14.235163 
  423000     156.9827     59210665            0     59211276    12.683312    22.410358    14.188023    19.733606    33.266114     9.519185    12.612127     22.30075    14.235163 
  423200    174.25137     59211650            0     59212328    12.683307     22.41034    14.188154    19.733171    33.264335    9.5321971    12.612127     22.30075    14.235163 
  423400    207.53667     59210851            0     59211659    12.683291    22.410394    14.188181     19.73156    33.269721    9.5349069    12.612127     22.30075    14.235163 
  423600     182.5585     59212142            0     59212853    12.683315    22.410353    14.187791    19.733962    33.265638    9.4959094    12.612127     22.30075    14.235163 
  423800     234.6396     59210710            0     59211623     12.68332    22.410343    14.188182    19.734495     33.26464    9.5350723    12.612127     22.30075    14.235163 
  424000     121.7887     59209999            0     59210473    12.683311    22.410357    14.188018    19.733551    33.266106    9.5186049    12.612127     22.30075    14.235163 
  424200    126.46206     59210964            0     59211457    12.683307     22.41034    14.188051    19.733134     33.26434    9.5219451    12.612127     22.30075    14.235163 
  424400    144.50718     59211124            0     59211687    12.683317    22.410328    14.187838    19.734162    33.263155    9.5006645    12.612127     22.30075    14.235163 
  424600     358.6785     59210051            0     59211448    12.683309     22.41033    14.188006    19.733366    33.263389     9.517428    12.612127     22.30075    14.235163 
  424800    268.60006     59211195            0     59212241    12.683316    22.410356    14.188136    19.734068    33.265988    9.5304175    12.612127     22.30075    14.235163 
  425000    170.13475     59210757            0     59211419    12.683318    22.410389    14.188238    19.734215    33.269224    9.5406383    12.612127     22.30075    14.235163 
  425200    148.04441     59209481            0     59210058    12.683304    22.410376    14.188008    19.732888    33.267912    9.5175896    12.612127     22.30075    14.235163 
  425400     261.1538     59211411            0     59212428    12.683316    22.410353    14.188433    19.734014    33.265687    9.5601833    12.612127     22.30075    14.235163 
  425600    201.09218     59211678            0     59212461    12.683321    22.410343     14.18837    19.734555    33.264616    9.5538103    12.612127     22.30075    14.235163 
  425800    268.33985     59210057            0     59211101    12.683333    22.410349    14.188265     19.73571    33.265212    9.5433791    12.612127     22.30075    14.235163 
  426000    259.03988     59210731            0     59211740    12.683333    22.410355    14.188179    19.735709    33.265899    9.5347143    12.612127     22.30075    14.235163 
  426200    267.32234     59210744            0     59211784    12.683316    22.410354     14.18811    19.734026    33.265764    9.5278293    12.612127     22.30075    14.235163 
  426400    368.91015     59211852            0     59213288    12.683318     22.41037    14.187767    19.734266    33.267382    9.4935717    12.612127     22.30075    14.235163 
  426600     132.7297     59210741            0     59211258    12.683331    22.410322     14.18818    19.735586    33.262576    9.5348077    12.612127     22.30075    14.235163 
  426800    265.48093     59211995            0     59213028    12.683311    22.410363    14.188092    19.733505    33.266693    9.5260037    12.612127     22.30075    14.235163 
  427000    275.69428     59211380            0     59212453    12.683316    22.410353    14.187841    19.734027    33.265703    9.5008945    12.612127     22.30075    14.235163 
  427200    213.67961     59211054            0     59211886    12.683345    22.410327    14.188207     19.73696    33.263042     9.537559    12.612127     22.30075    14.235163 
  427400    119.20918     59210639            0     59211103    12.683317    22.410326    14.188119    19.734112    33.262997    9.5287403    12.612127     22.30075    14.235163 
  427600    95.166127     59211177            0     59211548    12.683298    22.410355    14.188232    19.732283    33.265877    9.5400881    12.612127     22.30075    14.235163 
  427800     259.7903     59211377            0     59212388    12.683271    22.410378    14.187863    19.729562    33.268153    9.5031803    12.612127     22.30075    14.235163 
  428000    244.85422     59210873            0     59211826    12.683321    22.410344    14.188003    19.734508    33.264711    9.5171597    12.612127     22.30075    14.235163 
  428200    391.77804     59211250            0     59212776    12.683324     22.41035    14.188251    19.734829    33.265363    9.5419875    12.612127     22.30075    14.235163 
  428400     195.0754     59210291            0     59211051    12.683315    22.410352    14.188148    19.733995    33.265601    9.5316622    12.612127     22.30075    14.235163 
  428600     238.3822     59212133            0     59213061    12.683299    22.410362    14.187811    19.732349    33.266576    9.4979267    12.612127     22.30075    14.235163 
  428800    305.58107     59211006            0     59212196    12.683337    22.410355    14.187929    19.736193     33.26586    9.5097477    12.612127     22.30075    14.235163 
  429000    173.98915     59209871            0     59210548    12.683325    22.410343    14.188114    19.734945     33.26461    9.5282525    12.612127     22.30075    14.235163 
  429200    154.99191     59210537            0     59211140    12.683289    22.410374    14.188263    19.731325    33.267752    9.5431151    12.612127     22.30075    14.235163 
  429400    195.84371     59211474            0     59212236    12.683327     22.41037    14.188231    19.735107    33.267338    9.5399819    12.612127     22.30075    14.235163 
  429600    235.09921     59211086            0     59212001     12.68329    22.410368    14.188095    19.731442    33.267184    9.5263804    12.612127     22.30075    14.235163 
  429800    133.99374     59211202            0     59211724    12.683345    22.410335    14.187956    19.736977    33.263841    9.5124315    12.612127     22.30075    14.235163 
  430000    210.41204     59210121            0     59210940    12.683319    22.410359    14.188297    19.734301    33.266221    9.5465716    12.612127     22.30075    14.235163 
  430200    242.58967     59211374            0     59212319    12.683324    22.410322    14.188183    19.734811    33.262557    9.5351087    12.612127     22.30075    14.235163 
  430400    356.35553     59211619            0     59213007    12.683295    22.410347    14.188121    19.731917    33.265008    9.5289775    12.612127     22.30075    14.235163 
  430600     203.4436     59210781            0     59211573    12.683318    22.410353    14.187994    19.734275    33.265671     9.516251    12.612127     22.30075    14.235163 
  430800    337.69867     59211724            0     59213038    12.683316    22.410353    14.187963    19.734016    33.265687    9.5131696    12.612127     22.30075    14.235163 
  431000    110.61792     59211109            0     59211539    12.683281    22.410378    14.188188    19.730546    33.268156    9.5356789    12.612127     22.30075    14.235163 
  431200    209.82739     59210398            0     59211215    12.683308     22.41037    14.188236    19.733251    33.267389    9.5404462    12.612127     22.30075    14.235163 
  431400    69.969336     59210891            0     59211164    12.683322    22.410348    14.188111    19.734631    33.265178    9.5279845    12.612127     22.30075    14.235163 
  431600    283.53468     59211213            0     59212317    12.683314    22.410341     14.18835    19.733883    33.264423    9.5518683    12.612127     22.30075    14.235163 
  431800    152.88755     59210872            0     59211467    12.683312    22.410353    14.188007    19.733621    33.265613    9.5175014    12.612127     22.30075    14.235163 
  432000    298.59166     59210409            0     59211572    12.683319    22.410376     14.18818    19.734324    33.267991    9.5348636    12.612127     22.30075    14.235163 
  432200    303.10805     59210680            0     59211860    12.683321     22.41037    14.187972    19.734556    33.267326    9.5139951    12.612127     22.30075    14.235163 
  432400    308.13413     59210379            0     59211579    12.683323    22.410353    14.188018    19.734768    33.265645    9.5186517    12.612127     22.30075    14.235163 
  432600    199.26422     59211910            0     59212686    12.683329    22.410374    14.188102    19.735343    33.267773    9.5270632    12.612127     22.30075    14.235163 
  432800    275.98295     59210482            0     59211557    12.683308    22.410342    14.188018     19.73329    33.264592    9.5186531    12.612127     22.30075    14.235163 
  433000    319.43765     59211078            0     59212322    12.683315    22.410353    14.188272    19.733943    33.265696    9.5440126    12.612127     22.30075    14.235163 
  433200    208.27521     59211727            0     59212538      12.6833    22.410379    14.188316    19.732484    33.268235     9.548446    12.612127     22.30075    14.235163 
  433400    332.31619     59211699            0     59212993    12.683316    22.410353    14.188218    19.734014    33.265687    9.5386881    12.612127     22.30075    14.235163 
  433600    207.01257     59211129            0     59211935    12.683312    22.410353     14.18806    19.733623    33.265708    9.5228466    12.612127     22.30075    14.235163 
  433800    284.60346     59211660            0     59212768    12.683317    22.410337    14.188121    19.734195    33.264026    9.5289696    12.612127     22.30075    14.235163 
  434000    265.36191     59210622            0     59211655     12.68335    22.410374    14.188137    19.737439    33.267737     9.530564    12.612127     22.30075    14.235163 
  434200    179.96754     59210959            0     59211660    12.683333    22.410351    14.188004    19.735729    33.265505    9.5172864    12.612127     22.30075    14.235163 
  434400    92.918033     59211822            0     59212183    12.683298    22.410354    14.187962    19.732236    33.265757    9.5130521    12.612127     22.30075    14.235163 
  434600    297.07802     59212989            0     59214146    12.683318    22.410348    14.188343    19.734259    33.265124    9.5511959    12.612127     22.30075    14.235163 
  434800    214.79949     59211252            0     59212089    12.683308    22.410374    14.187961     19.73328    33.267764    9.5129347    12.612127     22.30075    14.235163 
  435000    140.45535     59210315            0     59210862    12.683316    22.410353    14.188061    19.734015    33.265685     9.522943    12.612127     22.30075    14.235163 
  435200     128.3213     59211385            0     59211885    12.683273    22.410381    14.188165    19.729768    33.268437    9.5333651    12.612127     22.30075    14.235163 
  435400    235.60182     59211881            0     59212798     12.68333    22.410368    14.188023    19.735451    33.267201     9.519161    12.612127     22.30075    14.235163 
  435600    320.79517     59210821            0     59212069    12.683314    22.410353    14.188112    19.733878    33.265693     9.528048    12.612127     22.30075    14.235163 
  435800    153.43273     59212376            0     59212973    12.683328    22.410389    14.188164    19.735241    33.269259    9.5332952    12.612127     22.30075    14.235163 
  436000    346.65156     59211568            0     59212917    12.683314    22.410363     14.18806    19.733812    33.266652    9.5228163    12.612127     22.30075    14.235163 
  436200    256.59638     59210714            0     59211713    12.683299    22.410322    14.188275    19.732353    33.262527    9.5443154    12.612127     22.30075    14.235163 
  436400     171.9488     59211492            0     59212162     12.68334    22.410336    14.188103     19.73649    33.263954    9.5271441    12.612127     22.30075    14.235163 
  436600    161.04348     59210385            0     59211012    12.683319    22.410346    14.188148    19.734396    33.264931    9.5316134    12.612127     22.30075    14.235163 
  436800    230.29545     59210495            0     59211391    12.683306    22.410361    14.188093    19.733054    33.266475    9.5261482    12.612127     22.30075    14.235163 
  437000      145.703     59211465            0     59212033    12.683283    22.410355    14.188294    19.730773    33.265865    9.5462035    12.612127     22.30075    14.235163 
  437200     264.3301     59210576            0     59211605     12.68332    22.410375    14.188072    19.734463    33.267874    9.5239949    12.612127     22.30075    14.235163 
  437400    170.99227     59210690            0     59211356    12.683341    22.410371    14.188129    19.736574    33.267417    9.5297441    12.612127     22.30075    14.235163 
  437600    163.79319     59210776            0     59211414    12.683316    22.410352    14.188204    19.733999    33.265579    9.5372651    12.612127     22.30075    14.235163 
  437800    176.86537     59210800            0     59211489     12.68331    22.410328    14.188172    19.733474    33.263139    9.5340255    12.612127     22.30075    14.235163 
  438000    241.37274     59210474            0     59211413    12.683314    22.410353    14.188101     19.73386    33.265695    9.5269488    12.612127     22.30075    14.235163 
  438200    194.06923     59210555            0     59211310    12.683319    22.410347    14.188195    19.734353    33.265013    9.5363447    12.612127     22.30075    14.235163 
  438400    180.93531     59211730            0     59212434    12.683305    22.410365    14.188212    19.732956     33.26686    9.5380261    12.612127     22.30075    14.235163 
  438600    160.12594     59211444            0     59212067    12.683317    22.410353    14.188216    19.734107    33.265636    9.5384592    12.612127     22.30075    14.235163 
  438800    171.37248     59210689            0     59211356    12.683312    22.410361    14.188017    19.733643    33.266424    9.5185524    12.612127     22.30075    14.235163 
  439000     209.4066     59212141            0     59212956     12.68332    22.410343    14.188294    19.734474    33.264628    9.5462388    12.612127     22.30075    14.235163 
  439200    322.28784     59211240            0     59212494    12.683333    22.410347    14.188054    19.735708    33.265089    9.5221954    12.612127     22.30075    14.235163 
  439400    220.16767     59211527            0     59212384    12.683326    22.410366    14.187872    19.735063    33.266959     9.504005    12.612127     22.30075    14.235163 
  439600    221.63552     59210887            0     59211750    12.683299    22.410354    14.188114     19.73238    33.265775    9.5282517    12.612127     22.30075    14.235163 
  439800    386.41103     59211581            0     59213085    12.683323    22.410344    14.188228    19.734754    33.264786    9.5396924    12.612127     22.30075    14.235163 
  440000    188.13494     59211403            0     59212136    12.683312    22.410328    14.188049    19.733637    33.263172    9.5217333    12.612127     22.30075    14.235163 
  440200    230.59144     59211318            0     59212216    12.683318     22.41035    14.187845    19.734241    33.265378    9.5013144    12.612127     22.30075    14.235163 
  440400    234.24514     59211090            0     59212002    12.683321    22.410349    14.188204    19.734534    33.265263    9.5372531    12.612127     22.30075    14.235163 
  440600     204.9404     59210819            0     59211617    12.683301    22.410364    14.188215    19.732581    33.266759    9.5383416    12.612127     22.30075    14.235163 
  440800    262.54359     59211507            0     59212529    12.683317    22.410352    14.188093    19.734136    33.265545    9.5261618    12.612127     22.30075    14.235163 
  441000    340.84441     59210943            0     59212270    12.683328    22.410321    14.188125      19.7352    33.262431    9.5292944    12.612127     22.30075    14.235163 
  441200    268.10308     59211507            0     59212550    12.683316    22.410352    14.188447    19.734053    33.265596    9.5615941    12.612127     22.30075    14.235163 
  441400    146.18931     59210802            0     59211371    12.683316    22.410354    14.187973    19.734063    33.265752    9.5141077    12.612127     22.30075    14.235163 
  441600    148.04852     59210268            0     59210845    12.683292    22.410359    14.188336    19.731638    33.266281    9.5504528    12.612127     22.30075    14.235163 
  441800    232.84699     59211065            0     59211971    12.683317    22.410355    14.187945    19.734107    33.265843    9.5113352    12.612127     22.30075    14.235163 
  442000    245.14659     59211341            0     59212296    12.683325    22.410326    14.188149    19.734928    33.262949    9.5316985    12.612127     22.30075    14.235163 
  442200    169.89264     59210635            0     59211297    12.683296    22.410348     14.18813    19.731999    33.265185     9.529867    12.612127     22.30075    14.235163 
  442400    259.92381     59211596            0     59212608    12.683313    22.410336     14.18813    19.733758    33.263997    9.5297962    12.612127     22.30075    14.235163 
  442600    289.45333     59210113            0     59211240    12.683333    22.410331    14.188065    19.735716    33.263494    9.5233681    12.612127     22.30075    14.235163 
  442800    201.25635     59210571            0     59211355    12.683336    22.410344    14.188248    19.736024    33.264767    9.5416802    12.612127     22.30075    14.235163 
  443000    251.48237     59211903            0     59212882    12.683316    22.410353    14.188324    19.734003    33.265697     9.549252    12.612127     22.30075    14.235163 
  443200    140.05506     59210872            0     59211418    12.683305    22.410326    14.188017    19.732978    33.262979    9.5185603    12.612127     22.30075    14.235163 
  443400    238.14026     59211526            0     59212453    12.683298    22.410333    14.188191    19.732268    33.263689     9.535939    12.612127     22.30075    14.235163 
  443600    195.25127     59211032            0     59211792    12.683313    22.410344    14.188068    19.733782    33.264733    9.5236679    12.612127     22.30075    14.235163 
  443800    159.06987     59212373            0     59212993    12.683305    22.410357    14.188078    19.732986    33.266062    9.5245924    12.612127     22.30075    14.235163 
  444000    163.23072     59212084            0     59212719    12.683323    22.410365    14.188164    19.734742    33.266823    9.5332388    12.612127     22.30075    14.235163 
  444200     235.7892     59210270            0     59211188    12.683299    22.410329    14.188304    19.732354    33.263294    9.5472692    12.612127     22.30075    14.235163 
  444400    293.74141     59209952            0     59211096    12.683318    22.410353    14.187951    19.734277    33.265672    9.5119624    12.612127     22.30075    14.235163 
  444600    227.22353     59210698            0     59211582    12.683345    22.410324    14.188107    19.736906    33.262765    9.5275519    12.612127     22.30075    14.235163 
  444800    250.64075     59211471            0     59212447    12.683325    22.410365    14.187921    19.734945    33.266896    9.5089372    12.612127     22.30075    14.235163 
  445000    320.77105     59209816            0     59211064     12.68331    22.410364     14.18806    19.733465    33.266772     9.522795    12.612127     22.30075    14.235163 
  445200    179.13133     59211119            0     59211817    12.683342    22.410341    14.187971    19.736645    33.264458    9.5139832    12.612127     22.30075    14.235163 
  445400    174.74179     59211485            0     59212166    12.683316    22.410353    14.188056    19.734014    33.265686    9.5224466    12.612127     22.30075    14.235163 
  445600    119.92847     59210360            0     59210827    12.683314    22.410391    14.187949    19.733808    33.269492    9.5117411    12.612127     22.30075    14.235163 
  445800    349.41466     59210959            0     59212319    12.683315    22.410354    14.188128    19.733967    33.265781    9.5296098    12.612127     22.30075    14.235163 
  446000    183.87456     59210660            0     59211376    12.683293    22.410317    14.188138    19.731705    33.262017    9.5306669    12.612127     22.30075    14.235163 
  446200     423.9121     59210835            0     59212485    12.683347    22.410401    14.188156    19.737102    33.270411     9.532414    12.612127     22.30075    14.235163 
  446400    296.65302     59210136            0     59211290    12.683295    22.410318    14.188199    19.731991    33.262139    9.5367868    12.612127     22.30075    14.235163 
  446600    143.11428     59210784            0     59211341    12.683304     22.41033    14.188155    19.732819    33.263332    9.5323139    12.612127     22.30075    14.235163 
  446800    149.36927     59211118            0     59211699    12.683322    22.410341    14.188124    19.734601     33.26441    9.5292878    12.612127     22.30075    14.235163 
  447000    139.61944     59210634            0     59211177    12.683311    22.410363    14.188261    19.733558    33.266665    9.5429639    12.612127     22.30075    14.235163 
  447200    157.81766     59211010            0     59211624     12.68331    22.410336    14.188247      19.7334    33.264002     9.541515    12.612127     22.30075    14.235163 
  447400    217.28305     59210102            0     59210948    12.683315    22.410353    14.188205    19.733991    33.265703     9.537384    12.612127     22.30075    14.235163 
  447600    140.07018     59211576            0     59212122    12.683254    22.410357    14.187972     19.72788    33.266065    9.5140606    12.612127     22.30075    14.235163 
  447800    265.51688     59211008            0     59212042    12.683316    22.410353    14.188088    19.734014    33.265686    9.5256256    12.612127     22.30075    14.235163 
  448000    300.08363     59211780            0     59212948    12.683329    22.410327    14.188373    19.735322    33.263057    9.5541159    12.612127     22.30075    14.235163 
  448200    223.46046     59211225            0     59212094    12.683305    22.410363    14.188113    19.732975    33.266685    9.5281265    12.612127     22.30075    14.235163 
  448400    159.32414     59211518            0     59212138    12.683316    22.410353    14.188327    19.734013    33.265685    9.5495411    12.612127     22.30075    14.235163 
  448600    139.70121     59211055            0     59211599     12.68332    22.410343    14.188113    19.734488    33.264655    9.5281501    12.612127     22.30075    14.235163 
  448800    143.94103     59210697            0     59211257    12.683344    22.410361    14.188065     19.73685    33.266465    9.5233092    12.612127     22.30075    14.235163 
  449000    77.181705     59211466            0     59211766     12.68331    22.410362    14.188306    19.733422    33.266552    9.5474357    12.612127     22.30075    14.235163 
  449200    232.59627     59211363            0     59212269    12.683317    22.410352    14.188071    19.734188     33.26556    9.5239688    12.612127     22.30075    14.235163 
  449400    306.08507     59211508            0     59212699    12.683316    22.410353    14.188247    19.734035    33.265646    9.5415235    12.612127     22.30075    14.235163 
  449600    94.864522     59210656            0     59211025    12.683329    22.410367    14.188027    19.735394     33.26706    9.5195831    12.612127     22.30075    14.235163 
  449800    216.09609     59210893            0     59211734    12.683333    22.410395    14.187989    19.735781    33.269892    9.5157403    12.612127     22.30075    14.235163 
  450000    199.33992     59211014            0     59211791    12.683313    22.410372    14.188062    19.733763    33.267554    9.5230612    12.612127     22.30075    14.235163 
  450200    146.23739     59211352            0     59211921    12.683311    22.410353     14.18823     19.73357    33.265687    9.5398583    12.612127     22.30075    14.235163 
  450400    160.90066     59210958            0     59211584    12.683286    22.410379    14.188298    19.731019    33.268304    9.5466428    12.612127     22.30075    14.235163 
  450600     134.6711     59210461            0     59210985      12.6833    22.410346    14.188285     19.73248    33.264948    9.5453414    12.612127     22.30075    14.235163 
  450800    212.57859     59210978            0     59211805    12.683304    22.410333    14.187996     19.73284    33.263704    9.5164102    12.612127     22.30075    14.235163 
  451000    286.15588     59210702            0     59211816    12.683318     22.41032    14.188129     19.73429    33.262324     9.529725    12.612127     22.30075    14.235163 
  451200    258.85614     59210809            0     59211816    12.683339    22.410348    14.188204    19.736384    33.265133    9.5372768    12.612127     22.30075    14.235163 
  451400    179.48699     59211537            0     59212236    12.683359     22.41035    14.188122     19.73833    33.265318    9.5290213    12.612127     22.30075    14.235163 
  451600     207.1887     59210252            0     59211059    12.683298    22.410345    14.188099    19.732262    33.264856    9.5267432    12.612127     22.30075    14.235163 
  451800    217.98438     59210788            0     59211637     12.68333    22.410327    14.188219     19.73542    33.263047    9.5387126    12.612127     22.30075    14.235163 
  452000    146.84985     59210848            0     59211419    12.683328    22.410353    14.188045    19.735204    33.265622    9.5213029    12.612127     22.30075    14.235163 
  452200    309.80025     59210742            0     59211948    12.683315    22.410355    14.188049    19.733926    33.265858    9.5217013    12.612127     22.30075    14.235163 
  452400    307.25257     59210490            0     59211686    12.683312    22.410336     14.18821    19.733607    33.263977    9.5378617    12.612127     22.30075    14.235163 
  452600    237.26522     59210608            0     59211531    12.683303    22.410334     14.18807    19.732775    33.263797    9.5238288    12.612127     22.30075    14.235163 
  452800    77.116754     59210173            0     59210474    12.683316    22.410353    14.188075    19.734013    33.265686    9.5243821    12.612127     22.30075    14.235163 
  453000    363.09644     59212038            0     59213452    12.683338    22.410357    14.187944    19.736236    33.266098    9.5112234    12.612127     22.30075    14.235163 
  453200    150.13508     59211169            0     59211754    12.683311    22.410372     14.18812    19.733566    33.267532    9.5288906    12.612127     22.30075    14.235163 
  453400    137.50206     59210429            0     59210964    12.683316    22.410338    14.188103    19.734018    33.264137    9.5271357    12.612127     22.30075    14.235163 
  453600    192.30072     59210996            0     59211745    12.683296    22.410359    14.187872    19.732008    33.266301    9.5040716    12.612127     22.30075    14.235163 
  453800    275.59965     59210777            0     59211849    12.683322    22.410357    14.188274    19.734671    33.266026    9.5442255    12.612127     22.30075    14.235163 
  454000    83.065542     59209938            0     59210261     12.68334    22.410352    14.188188    19.736488    33.265564    9.5356339    12.612127     22.30075    14.235163 
  454200    211.09858     59210362            0     59211184    12.683317    22.410353    14.188036    19.734148    33.265642    9.5204282    12.612127     22.30075    14.235163 
  454400    411.20905     59211458            0     59213059    12.683294    22.410359    14.188096    19.731856    33.266225    9.5264561    12.612127     22.30075    14.235163 
  454600    218.25329     59211751            0     59212601    12.683322    22.410345    14.188071    19.734598    33.264882    9.5239122    12.612127     22.30075    14.235163 
  454800    199.81239     59211934            0     59212712    12.683324    22.410366     14.18837    19.734892    33.266949    9.5538341    12.612127     22.30075    14.235163 
  455000    199.12941     59211172            0     59211947    12.683313    22.410349    14.188172     19.73378    33.265304    9.5340651    12.612127     22.30075    14.235163 
  455200    262.81095     59211046            0     59212070    12.683316    22.410354    14.188038    19.734024    33.265716    9.5206739    12.612127     22.30075    14.235163 
  455400    163.86001     59211169            0     59211807    12.683306    22.410338    14.188097    19.733039    33.264188    9.5265764    12.612127     22.30075    14.235163 
  455600    106.62519     59210981            0     59211396    12.683306    22.410354    14.187989     19.73309    33.265738    9.5157453    12.612127     22.30075    14.235163 
  455800    221.59679     59210488            0     59211351    12.683305    22.410331    14.188153    19.732943    33.263505     9.532128    12.612127     22.30075    14.235163 
  456000    273.31595     59210249            0     59211313    12.683331    22.410352    14.188294    19.735532    33.265602    9.5462053    12.612127     22.30075    14.235163 
  456200       232.21     59210977            0     59211881    12.683316    22.410353    14.188181    19.734016     33.26569    9.5349207    12.612127     22.30075    14.235163 
  456400    127.88746     59210767            0     59211265    12.683301    22.410363    14.188059     19.73257    33.266672    9.5227032    12.612127     22.30075    14.235163 
  456600    265.75224     59211180            0     59212214    12.683358    22.410378    14.188086    19.738289    33.268197    9.5254273    12.612127     22.30075    14.235163 
  456800    201.17343     59211837            0     59212620    12.683316    22.410353    14.188015    19.734003    33.265668    9.5183164    12.612127     22.30075    14.235163 
  457000    149.38007     59211633            0     59212215    12.683335    22.410364    14.188013    19.735993    33.266755     9.518132    12.612127     22.30075    14.235163 
  457200     252.1555     59210837            0     59211819    12.683313    22.410381    14.188014    19.733769    33.268505    9.5181972    12.612127     22.30075    14.235163 
  457400    385.41967     59211082            0     59212582    12.683326    22.410334    14.187959    19.735003     33.26373    9.5126872    12.612127     22.30075    14.235163 
  457600    247.06224     59210716            0     59211678    12.683315    22.410353    14.188014    19.733996    33.265654    9.5181993    12.612127     22.30075    14.235163 
  457800    288.74918     59211593            0     59212717    12.683303    22.410351    14.187999    19.732733    33.265487    9.5167328    12.612127     22.30075    14.235163 
  458000    205.66838     59211570            0     59212371    12.683316    22.410353    14.187963    19.734014    33.265686    9.5131661    12.612127     22.30075    14.235163 
  458200    172.05733     59210448            0     59211117      12.6833    22.410354     14.18805    19.732474    33.265772    9.5218821    12.612127     22.30075    14.235163 
  458400    202.48518     59210176            0     59210964    12.683271    22.410326    14.188277    19.729513    33.262918    9.5445939    12.612127     22.30075    14.235163 
  458600    190.72809     59211297            0     59212039    12.683313    22.410358    14.188255    19.733786    33.266131    9.5423422    12.612127     22.30075    14.235163 
  458800    152.29314     59211690            0     59212283    12.683334    22.410361    14.188322    19.735833    33.266482     9.549024    12.612127     22.30075    14.235163 
  459000    289.07504     59210612            0     59211737    12.683325    22.410353    14.188337    19.734996    33.265632    9.5505535    12.612127     22.30075    14.235163 
  459200    201.69622     59212501            0     59213286    12.683316    22.410354    14.188332    19.734081    33.265789    9.5500133    12.612127     22.30075    14.235163 
  459400     233.7976     59210748            0     59211658    12.683311    22.410344    14.188238    19.733536    33.264772    9.5406676    12.612127     22.30075    14.235163 
  459600     432.3769     59210811            0     59212495    12.683319    22.410353    14.188048    19.734324    33.265703    9.5216849    12.612127     22.30075    14.235163 
  459800    144.27844     59211124            0     59211686    12.683303     22.41035    14.188177    19.732729    33.265354    9.5345202    12.612127     22.30075    14.235163 
  460000    110.35656     59211001            0     59211431    12.683331    22.410322    14.188053    19.735573    33.262607    9.5221881    12.612127     22.30075    14.235163 
  460200    190.53885     59211158            0     59211900    12.683309    22.410354    14.188031    19.733378    33.265722    9.5199619    12.612127     22.30075    14.235163 
  460400    285.46676     59211344            0     59212456    12.683319    22.410346    14.188146    19.734381    33.264966    9.5314291    12.612127     22.30075    14.235163 
  460600    252.88047     59211728            0     59212712    12.683337    22.410376    14.188118    19.736112    33.267994    9.5286625    12.612127     22.30075    14.235163 
  460800    174.67329     59211375            0     59212055    12.683305    22.410353    14.188092    19.732991    33.265674    9.5260139    12.612127     22.30075    14.235163 
  461000    260.56337     59211743            0     59212757     12.68328    22.410407    14.188144    19.730445    33.271078    9.5312017    12.612127     22.30075    14.235163 
  461200    269.98651     59210728            0     59211779    12.683308    22.410354    14.188223    19.733279    33.265746    9.5391356    12.612127     22.30075    14.235163 
  461400    305.76269     59210219            0     59211409    12.683307    22.410345    14.188311    19.733106    33.264841    9.5479407    12.612127     22.30075    14.235163 
  461600    123.60028     59210393            0     59210874     12.68331    22.410364    14.188003    19.733465     33.26677    9.5170925    12.612127     22.30075    14.235163 
  461800       126.97     59210779            0     59211273    12.683311    22.410346    14.188244    19.733537    33.264933    9.5412838    12.612127     22.30075    14.235163 
  462000    282.35421     59209964            0     59211063    12.683316    22.410333    14.188183    19.734005    33.263707    9.5351125    12.612127     22.30075    14.235163 
  462200    134.99905     59210878            0     59211404    12.683335    22.410359    14.188161     19.73596    33.266282    9.5329105    12.612127     22.30075    14.235163 
  462400    309.12707     59211581            0     59212784    12.683315    22.410352    14.188245    19.733951    33.265548    9.5413872    12.612127     22.30075    14.235163 
  462600    151.72279     59210741            0     59211332     12.68334    22.410371    14.188181    19.736442    33.267486     9.534942    12.612127     22.30075    14.235163 
  462800     395.1733     59210653            0     59212192    12.683314    22.410354    14.188119    19.733894    33.265801    9.5287318    12.612127     22.30075    14.235163 
  463000    162.41653     59210069            0     59210701    12.683325    22.410355    14.188168    19.734928    33.265903    9.5336886    12.612127     22.30075    14.235163 
  463200    93.524999     59210850            0     59211214    12.683316    22.410337    14.188304    19.734017    33.264075    9.5472886    12.612127     22.30075    14.235163 
  463400    158.31224     59211455            0     59212071    12.683316    22.410353    14.188089    19.734015    33.265684    9.5257879    12.612127     22.30075    14.235163 
  463600    219.36219     59210789            0     59211643    12.683314    22.410357    14.188006    19.733838    33.266077    9.5173998    12.612127     22.30075    14.235163 
  463800    134.20507     59211391            0     59211913    12.683316     22.41033    14.188263    19.734061    33.263369    9.5431127    12.612127     22.30075    14.235163 
  464000    149.22687     59211694            0     59212275    12.683345    22.410374    14.188448    19.736986    33.267729    9.5616982    12.612127     22.30075    14.235163 
  464200    291.24204     59211123            0     59212256    12.683327    22.410376    14.188316    19.735143    33.268006    9.5484462    12.612127     22.30075    14.235163 
  464400    350.06455     59211129            0     59212491    12.683309    22.410365    14.188328     19.73332    33.266836    9.5496186    12.612127     22.30075    14.235163 
  464600    279.79622     59210366            0     59211455    12.683316    22.410353    14.188207    19.734003    33.265686    9.5375584    12.612127     22.30075    14.235163 
  464800    287.17071     59210995            0     59212113    12.683313    22.410353    14.188036    19.733755    33.265701    9.5204012    12.612127     22.30075    14.235163 
  465000    137.14517     59211224            0     59211758    12.683325    22.410352    14.188193    19.734996    33.265591    9.5361194    12.612127     22.30075    14.235163 
  465200    201.96648     59210303            0     59211089    12.683315    22.410351    14.188079    19.733984    33.265463    9.5247906    12.612127     22.30075    14.235163 
  465400    303.60455     59210756            0     59211937    12.683314    22.410351    14.188029    19.733843    33.265445    9.5197119    12.612127     22.30075    14.235163 
  465600    177.32041     59210775            0     59211465    12.683302    22.410354    14.188285    19.732624    33.265747    9.5453276    12.612127     22.30075    14.235163 
  465800    264.20593     59210574            0     59211602     12.68333    22.410325    14.188063    19.735456    33.262835    9.5231384    12.612127     22.30075    14.235163 
  466000    162.61228     59210289            0     59210922     12.68335    22.410338    14.188042    19.737438    33.264108    9.5210068    12.612127     22.30075    14.235163 
  466200    100.96119     59210600            0     59210993    12.683318    22.410337    14.188231    19.734256    33.264034     9.539907    12.612127     22.30075    14.235163 
  466400    306.09854     59211446            0     59212637    12.683315    22.410355    14.188247    19.733944     33.26585    9.5415168    12.612127     22.30075    14.235163 
  466600    242.10506     59210808            0     59211750    12.683312    22.410353    14.187953    19.733694    33.265685    9.5121544    12.612127     22.30075    14.235163 
  466800    153.34822     59211791            0     59212388    12.683308    22.410345    14.188172    19.733274    33.264818    9.5340166    12.612127     22.30075    14.235163 
  467000    163.43893     59210727            0     59211363    12.683333    22.410341    14.188154    19.735748    33.264479      9.53226    12.612127     22.30075    14.235163 
  467200    162.84206     59210673            0     59211307    12.683311    22.410363    14.188085    19.733597    33.266691    9.5252958    12.612127     22.30075    14.235163 
  467400    127.21242     59210881            0     59211377    12.683321    22.410353     14.18805    19.734558    33.265652    9.5218004    12.612127     22.30075    14.235163 
  467600    91.356956     59210364            0     59210720    12.683318    22.410357    14.188025    19.734213    33.266074    9.5193415    12.612127     22.30075    14.235163 
  467800    214.80489     59211341            0     59212177     12.68332    22.410346    14.188212     19.73444    33.264913    9.5380651    12.612127     22.30075    14.235163 
  468000    143.85042     59210506            0     59211066    12.683308    22.410369    14.188091    19.733202    33.267242    9.5259348    12.612127     22.30075    14.235163 
  468200     131.3501     59211660            0     59212172     12.68332    22.410359    14.188075    19.734418    33.266222    9.5243253    12.612127     22.30075    14.235163 
  468400    120.91784     59211443            0     59211913     12.68332     22.41036    14.188243    19.734458    33.266328    9.5411831    12.612127     22.30075    14.235163 
  468600    251.91947     59210858            0     59211839    12.683285    22.410355    14.188229    19.730917    33.265868    9.5397489    12.612127     22.30075    14.235163 
  468800    278.29649     59210240            0     59211323    12.683364    22.410356    14.187978    19.738825    33.265931     9.514642    12.612127     22.30075    14.235163 
  469000    237.72166     59211400            0     59212325    12.683333    22.410386    14.188383    19.735706    33.268941    9.5551529    12.612127     22.30075    14.235163 
  469200    239.32931     59210459            0     59211391    12.683283    22.410358    14.188231    19.730766    33.266124    9.5399782    12.612127     22.30075    14.235163 
  469400    186.30083     59210787            0     59211512    12.683311    22.410362    14.188196     19.73355    33.266589    9.5364845    12.612127     22.30075    14.235163 
  469600    220.68098     59212201            0     59213060    12.683332    22.410312    14.187771    19.735687    33.261519    9.4939052    12.612127     22.30075    14.235163 
  469800    183.11933     59211655            0     59212368    12.683324    22.410366    14.187903    19.734821    33.266953    9.5071706    12.612127     22.30075    14.235163 
  470000     190.7534     59210857            0     59211599    12.683269    22.410369    14.188004    19.729377    33.267238    9.5171998    12.612127     22.30075    14.235163 
  470200    209.08566     59210347            0     59211161    12.683336    22.410338    14.188294    19.736073    33.264196    9.5462469    12.612127     22.30075    14.235163 
  470400    286.87677     59211413            0     59212529    12.683291    22.410373    14.188203    19.731544    33.267685    9.5371375    12.612127     22.30075    14.235163 
  470600    170.96257     59211050            0     59211715    12.683361    22.410375    14.188157    19.738571    33.267873    9.5325475    12.612127     22.30075    14.235163 
  470800    154.42987     59211329            0     59211930    12.683305    22.410354    14.188019    19.732988    33.265735    9.5187495    12.612127     22.30075    14.235163 
  471000     84.02204     59211085            0     59211412    12.683308    22.410349    14.188061    19.733266    33.265306    9.5229367    12.612127     22.30075    14.235163 
  471200    277.33898     59211414            0     59212494    12.683266    22.410324     14.18805    19.729085    33.262779    9.5218031    12.612127     22.30075    14.235163 
  471400    261.87421     59210868            0     59211887    12.683315    22.410354    14.187926     19.73399    33.265763    9.5094712    12.612127     22.30075    14.235163 
  471600    237.60532     59210636            0     59211561    12.683307    22.410353    14.187994    19.733134    33.265692    9.5161953    12.612127     22.30075    14.235163 
  471800    147.07401     59211986            0     59212559     12.68332    22.410343    14.188001    19.734426    33.264683    9.5169677    12.612127     22.30075    14.235163 
  472000    338.75083     59210345            0     59211663    12.683298    22.410355    14.188229    19.732208    33.265889    9.5397939    12.612127     22.30075    14.235163 
  472200    176.91001     59210833            0     59211521    12.683294    22.410377    14.188053    19.731834    33.268016    9.5220916    12.612127     22.30075    14.235163 
  472400    195.59059     59211719            0     59212480    12.683344    22.410361    14.188118    19.736806    33.266493    9.5286413    12.612127     22.30075    14.235163 
  472600    262.57276     59211272            0     59212294    12.683316    22.410353    14.188299    19.734013    33.265689    9.5467224    12.612127     22.30075    14.235163 
  472800    318.75636     59210067            0     59211308    12.683334    22.410352    14.187987    19.735808     33.26559    9.5155745    12.612127     22.30075    14.235163 
  473000    121.04594     59210600            0     59211071    12.683306    22.410356    14.188191    19.733042    33.265922    9.5359406    12.612127     22.30075    14.235163 
  473200    240.79283     59210676            0     59211613    12.683316    22.410353    14.188036    19.734011    33.265686    9.5204321    12.612127     22.30075    14.235163 
  473400    173.54167     59210921            0     59211597     12.68328    22.410351    14.188293    19.730453    33.265446     9.546156    12.612127     22.30075    14.235163 
  473600     304.4358     59211912            0     59213097    12.683304    22.410354    14.188089    19.732806    33.265731    9.5257162    12.612127     22.30075    14.235163 
  473800    165.68872     59209883            0     59210528    12.683305    22.410384    14.188146     19.73295    33.268775    9.5314789    12.612127     22.30075    14.235163 
  474000    261.71575     59210723            0     59211742    12.683314    22.410378    14.188101    19.733833    33.268198    9.5269548    12.612127     22.30075    14.235163 
  474200    69.903898     59210969            0     59211242    12.683331    22.410323    14.188156     19.73554    33.262669    9.5323992    12.612127     22.30075    14.235163 
  474400    203.41171     59210123            0     59210914     12.68332    22.410362     14.18801    19.734463    33.266564    9.5178763    12.612127     22.30075    14.235163 
  474600    232.20283     59210064            0     59210968    12.683318    22.410321     14.18823    19.734263    33.262495    9.5398075    12.612127     22.30075    14.235163 
  474800    127.46321     59210481            0     59210977    12.683368    22.410323    14.188153    19.739241    33.262642    9.5321056    12.612127     22.30075    14.235163 
  475000    170.34975     59211132            0     59211795    12.683336    22.410352    14.188096    19.736088    33.265571    9.5264919    12.612127     22.30075    14.235163 
  475200    150.91926     59210549            0     59211137    12.683287    22.410379    14.188021    19.731156    33.268213    9.5189733    12.612127     22.30075    14.235163 
  475400    212.28101     59210986            0     59211812    12.683311    22.410361    14.188394    19.733556    33.266476    9.5562428    12.612127     22.30075    14.235163 
  475600    174.70477     59210813            0     59211493    12.683319    22.410309    14.188238    19.734373    33.261222    9.5406237    12.612127     22.30075    14.235163 
  475800    179.66015     59211245            0     59211945    12.683315    22.410354    14.188349    19.733967    33.265723    9.5518006    12.612127     22.30075    14.235163 
  476000    138.02986     59210896            0     59211433    12.683314    22.410356    14.188141    19.733871    33.265934    9.5309559    12.612127     22.30075    14.235163 
  476200    160.91268     59210507            0     59211133    12.683348    22.410351    14.188098    19.737217    33.265476    9.5266535    12.612127     22.30075    14.235163 
  476400    164.73085     59210386            0     59211027    12.683336    22.410355    14.188093    19.736048    33.265819    9.5260929    12.612127     22.30075    14.235163 
  476600    161.13044     59211524            0     59212152    12.683315    22.410353    14.188253    19.733997    33.265636    9.5421688    12.612127     22.30075    14.235163 
  476800    114.16334     59210966            0     59211411    12.683332    22.410351     14.18808    19.735659    33.265508     9.524823    12.612127     22.30075    14.235163 
  477000    230.22003     59211526            0     59212423    12.683312    22.410361    14.188047    19.733618    33.266426    9.5215754    12.612127     22.30075    14.235163 
  477200    125.28805     59211622            0     59212109    12.683319    22.410357    14.188207    19.734351    33.266018    9.5375803    12.612127     22.30075    14.235163 
  477400    289.66657     59211298            0     59212425    12.683237    22.410375    14.188068    19.726172    33.267829    9.5236878    12.612127     22.30075    14.235163 
  477600    209.03886     59210479            0     59211293    12.683304    22.410376    14.187889    19.732893    33.267922    9.5056987    12.612127     22.30075    14.235163 
  477800    108.56119     59211761            0     59212183    12.683316    22.410353     14.18802    19.734072    33.265705    9.5188297    12.612127     22.30075    14.235163 
  478000    375.75963     59210709            0     59212172    12.683296    22.410355    14.188225     19.73207    33.265843    9.5393292    12.612127     22.30075    14.235163 
  478200    269.10748     59210799            0     59211846    12.683333    22.410356    14.188281    19.735755    33.265914    9.5449443    12.612127     22.30075    14.235163 
  478400    202.29675     59211146            0     59211934      12.6833    22.410316    14.188157    19.732433    33.262003    9.5325836    12.612127     22.30075    14.235163 
  478600    143.93769     59210673            0     59211233     12.68334    22.410342    14.188095    19.736483    33.264515    9.5263889    12.612127     22.30075    14.235163 
  478800    93.541938     59210481            0     59210845    12.683303    22.410369    14.188211    19.732739    33.267231    9.5379317    12.612127     22.30075    14.235163 
  479000    93.550709     59212047            0     59212411    12.683303    22.410335    14.187986    19.732788    33.263868     9.515433    12.612127     22.30075    14.235163 
  479200    143.55158     59210594            0     59211153    12.683289    22.410362    14.188143    19.731313    33.266577    9.5311634    12.612127     22.30075    14.235163 
  479400    89.858274     59211355            0     59211705    12.683333    22.410352    14.188143     19.73574    33.265591    9.5311789    12.612127     22.30075    14.235163 
  479600     271.8283     59211015            0     59212074    12.683319    22.410348    14.188222     19.73432    33.265172    9.5390949    12.612127     22.30075    14.235163 
  479800    94.100818     59212296            0     59212663    12.683294    22.410357    14.187999    19.731799    33.266069    9.5167439    12.612127     22.30075    14.235163 
  480000    248.04017     59210600            0     59211566    12.683312    22.410348    14.188042    19.733639    33.265204    9.5210891    12.612127     22.30075    14.235163 
  480200    181.48118     59210760            0     59211467    12.683307    22.410376    14.187909     19.73317    33.267935    9.5076924    12.612127     22.30075    14.235163 
  480400    182.62878     59210444            0     59211154    12.683316    22.410352    14.187926    19.734061    33.265602    9.5094734    12.612127     22.30075    14.235163 
  480600    71.418846     59211271            0     59211549    12.683299    22.410354    14.188219    19.732333    33.265781    9.5387242    12.612127     22.30075    14.235163 
  480800    365.76521     59211016            0     59212440    12.683306    22.410378    14.188278    19.733003    33.268113     9.544666    12.612127     22.30075    14.235163 
  481000    234.49999     59210700            0     59211613    12.683297    22.410369    14.187965    19.732191    33.267217    9.5132906    12.612127     22.30075    14.235163 
  481200    113.85118     59211109            0     59211552    12.683322    22.410368    14.188172    19.734634    33.267195    9.5340502    12.612127     22.30075    14.235163 
  481400    220.01124     59211471            0     59212328    12.683317    22.410355    14.188417    19.734118    33.265898    9.5585075    12.612127     22.30075    14.235163 
  481600    174.66922     59211906            0     59212586    12.683322    22.410353     14.18807    19.734679    33.265649    9.5238814    12.612127     22.30075    14.235163 
  481800    208.89255     59210495            0     59211309    12.683296    22.410344    14.188263    19.732093    33.264803    9.5431776    12.612127     22.30075    14.235163 
  482000     193.0613     59210507            0     59211259    12.683328    22.410328    14.188271    19.735286     33.26317    9.5439694    12.612127     22.30075    14.235163 
  482200    167.32565     59210195            0     59210846    12.683323    22.410354    14.188131    19.734751    33.265735    9.5299344    12.612127     22.30075    14.235163 
  482400    339.76499     59211366            0     59212689    12.683313    22.410347    14.188218    19.733737    33.265027    9.5386777    12.612127     22.30075    14.235163 
  482600    159.54474     59211225            0     59211846    12.683306    22.410373    14.188153    19.733075    33.267666    9.5321702    12.612127     22.30075    14.235163 
  482800    100.77637     59211879            0     59212271     12.68331    22.410303    14.188153    19.733462    33.260658    9.5321844    12.612127     22.30075    14.235163 
  483000    132.45571     59209765            0     59210280    12.683305    22.410368    14.188074    19.732967    33.267194    9.5242799    12.612127     22.30075    14.235163 
  483200    254.82091     59211239            0     59212231    12.683325    22.410334    14.187946    19.734949    33.263803    9.5113905    12.612127     22.30075    14.235163 
  483400    186.11922     59211154            0     59211879    12.683305     22.41038    14.188063    19.732911    33.268402    9.5231206    12.612127     22.30075    14.235163 
  483600    149.14544     59210807            0     59211388    12.683316    22.410354    14.188055    19.734031    33.265712    9.5223908    12.612127     22.30075    14.235163 
  483800    235.90004     59212566            0     59213484    12.683329    22.410345    14.188252    19.735359    33.264828    9.5420286    12.612127     22.30075    14.235163 
  484000    223.60831     59210650            0     59211521    12.683299    22.410388    14.188132    19.732364    33.269157     9.530027    12.612127     22.30075    14.235163 
  484200    129.25115     59211013            0     59211517    12.683296    22.410373    14.188175    19.732012    33.267629    9.5342976    12.612127     22.30075    14.235163 
  484400    248.35486     59210706            0     59211673    12.683312    22.410334    14.188242    19.733638    33.263797    9.5410544    12.612127     22.30075    14.235163 
  484600    262.04581     59211017            0     59212037    12.683316    22.410353    14.188317    19.734018    33.265685    9.5485941    12.612127     22.30075    14.235163 
  484800    315.44858     59210819            0     59212047    12.683315    22.410354    14.188099    19.733973    33.265776    9.5267373    12.612127     22.30075    14.235163 
  485000    256.85976     59211581            0     59212581    12.683295    22.410365    14.188282      19.7319     33.26686    9.5450095    12.612127     22.30075    14.235163 
  485200    186.38217     59212175            0     59212900    12.683317    22.410362    14.188354    19.734175    33.266598    9.5523027    12.612127     22.30075    14.235163 
  485400    214.82738     59211018            0     59211855    12.683335    22.410364    14.188003    19.735941    33.266713    9.5170911    12.612127     22.30075    14.235163 
  485600     114.0451     59211116            0     59211560    12.683312    22.410345    14.188301    19.733672     33.26489    9.5469209    12.612127     22.30075    14.235163 
  485800    129.09167     59211443            0     59211946    12.683315    22.410355    14.188018    19.733901    33.265908    9.5185899    12.612127     22.30075    14.235163 
  486000    294.82315     59210801            0     59211949    12.683306    22.410381    14.188357    19.733051    33.268502    9.5525915    12.612127     22.30075    14.235163 
  486200    160.39377     59211400            0     59212024    12.683316    22.410353    14.187905    19.734011    33.265684    9.5073208    12.612127     22.30075    14.235163 
  486400    197.54468     59210372            0     59211142    12.683313    22.410349    14.188047    19.733709     33.26522    9.5215309    12.612127     22.30075    14.235163 
  486600    250.85581     59211990            0     59212966    12.683323    22.410353    14.187765    19.734729    33.265651    9.4933296    12.612127     22.30075    14.235163 
  486800    84.833992     59210853            0     59211183    12.683322    22.410353    14.188161    19.734611    33.265653    9.5329699    12.612127     22.30075    14.235163 
  487000    165.77573     59211187            0     59211833    12.683323    22.410363    14.188218     19.73478    33.266625    9.5386911    12.612127     22.30075    14.235163 
  487200    186.08184     59212088            0     59212812    12.683316    22.410353    14.188274    19.734014    33.265686    9.5442625    12.612127     22.30075    14.235163 
  487400    232.80019     59211045            0     59211951    12.683268     22.41037    14.188194    19.729284    33.267357    9.5362193    12.612127     22.30075    14.235163 
  487600    384.71953     59210705            0     59212202    12.683278    22.410332    14.188051    19.730273    33.263509    9.5219405    12.612127     22.30075    14.235163 
  487800    197.36438     59210371            0     59211139    12.683333     22.41033    14.188112    19.735714    33.263354     9.528078    12.612127     22.30075    14.235163 
  488000     104.3758     59210808            0     59211214    12.683303    22.410396    14.188175    19.732737    33.269954    9.5343949    12.612127     22.30075    14.235163 
  488200     282.9589     59210661            0     59211763    12.683316    22.410353    14.188041    19.734011    33.265695    9.5209631    12.612127     22.30075    14.235163 
  488400    225.07836     59211169            0     59212045    12.683343    22.410395    14.188131     19.73678    33.269888     9.529941    12.612127     22.30075    14.235163 
  488600    292.66972     59211025            0     59212164    12.683323    22.410352    14.188007    19.734701    33.265573    9.5175455    12.612127     22.30075    14.235163 
  488800    306.51015     59210203            0     59211397    12.683322    22.410357    14.188213    19.734683     33.26602    9.5381131    12.612127     22.30075    14.235163 
  489000    237.84099     59211285            0     59212211    12.683309    22.410353    14.188109    19.733369    33.265685    9.5277283    12.612127     22.30075    14.235163 
  489200    244.76893     59211973            0     59212926    12.683313    22.410359    14.187894    19.733729    33.266249    9.5062108    12.612127     22.30075    14.235163 
  489400    204.87487     59211114            0     59211912    12.683316    22.410353    14.188063    19.734014    33.265686    9.5231908    12.612127     22.30075    14.235163 
  489600    171.59171     59210479            0     59211147    12.683312     22.41036    14.188196    19.733636    33.266381    9.5364244    12.612127     22.30075    14.235163 
  489800    190.08546     59212798            0     59213538    12.683319    22.410347    14.188191    19.734303    33.265026    9.5359918    12.612127     22.30075    14.235163 
  490000    263.98098     59211696            0     59212724    12.683316    22.410353    14.188423    19.734013    33.265686    9.5591625    12.612127     22.30075    14.235163 
  490200    230.02299     59210629            0     59211525    12.683301    22.410376     14.18807     19.73258    33.267952     9.523838    12.612127     22.30075    14.235163 
  490400    182.61876     59210714            0     59211425    12.683344    22.410374    14.188124    19.736844    33.267743    9.5292304    12.612127     22.30075    14.235163 
  490600    69.750629     59211527            0     59211798    12.683327    22.410319    14.188089    19.735108    33.262241    9.5257661    12.612127     22.30075    14.235163 
  490800    296.08488     59210921            0     59212074    12.683323    22.410355    14.188314     19.73474    33.265823    9.5482668    12.612127     22.30075    14.235163 
  491000    347.27476     59211160            0     59212512    12.683321    22.410365    14.188065    19.734546    33.266888    9.5232932    12.612127     22.30075    14.235163 
  491200     212.1209     59210699            0     59211524    12.683325    22.410368    14.188013    19.734948    33.267197    9.5181135    12.612127     22.30075    14.235163 
  491400    149.34819     59211456            0     59212037    12.683309    22.410367    14.188441    19.733353     33.26707    9.5609177    12.612127     22.30075    14.235163 
  491600    149.63477     59210940            0     59211522     12.68332    22.410347    14.188044    19.734428    33.265025    9.5212377    12.612127     22.30075    14.235163 
  491800    139.40584     59211256            0     59211799    12.683324    22.410342    14.188135    19.734844    33.264587    9.5303906    12.612127     22.30075    14.235163 
  492000    228.37673     59211711            0     59212600    12.683315    22.410353    14.188177    19.733997    33.265674     9.534562    12.612127     22.30075    14.235163 
  492200    253.90747     59211185            0     59212174    12.683332    22.410352    14.188384    19.735624    33.265599    9.5552687    12.612127     22.30075    14.235163 
  492400    177.97081     59209795            0     59210488    12.683326    22.410333     14.18826    19.735046    33.263611    9.5428063    12.612127     22.30075    14.235163 
  492600    163.07721     59211123            0     59211758    12.683276    22.410352    14.188145    19.730062    33.265607    9.5313814    12.612127     22.30075    14.235163 
  492800    278.60159     59210821            0     59211906    12.683318    22.410396    14.188107    19.734288    33.270007    9.5275427    12.612127     22.30075    14.235163 
  493000    219.59036     59211600            0     59212455    12.683298    22.410345    14.188085    19.732254    33.264832    9.5253866    12.612127     22.30075    14.235163 
  493200    120.61148     59211454            0     59211923    12.683328    22.410373    14.188011     19.73522    33.267693    9.5179006    12.612127     22.30075    14.235163 
  493400     274.5652     59211441            0     59212510    12.683316    22.410353     14.18813    19.734066    33.265687     9.529828    12.612127     22.30075    14.235163 
  493600     208.3984     59211434            0     59212245    12.683315    22.410352    14.187958    19.733953    33.265588    9.5126252    12.612127     22.30075    14.235163 
  493800    335.40941     59210729            0     59212035     12.68331    22.410374    14.188232    19.733438    33.267792    9.5400032    12.612127     22.30075    14.235163 
  494000    194.00262     59210930            0     59211685    12.683318    22.410354    14.188303    19.734272    33.265714    9.5471114    12.612127     22.30075    14.235163 
  494200    150.05268     59210531            0     59211115    12.683291    22.410365    14.188242    19.731574     33.26683    9.5410372    12.612127     22.30075    14.235163 
  494400    191.55505     59210878            0     59211624    12.683332    22.410354    14.188161    19.735694    33.265772    9.5329126    12.612127     22.30075    14.235163 
  494600    52.991345     59210353            0     59210559    12.683316    22.410352    14.188009    19.734039    33.265548    9.5177572    12.612127     22.30075    14.235163 
  494800    262.84383     59210489            0     59211512    12.683316    22.410353    14.188032    19.734014    33.265686    9.5200812    12.612127     22.30075    14.235163 
  495000    105.86464     59210250            0     59210662    12.683336    22.410321    14.188215     19.73601    33.262456     9.538321    12.612127     22.30075    14.235163 
  495200    309.82398     59210944            0     59212151    12.683311    22.410363     14.18803    19.733501    33.266697    9.5198795    12.612127     22.30075    14.235163 
  495400    381.12967     59211142            0     59212626    12.683312     22.41035    14.187953    19.733608    33.265406    9.5121238    12.612127     22.30075    14.235163 
  495600    200.25966     59210968            0     59211748    12.683326    22.410348     14.18834    19.735022    33.265148    9.5508649    12.612127     22.30075    14.235163 
  495800     214.2116     59211861            0     59212694    12.683315     22.41034    14.188037    19.733988     33.26437     9.520566    12.612127     22.30075    14.235163 
  496000     144.9085     59210624            0     59211189    12.683314    22.410365    14.188101    19.733858    33.266862    9.5269845    12.612127     22.30075    14.235163 
  496200     149.9294     59211708            0     59212291    12.683323    22.410334    14.188138     19.73473    33.263709    9.5306217    12.612127     22.30075    14.235163 
  496400    237.02279     59211035            0     59211958    12.683318    22.410349    14.187986    19.734237    33.265304    9.5154396    12.612127     22.30075    14.235163 
  496600    110.19734     59210434            0     59210863    12.683319    22.410347    14.188058    19.734332     33.26506    9.5226629    12.612127     22.30075    14.235163 
  496800    143.16655     59211397            0     59211954    12.683327    22.410347    14.188129    19.735192    33.265013    9.5297386    12.612127     22.30075    14.235163 
  497000    226.86096     59211769            0     59212652    12.683307    22.410375    14.188304    19.733119    33.267908    9.5472452    12.612127     22.30075    14.235163 
  497200    375.78962     59210885            0     59212348    12.683316    22.410353     14.18825    19.734019    33.265685    9.5418917    12.612127     22.30075    14.235163 
  497400    237.15453     59210942            0     59211866    12.683272    22.410307    14.188164    19.729634    33.261063    9.5332249    12.612127     22.30075    14.235163 
  497600     192.9645     59212054            0     59212805    12.683311    22.410363    14.188064    19.733508    33.266652     9.523256    12.612127     22.30075    14.235163 
  497800    201.00683     59210733            0     59211515    12.683321    22.410374    14.188216    19.734519    33.267808    9.5384366    12.612127     22.30075    14.235163 
  498000    397.36556     59211373            0     59212920    12.683338    22.410361    14.188131    19.736282    33.266481    9.5299897    12.612127     22.30075    14.235163 
  498200     295.6295     59210326            0     59211477    12.683347    22.410334    14.188067    19.737145    33.263772    9.5235052    12.612127     22.30075    14.235163 
  498400    161.73676     59211366            0     59211996    12.683332    22.410368    14.188307    19.735614    33.267183    9.5475319    12.612127     22.30075    14.235163 
  498600    139.26083     59211273            0     59211815    12.683293    22.410348    14.188113    19.731765    33.265174    9.5281571    12.612127     22.30075    14.235163 
  498800    156.02366     59210501            0     59211109    12.683297    22.410324    14.188115    19.732115    33.262801     9.528385    12.612127     22.30075    14.235163 
  499000    273.37728     59211154            0     59212218    12.683319    22.410363    14.187955    19.734358    33.266675    9.5123421    12.612127     22.30075    14.235163 
  499200    195.09139     59211039            0     59211798    12.683284    22.410394    14.188399    19.730812    33.269742    9.5567311    12.612127     22.30075    14.235163 
  499400    160.32555     59210501            0     59211125    12.683316    22.410353    14.188021    19.734011    33.265687    9.5189413    12.612127     22.30075    14.235163 
  499600    99.985387     59211760            0     59212149    12.683326    22.410353     14.18806    19.735069     33.26567    9.5228722    12.612127     22.30075    14.235163 
  499800    330.55512     59210667            0     59211953    12.683316    22.410353    14.188259    19.734013    33.265686    9.5427861    12.612127     22.30075    14.235163 
  500000    212.30542     59210257            0     59211084    12.683314    22.410351    14.188055    19.733798    33.265483    9.5223812    12.612127     22.30075    14.235163 
  500200    239.16683     59212082            0     59213013    12.683313    22.410359    14.188212    19.733783    33.266209    9.5380044    12.612127     22.30075    14.235163 
  500400    277.42667     59210992            0     59212072    12.683327    22.410371    14.187993    19.735145    33.267489    9.5161334    12.612127     22.30075    14.235163 
  500600    100.17038     59210892            0     59211282    12.683311    22.410366    14.188345    19.733551     33.26698    9.5513323    12.612127     22.30075    14.235163 
  500800    276.90476     59210522            0     59211600    12.683302    22.410356     14.18827    19.732635    33.265998     9.543854    12.612127     22.30075    14.235163 
  501000    294.92039     59210998            0     59212146    12.683313    22.410353    14.188274    19.733789    33.265698    9.5442992    12.612127     22.30075    14.235163 
  501200     144.7592     59210858            0     59211422    12.683311     22.41029    14.188031    19.733522    33.259346    9.5199293    12.612127     22.30075    14.235163 
  501400     203.5011     59211209            0     59212002    12.683304    22.410354    14.188005    19.732802    33.265753    9.5173278    12.612127     22.30075    14.235163 
  501600    156.64201     59210754            0     59211364    12.683314    22.410356    14.188071     19.73385    33.266008    9.5239189    12.612127     22.30075    14.235163 
  501800     266.1502     59210968            0     59212004    12.683303    22.410378     14.18832    19.732747    33.268181    9.5488996    12.612127     22.30075    14.235163 
  502000    254.83022     59210999            0     59211991    12.683316    22.410353    14.187937    19.734015    33.265686    9.5105305    12.612127     22.30075    14.235163 
  502200    217.37697     59210850            0     59211696    12.683311    22.410356     14.18811    19.733528    33.265947    9.5278804    12.612127     22.30075    14.235163 
  502400     166.1266     59210985            0     59211632     12.68332    22.410345    14.188013     19.73441    33.264837    9.5181008    12.612127     22.30075    14.235163 
  502600    174.20817     59210274            0     59210953    12.683329    22.410354    14.188261    19.735391    33.265722    9.5429561    12.612127     22.30075    14.235163 
  502800    238.93316     59210755            0     59211685    12.683324    22.410355    14.187987    19.734873    33.265865      9.51552    12.612127     22.30075    14.235163 
  503000    230.39947     59210209            0     59211106    12.683316    22.410355    14.188104    19.734086     33.26587    9.5272624    12.612127     22.30075    14.235163 
  503200    284.99864     59210652            0     59211762    12.683281    22.410326    14.188132    19.730509     33.26297     9.530055    12.612127     22.30075    14.235163 
  503400    223.72376     59211318            0     59212188     12.68331    22.410328    14.187974    19.733439    33.263184    9.5141897    12.612127     22.30075    14.235163 
  503600    180.19685     59210512            0     59211213    12.683297    22.410355    14.188313    19.732194    33.265817    9.5481439    12.612127     22.30075    14.235163 
  503800    270.06358     59211585            0     59212637    12.683314    22.410353     14.18811    19.733893    33.265693    9.5278582    12.612127     22.30075    14.235163 
  504000    269.16693     59210261            0     59211309    12.683339    22.410347    14.188167    19.736336    33.265022    9.5335548    12.612127     22.30075    14.235163 
  504200    80.595563     59211782            0     59212096    12.683308    22.410346    14.188047    19.733258    33.265007    9.5214916    12.612127     22.30075    14.235163 
  504400    215.29192     59212043            0     59212881    12.683315    22.410363    14.188505    19.733935    33.266694    9.5673359    12.612127     22.30075    14.235163 
  504600    158.53616     59212259            0     59212876    12.683323    22.410364    14.188216    19.734724    33.266741     9.538425    12.612127     22.30075    14.235163 
  504800    190.72332     59211437            0     59212179     12.68335    22.410351    14.187966    19.737442    33.265491    9.5133885    12.612127     22.30075    14.235163 
  505000    123.56273     59211937            0     59212418    12.683309    22.410354     14.18803    19.733325    33.265725    9.5198218    12.612127     22.30075    14.235163 
  505200    379.70598     59210856            0     59212334    12.683328    22.410333    14.188163    19.735265    33.263642    9.5331585    12.612127     22.30075    14.235163 
  505400    263.50263     59210492            0     59211517    12.683303    22.410355     14.18821    19.732748    33.265874    9.5378828    12.612127     22.30075    14.235163 
  505600    154.55094     59210656            0     59211258      12.6833    22.410354    14.188165    19.732437    33.265773    9.5333691    12.612127     22.30075    14.235163 
  505800    265.52116     59210404            0     59211438     12.68333    22.410352    14.188051    19.735455    33.265545    9.5219287    12.612127     22.30075    14.235163 
  506000    127.24209     59210940            0     59211435    12.683308    22.410368    14.188039    19.733267     33.26716    9.5207524    12.612127     22.30075    14.235163 
  506200    128.42766     59210297            0     59210796    12.683316    22.410353    14.188271    19.734008    33.265678    9.5439352    12.612127     22.30075    14.235163 
  506400    145.58721     59210487            0     59211054    12.683321    22.410354    14.188166    19.734579    33.265786    9.5334506    12.612127     22.30075    14.235163 
  506600    257.29244     59210959            0     59211961    12.683231    22.410365    14.188243    19.725547    33.266877    9.5411714    12.612127     22.30075    14.235163 
  506800    244.98002     59211073            0     59212027    12.683318     22.41033    14.188158    19.734265    33.263401    9.5326754    12.612127     22.30075    14.235163 
  507000    139.17267     59210422            0     59210964    12.683327    22.410353    14.188013    19.735187    33.265659    9.5181351    12.612127     22.30075    14.235163 
  507200    281.85229     59210546            0     59211643    12.683334    22.410346    14.188187    19.735845     33.26496    9.5355937    12.612127     22.30075    14.235163 
  507400     305.5678     59211538            0     59212728    12.683319    22.410353    14.188206    19.734362    33.265667    9.5374726    12.612127     22.30075    14.235163 
  507600    259.43544     59210750            0     59211760    12.683322    22.410342    14.187915    19.734609    33.264512    9.5083263    12.612127     22.30075    14.235163 
  507800    229.14816     59210228            0     59211120    12.683319    22.410355    14.188175     19.73439    33.265841    9.5343776    12.612127     22.30075    14.235163 
  508000    142.21392     59211626            0     59212179    12.683324    22.410337    14.188217    19.734815    33.264106    9.5385417    12.612127     22.30075    14.235163 
  508200    148.38394     59211876            0     59212453    12.683317     22.41035    14.188201    19.734172    33.265389    9.5368996    12.612127     22.30075    14.235163 
  508400    96.708742     59211311            0     59211687    12.683301    22.410351    14.188206    19.732511    33.265414    9.5374257    12.612127     22.30075    14.235163 
  508600    214.95725     59210675            0     59211512    12.683314    22.410356    14.188237    19.733873    33.265965    9.5405012    12.612127     22.30075    14.235163 
  508800    180.55808     59210082            0     59210785    12.683319    22.410371    14.188092    19.734367    33.267423    9.5260599    12.612127     22.30075    14.235163 
  509000    193.20636     59210904            0     59211657     12.68331    22.410355    14.187982    19.733473    33.265869    9.5150694    12.612127     22.30075    14.235163 
  509200    173.41742     59211507            0     59212182    12.683299    22.410333    14.188067    19.732361    33.263671    9.5234918    12.612127     22.30075    14.235163 
  509400     138.9839     59210681            0     59211222    12.683341    22.410381    14.188199    19.736526      33.2685    9.5367493    12.612127     22.30075    14.235163 
  509600    168.68311     59211309            0     59211966    12.683312    22.410357    14.188201     19.73364    33.266022    9.5369915    12.612127     22.30075    14.235163 
  509800     186.0226     59211040            0     59211764    12.683313    22.410348    14.188307    19.733732    33.265111    9.5475254    12.612127     22.30075    14.235163 
  510000    220.02342     59210639            0     59211496    12.683305    22.410345    14.188127     19.73294    33.264827     9.529536    12.612127     22.30075    14.235163 
  510200    233.10701     59211444            0     59212351    12.683328     22.41033     14.18813    19.735216    33.263311    9.5298101    12.612127     22.30075    14.235163 
  510400    127.25293     59212036            0     59212532    12.683332    22.410378    14.188066    19.735673    33.268193    9.5234313    12.612127     22.30075    14.235163 
  510600    443.18009     59210375            0     59212101    12.683326    22.410347    14.188005    19.735078    33.265107    9.5173012    12.612127     22.30075    14.235163 
  510800    295.52322     59211352            0     59212502    12.683326    22.410339     14.18823    19.735058    33.264275    9.5398428    12.612127     22.30075    14.235163 
  511000    86.552304     59210828            0     59211165     12.68331    22.410345     14.18816    19.733472    33.264907    9.5328227    12.612127     22.30075    14.235163 
  511200    151.61251     59210644            0     59211235    12.683296    22.410339    14.188115    19.732077    33.264293    9.5283221    12.612127     22.30075    14.235163 
  511400    198.22842     59211138            0     59211910    12.683307    22.410349     14.18803    19.733141    33.265251    9.5198188    12.612127     22.30075    14.235163 
  511600    151.61997     59211541            0     59212131    12.683328    22.410358    14.188056    19.735207    33.266185    9.5224374    12.612127     22.30075    14.235163 
  511800    245.83716     59211249            0     59212206    12.683306    22.410372    14.188301    19.733031    33.267601    9.5469609    12.612127     22.30075    14.235163 
  512000    281.45988     59211276            0     59212371    12.683315    22.410354    14.187898    19.733972    33.265759    9.5066361    12.612127     22.30075    14.235163 
  512200    314.62601     59211242            0     59212467    12.683337    22.410337    14.188349    19.736197    33.264065    9.5517634    12.612127     22.30075    14.235163 
  512400     153.2165     59211367            0     59211964    12.683315    22.410354    14.188299    19.733984    33.265746    9.5467689    12.612127     22.30075    14.235163 
  512600    219.19775     59211584            0     59212437    12.683316    22.410353      14.1881    19.734014    33.265686    9.5268495    12.612127     22.30075    14.235163 
  512800    337.59006     59211442            0     59212756    12.683297    22.410349    14.188043    19.732167    33.265219    9.5211654    12.612127     22.30075    14.235163 
  513000    268.60767     59210943            0     59211989    12.683312    22.410354      14.1883    19.733689     33.26571    9.5468287    12.612127     22.30075    14.235163 
  513200    165.54276     59211452            0     59212097    12.683329    22.410326    14.187971    19.735375    33.262993    9.5139247    12.612127     22.30075    14.235163 
  513400    360.75961     59211073            0     59212478    12.683317    22.410355    14.188156    19.734111    33.265831    9.5324737    12.612127     22.30075    14.235163 
  513600     264.5624     59211829            0     59212858    12.683326    22.410353    14.188201    19.735075    33.265626    9.5369453    12.612127     22.30075    14.235163 
  513800    275.79278     59210459            0     59211533    12.683304    22.410339    14.188188    19.732864    33.264261    9.5356956    12.612127     22.30075    14.235163 
  514000    247.61729     59210225            0     59211189      12.6833    22.410402    14.188196    19.732404    33.270519    9.5364259    12.612127     22.30075    14.235163 
  514200    117.50841     59210674            0     59211132    12.683312    22.410356    14.188116    19.733665    33.265981    9.5284051    12.612127     22.30075    14.235163 
  514400    301.28386     59210612            0     59211785    12.683295     22.41038     14.18822    19.731965    33.268332    9.5388581    12.612127     22.30075    14.235163 
  514600    153.05781     59210756            0     59211352     12.68331    22.410365    14.188216     19.73342    33.266871    9.5384245    12.612127     22.30075    14.235163 
  514800    226.49448     59210983            0     59211864    12.683316    22.410353    14.188171    19.734085    33.265611    9.5339137    12.612127     22.30075    14.235163 
  515000    148.95416     59210994            0     59211574    12.683354    22.410342    14.188258    19.737814    33.264533    9.5426748    12.612127     22.30075    14.235163 
  515200    210.09571     59211023            0     59211841    12.683308    22.410351    14.188168      19.7332    33.265471    9.5336874    12.612127     22.30075    14.235163 
  515400    206.75554     59211209            0     59212014    12.683321    22.410354    14.188185    19.734526    33.265733    9.5353333    12.612127     22.30075    14.235163 
  515600    132.48191     59210637            0     59211152    12.683323    22.410338    14.188061    19.734771    33.264188    9.5229724    12.612127     22.30075    14.235163 
  515800    357.20011     59210725            0     59212116    12.683309    22.410361    14.188233    19.733324    33.266486    9.5401119    12.612127     22.30075    14.235163 
  516000    249.47492     59210844            0     59211816    12.683333    22.410379    14.188184    19.735767    33.268304    9.5352457    12.612127     22.30075    14.235163 
  516200    123.61696     59210294            0     59210775      12.6833    22.410341    14.188072    19.732491    33.264494    9.5240821    12.612127     22.30075    14.235163 
  516400    191.87692     59211210            0     59211957    12.683308    22.410353     14.18805    19.733247     33.26563    9.5218744    12.612127     22.30075    14.235163 
  516600    161.60859     59210853            0     59211482    12.683341    22.410352    14.188086    19.736565    33.265524    9.5254892    12.612127     22.30075    14.235163 
  516800    113.64803     59212210            0     59212652    12.683328     22.41037    14.188176    19.735261    33.267339    9.5344546    12.612127     22.30075    14.235163 
  517000     210.6199     59210845            0     59211665    12.683306    22.410324    14.188154    19.733031    33.262779    9.5322836    12.612127     22.30075    14.235163 
  517200    109.45999     59210317            0     59210743    12.683318    22.410347    14.188075    19.734284    33.265069    9.5243743    12.612127     22.30075    14.235163 
  517400    219.26906     59210398            0     59211252    12.683296    22.410373    14.187952    19.732054    33.267648    9.5120696    12.612127     22.30075    14.235163 
  517600    207.40031     59211471            0     59212278    12.683317    22.410355    14.188218    19.734143    33.265885    9.5386256    12.612127     22.30075    14.235163 
  517800    211.68074     59211491            0     59212315    12.683305    22.410363    14.188189    19.732927    33.266692    9.5357533    12.612127     22.30075    14.235163 
  518000    175.63705     59210252            0     59210936    12.683357     22.41032    14.188275    19.738142    33.262385    9.5443485    12.612127     22.30075    14.235163 
  518200    192.41679     59210525            0     59211275    12.683286    22.410376    14.188148    19.731094    33.267972    9.5316164    12.612127     22.30075    14.235163 
  518400    283.20762     59210738            0     59211841    12.683322    22.410364     14.18813     19.73463     33.26676    9.5298303    12.612127     22.30075    14.235163 
  518600    256.78537     59211814            0     59212813    12.683316    22.410353    14.188042     19.73402    33.265676    9.5210687    12.612127     22.30075    14.235163 
  518800    448.42831     59209769            0     59211515    12.683306    22.410344    14.188101    19.733056    33.264725    9.5269372    12.612127     22.30075    14.235163 
  519000     146.1099     59211675            0     59212244    12.683321    22.410372    14.188266    19.734585    33.267543    9.5434235    12.612127     22.30075    14.235163 
  519200    209.23345     59211158            0     59211972    12.683344     22.41035    14.187879    19.736857    33.265374    9.5046895    12.612127     22.30075    14.235163 
  519400    170.83363     59211438            0     59212103    12.683339    22.410361    14.187909    19.736311    33.266482    9.5077773    12.612127     22.30075    14.235163 
  519600    229.56511     59212591            0     59213484    12.683316    22.410344    14.188053    19.734096     33.26476    9.5221028    12.612127     22.30075    14.235163 
  519800    253.57653     59211461            0     59212448    12.683322    22.410332    14.188068    19.734611     33.26357    9.5236275    12.612127     22.30075    14.235163 
  520000    300.71819     59210558            0     59211728    12.683316    22.410348    14.187957    19.734051    33.265128    9.5125525    12.612127     22.30075    14.235163 
  520200    212.76822     59210567            0     59211395    12.683316    22.410352    14.188248     19.73402    33.265585    9.5416101    12.612127     22.30075    14.235163 
  520400    89.107103     59212102            0     59212449    12.683338    22.410341    14.187894     19.73623    33.264492     9.506195    12.612127     22.30075    14.235163 
  520600    176.11124     59210226            0     59210912    12.683328    22.410352    14.188001    19.735265    33.265603    9.5169182    12.612127     22.30075    14.235163 
  520800    260.09995     59211801            0     59212813    12.683316    22.410353    14.188145    19.734013    33.265687    9.5313057    12.612127     22.30075    14.235163 
  521000    147.10784     59210561            0     59211134    12.683295    22.410354    14.188142    19.731921    33.265788    9.5310152    12.612127     22.30075    14.235163 
  521200    131.41775     59211458            0     59211970    12.683314    22.410354    14.188245    19.733872    33.265742    9.5413704    12.612127     22.30075    14.235163 
  521400    149.67317     59211831            0     59212414    12.683328    22.410335    14.188446    19.735275    33.263904    9.5614387    12.612127     22.30075    14.235163 
  521600     323.7532     59212000            0     59213261    12.683292    22.410368    14.188313     19.73168    33.267208    9.5481194    12.612127     22.30075    14.235163 
  521800    167.60989     59211395            0     59212048    12.683304    22.410373    14.188238    19.732883    33.267629    9.5406017    12.612127     22.30075    14.235163 
  522000    68.755079     59210859            0     59211127    12.683328    22.410396    14.188011    19.735292    33.269944    9.5179373    12.612127     22.30075    14.235163 
  522200    199.43372     59210213            0     59210990    12.683334    22.410343    14.188187    19.735887    33.264616    9.5355812    12.612127     22.30075    14.235163 
  522400    235.93722     59211276            0     59212194    12.683339    22.410377    14.188153    19.736312    33.268103      9.53217    12.612127     22.30075    14.235163 
  522600    240.77026     59210453            0     59211390    12.683328    22.410349    14.188069    19.735288    33.265237    9.5237844    12.612127     22.30075    14.235163 
  522800    92.702112     59210954            0     59211315    12.683333    22.410356    14.188215    19.735705     33.26592    9.5383161    12.612127     22.30075    14.235163 
  523000    258.42665     59210914            0     59211920    12.683323    22.410335    14.188237    19.734782    33.263891    9.5405874    12.612127     22.30075    14.235163 
  523200    328.49713     59210644            0     59211923    12.683307    22.410335    14.188221    19.733107    33.263816    9.5389572    12.612127     22.30075    14.235163 
  523400    210.11152     59211454            0     59212272    12.683343    22.410358    14.188138    19.736765    33.266129    9.5306324    12.612127     22.30075    14.235163 
  523600    99.746053     59210119            0     59210508    12.683313    22.410353    14.188208    19.733727    33.265699    9.5376498    12.612127     22.30075    14.235163 
  523800    295.48706     59210616            0     59211767    12.683316    22.410353    14.187991    19.734015    33.265684    9.5159293    12.612127     22.30075    14.235163 
  524000    120.09954     59211261            0     59211728    12.683316    22.410353    14.187937    19.734042    33.265633     9.510561    12.612127     22.30075    14.235163 
  524200     220.2758     59212067            0     59212924    12.683311    22.410374    14.188005     19.73357    33.267765    9.5173135    12.612127     22.30075    14.235163 
  524400    255.32819     59211320            0     59212314    12.683315    22.410353    14.187927     19.73392     33.26565    9.5095214    12.612127     22.30075    14.235163 
  524600    159.06364     59211201            0     59211820    12.683317    22.410359    14.188137    19.734148    33.266254    9.5305846    12.612127     22.30075    14.235163 
  524800    300.41373     59211215            0     59212384    12.683304    22.410338    14.188054    19.732886    33.264183    9.5222785    12.612127     22.30075    14.235163 
  525000    280.13494     59211350            0     59212440    12.683297    22.410353    14.187863    19.732159    33.265614    9.5031821    12.612127     22.30075    14.235163 
  525200    210.61237     59211105            0     59211925    12.683323    22.410364    14.188357    19.734701    33.266738    9.5525151    12.612127     22.30075    14.235163 
  525400    341.29116     59211545            0     59212873    12.683313    22.410354    14.188084     19.73376    33.265726    9.5252548    12.612127     22.30075    14.235163 
  525600     251.4977     59212011            0     59212990    12.683316    22.410353     14.18832    19.734017    33.265689    9.5488429    12.612127     22.30075    14.235163 
  525800     378.7756     59210097            0     59211571      12.6833     22.41035    14.188195    19.732447    33.265351    9.5363483    12.612127     22.30075    14.235163 
  526000    163.12867     59211063            0     59211698    12.683308    22.410357    14.187898    19.733256    33.266039    9.5066511    12.612127     22.30075    14.235163 
  526200    357.18917     59211531            0     59212922     12.68331    22.410318    14.188308    19.733477    33.262154    9.5476473    12.612127     22.30075    14.235163 
  526400    197.43334     59210866            0     59211634    12.683323    22.410344    14.188174    19.734768    33.264793    9.5342748    12.612127     22.30075    14.235163 
  526600    229.52259     59211143            0     59212037    12.683309    22.410354    14.187902    19.733363    33.265717    9.5070144    12.612127     22.30075    14.235163 
  526800    157.59842     59211203            0     59211817    12.683317    22.410353    14.188037    19.734173     33.26561    9.5204911    12.612127     22.30075    14.235163 
  527000    335.12529     59211778            0     59213082    12.683323    22.410337     14.18808    19.734708    33.264025    9.5247964    12.612127     22.30075    14.235163 
  527200    180.17949     59210790            0     59211492    12.683316    22.410353    14.188076    19.734014    33.265688    9.5244406    12.612127     22.30075    14.235163 
  527400    135.09523     59210376            0     59210902    12.683322    22.410341    14.188014    19.734667    33.264445    9.5182053    12.612127     22.30075    14.235163 
  527600    225.56765     59209957            0     59210835    12.683317    22.410353    14.188115    19.734119     33.26568    9.5282988    12.612127     22.30075    14.235163 
  527800    120.03423     59210584            0     59211051    12.683323    22.410359    14.188231    19.734789     33.26623     9.539981    12.612127     22.30075    14.235163 
  528000    185.86504     59210552            0     59211276    12.683286    22.410335    14.188037    19.731094    33.263871    9.5205713    12.612127     22.30075    14.235163 
  528200    134.71013     59209968            0     59210492    12.683311    22.410327    14.188152     19.73351    33.263105    9.5320397    12.612127     22.30075    14.235163 
  528400    208.77694     59210571            0     59211383     12.68336    22.410349     14.18821    19.738452    33.265243    9.5378047    12.612127     22.30075    14.235163 
  528600    238.13136     59211019            0     59211946    12.683316    22.410351    14.188061    19.734091    33.265477    9.5229891    12.612127     22.30075    14.235163 
  528800     126.3695     59211451            0     59211943    12.683321    22.410354    14.188146    19.734543    33.265791    9.5314304    12.612127     22.30075    14.235163 
  529000     162.0542     59211079            0     59211710    12.683354    22.410329    14.188003    19.737804    33.263257    9.5171464    12.612127     22.30075    14.235163 
  529200    254.09069     59211116            0     59212105    12.683317    22.410354    14.187844    19.734135    33.265749    9.5011881    12.612127     22.30075    14.235163 
  529400    176.95269     59210441            0     59211130    12.683328    22.410371    14.188241    19.735285    33.267488    9.5409961    12.612127     22.30075    14.235163 
  529600    210.07444     59211046            0     59211864     12.68327    22.410341    14.188226    19.729472    33.264456    9.5394674    12.612127     22.30075    14.235163 
  529800    158.22525     59210803            0     59211419    12.683316    22.410361    14.188151    19.734067    33.266491    9.5319456    12.612127     22.30075    14.235163 
  530000    187.21377     59210926            0     59211655    12.683317    22.410351    14.188325     19.73415    33.265412    9.5493584    12.612127     22.30075    14.235163 
  530200    243.05401     59210213            0     59211159    12.683315    22.410355    14.188007    19.733945    33.265815    9.5175409    12.612127     22.30075    14.235163 
  530400    139.23557     59212436            0     59212978    12.683306    22.410348    14.187939    19.733084    33.265124    9.5107659    12.612127     22.30075    14.235163 
  530600      73.9178     59210873            0     59211161    12.683333    22.410383    14.188329    19.735763    33.268642    9.5497856    12.612127     22.30075    14.235163 
  530800    221.97467     59209780            0     59210644    12.683308    22.410328    14.188077    19.733247     33.26312    9.5245148    12.612127     22.30075    14.235163 
  531000    112.41124     59210671            0     59211109    12.683324    22.410338     14.18809    19.734807    33.264157    9.5258574    12.612127     22.30075    14.235163 
  531200    244.09198     59211904            0     59212854    12.683298     22.41032    14.188046     19.73226    33.262353    9.5214053    12.612127     22.30075    14.235163 
  531400     157.8513     59210410            0     59211025    12.683314    22.410356     14.18811    19.733866    33.265978    9.5278218    12.612127     22.30075    14.235163 
  531600    246.01117     59211731            0     59212689    12.683316    22.410353    14.188256    19.734017    33.265691    9.5424148    12.612127     22.30075    14.235163 
  531800    194.52646     59211614            0     59212371    12.683323    22.410326    14.188237     19.73476    33.262913    9.5404986    12.612127     22.30075    14.235163 
  532000    276.43236     59210322            0     59211398    12.683337     22.41033    14.188165    19.736129    33.263398     9.533307    12.612127     22.30075    14.235163 
  532200    419.69147     59210621            0     59212255    12.683339    22.410332    14.188169    19.736353    33.263574    9.5337753    12.612127     22.30075    14.235163 
  532400     332.3569     59211423            0     59212717    12.683306    22.410368     14.18821    19.733038      33.2672    9.5378588    12.612127     22.30075    14.235163 
  532600    201.69746     59210250            0     59211036     12.68333    22.410352    14.188017    19.735467    33.265606    9.5185095    12.612127     22.30075    14.235163 
  532800    200.93082     59211138            0     59211921    12.683297    22.410326    14.187909      19.7321    33.262935    9.5077298    12.612127     22.30075    14.235163 
  533000     189.7458     59211637            0     59212375    12.683311    22.410368     14.18805      19.7335    33.267191    9.5218871    12.612127     22.30075    14.235163 
  533200     303.8074     59209665            0     59210848    12.683304    22.410362    14.188143    19.732862    33.266577    9.5311168    12.612127     22.30075    14.235163 
  533400    181.01894     59211443            0     59212148    12.683327    22.410354    14.188058    19.735113     33.26579    9.5226549    12.612127     22.30075    14.235163 
  533600    220.46269     59210678            0     59211536    12.683328    22.410361    14.187949    19.735273    33.266484    9.5117056    12.612127     22.30075    14.235163 
  533800     193.5667     59210195            0     59210948    12.683301    22.410371    14.188148    19.732588    33.267422     9.531634    12.612127     22.30075    14.235163 
  534000    241.71118     59210683            0     59211624    12.683317    22.410352    14.187961    19.734108    33.265598    9.5129235    12.612127     22.30075    14.235163 
  534200    116.49083     59210626            0     59211080    12.683337    22.410375    14.188191     19.73611    33.267885    9.5359916    12.612127     22.30075    14.235163 
  534400    202.11487     59211478            0     59212264    12.683314    22.410354     14.18818    19.733855    33.265755    9.5348585    12.612127     22.30075    14.235163 
  534600    143.68944     59210738            0     59211297     12.68332    22.410346    14.188156    19.734405    33.264953    9.5324937    12.612127     22.30075    14.235163 
  534800    213.46372     59211561            0     59212392    12.683324    22.410344    14.188084     19.73485    33.264782    9.5252433    12.612127     22.30075    14.235163 
  535000    218.86052     59211082            0     59211934    12.683304    22.410397    14.188279    19.732836    33.270052    9.5447522    12.612127     22.30075    14.235163 
  535200    297.90704     59210433            0     59211593    12.683326    22.410332    14.188332    19.735078    33.263571    9.5500573    12.612127     22.30075    14.235163 
  535400    294.12755     59210293            0     59211438    12.683286    22.410355    14.188272     19.73104    33.265861    9.5440009    12.612127     22.30075    14.235163 
  535600     171.4826     59210809            0     59211476    12.683316    22.410352    14.188361    19.734053    33.265605    9.5529108    12.612127     22.30075    14.235163 
  535800    224.30368     59211020            0     59211893    12.683317    22.410353     14.18804     19.73411    33.265704    9.5208625    12.612127     22.30075    14.235163 
  536000    136.44511     59211085            0     59211617    12.683339    22.410342    14.188283    19.736323    33.264544    9.5451847    12.612127     22.30075    14.235163 
  536200    159.85007     59210729            0     59211351    12.683318    22.410357    14.188347    19.734262    33.266067    9.5515154    12.612127     22.30075    14.235163 
  536400    264.78785     59210983            0     59212014    12.683309    22.410357    14.188177    19.733382    33.266053    9.5345017    12.612127     22.30075    14.235163 
  536600    533.02393     59210642            0     59212717    12.683302    22.410333    14.188272    19.732674    33.263685    9.5440628    12.612127     22.30075    14.235163 
  536800    261.00901     59210404            0     59211420    12.683326    22.410352    14.187947    19.735054    33.265553    9.5115318    12.612127     22.30075    14.235163 
  537000    178.77504     59211657            0     59212353    12.683295    22.410363    14.188102    19.731971    33.266697    9.5270356    12.612127     22.30075    14.235163 
  537200    87.647497     59210893            0     59211234    12.683311     22.41033    14.187946    19.733589    33.263318    9.5113866    12.612127     22.30075    14.235163 
  537400    159.74067     59211021            0     59211643    12.683301    22.410394    14.188341      19.7325    33.269729    9.5509831    12.612127     22.30075    14.235163 
  537600    276.54435     59210332            0     59211408    12.683331    22.410352    14.188042    19.735515    33.265603    9.5210209    12.612127     22.30075    14.235163 
  537800     201.1808     59211351            0     59212134    12.683313    22.410361    14.188208    19.733755    33.266483    9.5376636    12.612127     22.30075    14.235163 
  538000    194.28556     59211280            0     59212036     12.68331    22.410342    14.188176    19.733437    33.264582    9.5344377    12.612127     22.30075    14.235163 
  538200    73.843103     59211163            0     59211451    12.683327    22.410353    14.188289     19.73514    33.265622    9.5457023    12.612127     22.30075    14.235163 
  538400    290.18184     59211355            0     59212484    12.683311    22.410363    14.188068    19.733562    33.266616    9.5236826    12.612127     22.30075    14.235163 
  538600    160.97617     59210271            0     59210897    12.683316    22.410353     14.18816    19.734013    33.265686    9.5328441    12.612127     22.30075    14.235163 
  538800    160.40772     59211199            0     59211824    12.683321    22.410362    14.188169    19.734579    33.266607    9.5337332    12.612127     22.30075    14.235163 
  539000    311.47749     59210723            0     59211935    12.683324    22.410381    14.188096    19.734857    33.268422    9.5263977    12.612127     22.30075    14.235163 
  539200    238.08134     59212354            0     59213280    12.683294    22.410367    14.188175    19.731872    33.267016    9.5343847    12.612127     22.30075    14.235163 
  539400    147.07612     59211136            0     59211709     12.68331    22.410352    14.188289    19.733496    33.265591    9.5457857    12.612127     22.30075    14.235163 
  539600    277.01893     59211312            0     59212390    12.683322    22.410353    14.187838    19.734647    33.265652    9.5006327    12.612127     22.30075    14.235163 
  539800     238.2053     59210959            0     59211886    12.683316    22.410353    14.188003    19.734015    33.265687    9.5171672    12.612127     22.30075    14.235163 
  540000    217.40811     59211237            0     59212083    12.683316    22.410353    14.188055    19.734007    33.265694    9.5223266    12.612127     22.30075    14.235163 
  540200    282.34804     59210569            0     59211668    12.683328    22.410355    14.188073    19.735264    33.265895    9.5241508    12.612127     22.30075    14.235163 
  540400    181.21971     59210719            0     59211424    12.683273    22.410333    14.188117     19.72978    33.263634    9.5285919    12.612127     22.30075    14.235163 
  540600    326.27574     59211100            0     59212370    12.683302    22.410336    14.187993    19.732692    33.263952    9.5161267    12.612127     22.30075    14.235163 
  540800    223.21407     59210697            0     59211566    12.683316    22.410353    14.188168    19.734009    33.265687    9.5336289    12.612127     22.30075    14.235163 
  541000    63.739384     59211645            0     59211893    12.683302    22.410331    14.188155    19.732691    33.263504    9.5323046    12.612127     22.30075    14.235163 
  541200    232.87061     59210737            0     59211643    12.683316    22.410353    14.188216    19.734006    33.265687    9.5384737    12.612127     22.30075    14.235163 
  541400    260.14307     59210052            0     59211065    12.683317    22.410353    14.188156    19.734137     33.26568    9.5324358    12.612127     22.30075    14.235163 
  541600    110.80095     59210372            0     59210803    12.683313    22.410357    14.187925    19.733717    33.266077    9.5093032    12.612127     22.30075    14.235163 
  541800    253.70572     59211289            0     59212277    12.683316    22.410353    14.188147    19.734013    33.265686      9.53159    12.612127     22.30075    14.235163 
  542000    218.13249     59210864            0     59211713    12.683302    22.410331    14.188186    19.732627    33.263427    9.5354239    12.612127     22.30075    14.235163 
  542200    118.76692     59211227            0     59211690    12.683316    22.410353    14.187959     19.73402    33.265686    9.5127597    12.612127     22.30075    14.235163 
  542400    408.06624     59210852            0     59212441    12.683301    22.410354    14.188393    19.732528    33.265762    9.5561901    12.612127     22.30075    14.235163 
  542600    169.60366     59212275            0     59212935    12.683319    22.410396    14.188306    19.734378     33.26992    9.5474597    12.612127     22.30075    14.235163 
  542800    39.565389     59210936            0     59211090    12.683293    22.410373    14.187914    19.731769    33.267686    9.5082021    12.612127     22.30075    14.235163 
  543000    165.68736     59210795            0     59211440    12.683322    22.410333    14.188291    19.734639    33.263622    9.5459084    12.612127     22.30075    14.235163 
  543200    165.29139     59210780            0     59211424    12.683344    22.410355    14.188302    19.736854    33.265862    9.5470059    12.612127     22.30075    14.235163 
  543400    294.15806     59210234            0     59211379    12.683308    22.410369    14.188176    19.733216    33.267261    9.5344254    12.612127     22.30075    14.235163 
  543600    287.66292     59211281            0     59212401    12.683319    22.410346    14.188302    19.734305     33.26496    9.5470185    12.612127     22.30075    14.235163 
  543800     135.4508     59211005            0     59211532    12.683309    22.410344    14.188216    19.733321    33.264717    9.5384043    12.612127     22.30075    14.235163 
  544000    171.92987     59210636            0     59211305    12.683303    22.410336    14.188168    19.732777    33.263914    9.5336832    12.612127     22.30075    14.235163 
  544200    150.48508     59209733            0     59210319    12.683306    22.410335     14.18812     19.73304    33.263826    9.5288327    12.612127     22.30075    14.235163 
  544400    224.78519     59211550            0     59212425    12.683286    22.410354    14.188093    19.731025     33.26579     9.526129    12.612127     22.30075    14.235163 
  544600    279.44625     59210854            0     59211942    12.683324    22.410378     14.18821    19.734861    33.268155     9.537837    12.612127     22.30075    14.235163 
  544800    115.11262     59210530            0     59210978    12.683288    22.410332    14.188109    19.731285    33.263607    9.5277299    12.612127     22.30075    14.235163 
  545000     191.0936     59210209            0     59210953     12.68334     22.41036    14.188221    19.736415    33.266331      9.53893    12.612127     22.30075    14.235163 
  545200    259.78224     59210524            0     59211535    12.683281    22.410356    14.188211    19.730568    33.265959    9.5379185    12.612127     22.30075    14.235163 
  545400    131.35013     59211613            0     59212124    12.683317    22.410358    14.188321    19.734163    33.266144    9.5489336    12.612127     22.30075    14.235163 
  545600    102.18638     59210564            0     59210962    12.683294    22.410354    14.188066    19.731821    33.265807    9.5234297    12.612127     22.30075    14.235163 
  545800    209.08065     59210143            0     59210956    12.683311     22.41036    14.188214    19.733581      33.2664    9.5382401    12.612127     22.30075    14.235163 
  546000    241.71355     59210547            0     59211488    12.683259    22.410339    14.188177    19.728381    33.264281    9.5345448    12.612127     22.30075    14.235163 
  546200      135.101     59211513            0     59212039    12.683315    22.410352    14.188156    19.733987    33.265544    9.5324185    12.612127     22.30075    14.235163 
  546400    240.68265     59210742            0     59211679    12.683333    22.410365    14.188257    19.735704    33.266898    9.5425931    12.612127     22.30075    14.235163 
  546600    254.76643     59211032            0     59212023    12.683321     22.41032    14.188257    19.734531    33.262391     9.542536    12.612127     22.30075    14.235163 
  546800    286.96851     59210728            0     59211845    12.683316    22.410353    14.187938    19.734022    33.265686    9.5106492    12.612127     22.30075    14.235163 
  547000    260.27554     59210845            0     59211858    12.683305    22.410318    14.187972    19.732959    33.262158    9.5140333    12.612127     22.30075    14.235163 
  547200    231.90197     59211515            0     59212418    12.683356    22.410351    14.188169    19.738063    33.265451    9.5337223    12.612127     22.30075    14.235163 
  547400    155.30918     59210415            0     59211020    12.683312    22.410361    14.188029    19.733649    33.266409    9.5197028    12.612127     22.30075    14.235163 
  547600    307.15265     59211210            0     59212406    12.683339    22.410354    14.188009    19.736382     33.26579    9.5177202    12.612127     22.30075    14.235163 
  547800    292.12209     59211307            0     59212444    12.683313    22.410356     14.18797    19.733785    33.265997    9.5137983    12.612127     22.30075    14.235163 
  548000    224.51624     59211738            0     59212612    12.683328     22.41035    14.188355    19.735256    33.265324    9.5523561    12.612127     22.30075    14.235163 
  548200    336.66958     59210614            0     59211925    12.683315    22.410352    14.188019    19.733934    33.265555    9.5187833    12.612127     22.30075    14.235163 
  548400    118.95412     59210453            0     59210917    12.683312    22.410349    14.188363    19.733691    33.265255    9.5531053    12.612127     22.30075    14.235163 
  548600      220.805     59210697            0     59211557    12.683295    22.410349    14.188092    19.731956    33.265253    9.5260555    12.612127     22.30075    14.235163 
  548800    158.56949     59210451            0     59211069    12.683304    22.410379    14.188105    19.732897    33.268259    9.5273456    12.612127     22.30075    14.235163 
  549000    122.14948     59210481            0     59210956    12.683334    22.410379    14.188069    19.735833    33.268273    9.5237875    12.612127     22.30075    14.235163 
  549200    149.75163     59211729            0     59212312    12.683304    22.410368    14.188139    19.732801    33.267122    9.5307605    12.612127     22.30075    14.235163 
  549400    165.93614     59212636            0     59213282    12.683316    22.410354    14.188301    19.734051    33.265745    9.5469656    12.612127     22.30075    14.235163 
  549600    106.14813     59210002            0     59210416    12.683311    22.410363    14.188091    19.733552    33.266637    9.5259251    12.612127     22.30075    14.235163 
  549800    289.66456     59212482            0     59213610    12.683275     22.41037    14.188109    19.729901    33.267365     9.527764    12.612127     22.30075    14.235163 
  550000    212.15008     59210299            0     59211125    12.683273    22.410279    14.188043     19.72976    33.258288    9.5211122    12.612127     22.30075    14.235163 
  550200     198.0058     59210884            0     59211654    12.683316    22.410353    14.188231    19.734012    33.265687    9.5399407    12.612127     22.30075    14.235163 
  550400     234.6893     59210595            0     59211509     12.68332    22.410356    14.188119    19.734457    33.265933    9.5286978    12.612127     22.30075    14.235163 
  550600    205.55996     59211052            0     59211852    12.683344    22.410352    14.187948    19.736859    33.265527    9.5116597    12.612127     22.30075    14.235163 
  550800    92.079036     59212186            0     59212545    12.683316    22.410353    14.188151    19.734002    33.265708    9.5319262    12.612127     22.30075    14.235163 
  551000    217.46005     59210664            0     59211511      12.6833    22.410329    14.188152    19.732423    33.263253    9.5320652    12.612127     22.30075    14.235163 
  551200    327.46058     59211056            0     59212331    12.683316    22.410353    14.188096    19.734007    33.265699    9.5264297    12.612127     22.30075    14.235163 
  551400    244.17507     59210198            0     59211148    12.683332    22.410343    14.188083    19.735651    33.264666    9.5251343    12.612127     22.30075    14.235163 
  551600    95.093781     59211248            0     59211618    12.683302    22.410345    14.188181     19.73268    33.264888    9.5349813    12.612127     22.30075    14.235163 
  551800    305.62776     59211314            0     59212504    12.683334    22.410381    14.188409    19.735869    33.268457    9.5577722    12.612127     22.30075    14.235163 
  552000     310.6985     59210827            0     59212036    12.683311    22.410362    14.188107    19.733537      33.2666    9.5275786    12.612127     22.30075    14.235163 
  552200    205.74253     59211982            0     59212783    12.683316    22.410331    14.188251    19.734014    33.263457    9.5419987    12.612127     22.30075    14.235163 
  552400    185.61166     59210718            0     59211440    12.683316    22.410353    14.188044    19.734045    33.265685    9.5212384    12.612127     22.30075    14.235163 
  552600    214.65638     59211480            0     59212315    12.683315    22.410354     14.18808    19.733962    33.265738    9.5248194    12.612127     22.30075    14.235163 
  552800    74.024097     59210609            0     59210897    12.683298    22.410374    14.188143    19.732267    33.267801    9.5310952    12.612127     22.30075    14.235163 
  553000    336.59361     59210644            0     59211954     12.68332    22.410349    14.188179    19.734492    33.265289    9.5347392    12.612127     22.30075    14.235163 
  553200    98.831982     59210873            0     59211258    12.683303    22.410315     14.18814    19.732707     33.26187    9.5308156    12.612127     22.30075    14.235163 
  553400    286.81758     59211309            0     59212426     12.68332    22.410356       14.188    19.734434    33.265963     9.516866    12.612127     22.30075    14.235163 
  553600    262.06525     59211059            0     59212079    12.683328    22.410359    14.188104     19.73524    33.266259    9.5272858    12.612127     22.30075    14.235163 
  553800    269.05009     59210265            0     59211313    12.683329    22.410334    14.188101     19.73538    33.263773    9.5269685    12.612127     22.30075    14.235163 
  554000    211.58972     59210776            0     59211600    12.683322    22.410371    14.188175    19.734685    33.267483    9.5343798    12.612127     22.30075    14.235163 
  554200    238.79677     59211255            0     59212185    12.683317    22.410349    14.188147    19.734191    33.265274    9.5315406    12.612127     22.30075    14.235163 
  554400    166.64218     59210035            0     59210684     12.68332     22.41037    14.188021    19.734477    33.267333    9.5189247    12.612127     22.30075    14.235163 
  554600    177.49783     59212042            0     59212733     12.68332    22.410378    14.188157    19.734492    33.268112    9.5325102    12.612127     22.30075    14.235163 
  554800     182.9075     59211049            0     59211761    12.683315    22.410353    14.188148     19.73394    33.265685     9.531626    12.612127     22.30075    14.235163 
  555000    96.699089     59210330            0     59210706    12.683308    22.410355    14.188194    19.733294    33.265859    9.5362489    12.612127     22.30075    14.235163 
  555200    215.27588     59210863            0     59211701    12.683301    22.410326    14.188146    19.732563     33.26298    9.5314313    12.612127     22.30075    14.235163 
  555400    130.01895     59210173            0     59210679     12.68331    22.410362    14.188128    19.733479    33.266548    9.5295966    12.612127     22.30075    14.235163 
  555600    122.86251     59210218            0     59210697    12.683311    22.410363    14.188145    19.733539    33.266623    9.5313159    12.612127     22.30075    14.235163 
  555800    200.48597     59210803            0     59211584    12.683332    22.410352    14.188031    19.735616    33.265586    9.5199192    12.612127     22.30075    14.235163 
  556000    276.01812     59211230            0     59212305    12.683308    22.410357    14.188295    19.733209    33.266066    9.5463161    12.612127     22.30075    14.235163 
  556200    146.50245     59210019            0     59210589    12.683316    22.410353    14.188006    19.734014    33.265686    9.5174184    12.612127     22.30075    14.235163 
  556400    324.67399     59210937            0     59212200    12.683325    22.410352      14.1882    19.734918    33.265595    9.5368915    12.612127     22.30075    14.235163 
  556600    215.29604     59211438            0     59212276    12.683311    22.410353     14.18793    19.733525    33.265672    9.5098657    12.612127     22.30075    14.235163 
  556800    137.44748     59211829            0     59212364    12.683332    22.410365    14.187997    19.735671     33.26685     9.516529    12.612127     22.30075    14.235163 
  557000    224.33094     59212111            0     59212985    12.683314    22.410354    14.188156    19.733895    33.265735    9.5324431    12.612127     22.30075    14.235163 
  557200    213.93489     59211096            0     59211929    12.683291     22.41034    14.188305    19.731584    33.264349    9.5473369    12.612127     22.30075    14.235163 
  557400    278.34722     59211464            0     59212548     12.68332     22.41035     14.18818    19.734429    33.265337    9.5348548    12.612127     22.30075    14.235163 
  557600    237.08617     59211705            0     59212628    12.683314     22.41035    14.188302    19.733799      33.2654    9.5470722    12.612127     22.30075    14.235163 
  557800    198.07269     59210677            0     59211448    12.683325    22.410323    14.188089    19.734905    33.262621    9.5257775    12.612127     22.30075    14.235163 
  558000    167.86461     59210747            0     59211401    12.683354     22.41033    14.187846    19.737821    33.263376    9.5014806    12.612127     22.30075    14.235163 
  558200    159.11919     59210551            0     59211171    12.683316    22.410369    14.188246    19.734095    33.267223    9.5414395    12.612127     22.30075    14.235163 
  558400    309.52452     59211847            0     59213052    12.683316    22.410353    14.187983    19.734014    33.265686    9.5151332    12.612127     22.30075    14.235163 
  558600    187.63571     59210556            0     59211287    12.683332    22.410324    14.188063    19.735645    33.262728    9.5231457    12.612127     22.30075    14.235163 
  558800    151.88822     59211341            0     59211933    12.683316    22.410353    14.188107    19.734006    33.265674    9.5275344    12.612127     22.30075    14.235163 
  559000    123.83255     59210141            0     59210623    12.683317    22.410355    14.187952     19.73412    33.265855    9.5120002    12.612127     22.30075    14.235163 
  559200    327.05487     59210665            0     59211938    12.683319    22.410347    14.188192    19.734324    33.265072     9.536015    12.612127     22.30075    14.235163 
  559400     162.6931     59210518            0     59211151    12.683307    22.410356    14.188234    19.733117    33.265953     9.540223    12.612127     22.30075    14.235163 
  559600    160.45923     59211013            0     59211638    12.683316    22.410353    14.188055    19.734007    33.265705    9.5223605    12.612127     22.30075    14.235163 
  559800    84.851722     59212671            0     59213001    12.683289    22.410364    14.188034     19.73136    33.266719    9.5202418    12.612127     22.30075    14.235163 
  560000    110.82797     59211223            0     59211654    12.683347    22.410366    14.188191    19.737197    33.266938     9.535932    12.612127     22.30075    14.235163 
  560200    245.65776     59210835            0     59211791    12.683304    22.410335    14.188145    19.732834    33.263898    9.5313313    12.612127     22.30075    14.235163 
  560400    167.81389     59212227            0     59212880    12.683305    22.410337    14.188315    19.732901    33.264011    9.5483158    12.612127     22.30075    14.235163 
  560600     172.4473     59211622            0     59212294     12.68329    22.410355    14.188306    19.731431    33.265825    9.5474931    12.612127     22.30075    14.235163 
  560800    293.25374     59210616            0     59211757    12.683316    22.410353    14.188205     19.73401    33.265685    9.5373811    12.612127     22.30075    14.235163 
  561000    110.41931     59210815            0     59211245     12.68335    22.410336    14.188147    19.737442    33.263955    9.5315885    12.612127     22.30075    14.235163 
  561200    208.99891     59210497            0     59211311    12.683331    22.410349    14.188233    19.735581    33.265215    9.5401868    12.612127     22.30075    14.235163 
  561400    119.50891     59212751            0     59213216    12.683316    22.410353    14.188175    19.734013    33.265686    9.5343738    12.612127     22.30075    14.235163 
  561600    71.248063     59212448            0     59212726    12.683339    22.410352    14.188141    19.736335     33.26556    9.5309238    12.612127     22.30075    14.235163 
  561800    240.36284     59209719            0     59210655    12.683324    22.410353    14.188115    19.734897    33.265638    9.5283733    12.612127     22.30075    14.235163 
  562000    176.46029     59211119            0     59211805    12.683326    22.410373    14.188267    19.735009    33.267661    9.5435331    12.612127     22.30075    14.235163 
  562200     238.3962     59210622            0     59211550    12.683331    22.410324    14.188101     19.73552    33.262708    9.5269484    12.612127     22.30075    14.235163 
  562400    195.73226     59210866            0     59211628    12.683297     22.41039    14.188094    19.732168    33.269344    9.5262713    12.612127     22.30075    14.235163 
  562600    199.43377     59210922            0     59211698    12.683333    22.410352    14.188311    19.735754    33.265575    9.5479193    12.612127     22.30075    14.235163 
  562800    229.46873     59210587            0     59211481    12.683298    22.410355    14.188265     19.73226    33.265854    9.5433761    12.612127     22.30075    14.235163 
  563000    279.87993     59210801            0     59211890    12.683313    22.410353    14.188174    19.733794    33.265698    9.5342769    12.612127     22.30075    14.235163 
  563200    227.75652     59210569            0     59211456    12.683315    22.410354    14.188181    19.733987    33.265741    9.5349684    12.612127     22.30075    14.235163 
  563400    93.475409     59210477            0     59210841    12.683333    22.410338    14.188083    19.735738    33.264186    9.5251876    12.612127     22.30075    14.235163 
  563600    53.009761     59211510            0     59211717    12.683315    22.410353    14.188271    19.733939    33.265691    9.5439606    12.612127     22.30075    14.235163 
  563800    140.95037     59210370            0     59210919    12.683304    22.410354    14.188276    19.732825    33.265751    9.5444901    12.612127     22.30075    14.235163 
  564000    171.73683     59209832            0     59210501    12.683339    22.410338    14.188201    19.736368    33.264207    9.5368978    12.612127     22.30075    14.235163 
  564200    119.22865     59210294            0     59210759    12.683301    22.410343    14.187998     19.73255    33.264657    9.5166383    12.612127     22.30075    14.235163 
  564400    115.62275     59211312            0     59211762    12.683328    22.410354    14.188268    19.735225    33.265757    9.5436522    12.612127     22.30075    14.235163 
  564600    100.23264     59212266            0     59212656    12.683364    22.410303    14.188356     19.73884    33.260617     9.552474    12.612127     22.30075    14.235163 
  564800    107.15417     59211648            0     59212065    12.683318    22.410332    14.187925    19.734273      33.2636    9.5093676    12.612127     22.30075    14.235163 
  565000    83.056599     59210389            0     59210712    12.683348    22.410352    14.188258    19.737264    33.265526    9.5426374    12.612127     22.30075    14.235163 
  565200    155.49509     59211159            0     59211765    12.683341    22.410394    14.188038    19.736588    33.269782    9.5206129    12.612127     22.30075    14.235163 
  565400     219.0759     59211049            0     59211902    12.683302    22.410354    14.188091    19.732646     33.26576    9.5259793    12.612127     22.30075    14.235163 
  565600    180.89606     59210558            0     59211262    12.683287    22.410349    14.188194    19.731106    33.265305    9.5362494    12.612127     22.30075    14.235163 
  565800    177.63919     59211319            0     59212010    12.683268    22.410356    14.188293    19.729224    33.265951    9.5461763    12.612127     22.30075    14.235163 
  566000    129.03547     59211556            0     59212059    12.683316    22.410353    14.188291    19.734012    33.265689    9.5460006    12.612127     22.30075    14.235163 
  566200    229.70174     59211480            0     59212374    12.683308    22.410354     14.18842    19.733237    33.265723    9.5588608    12.612127     22.30075    14.235163 
  566400     205.8852     59209934            0     59210736    12.683312    22.410355    14.188108    19.733655    33.265887    9.5276275    12.612127     22.30075    14.235163 
  566600    105.55717     59211403            0     59211813    12.683303    22.410374    14.187964    19.732792    33.267755    9.5132628    12.612127     22.30075    14.235163 
  566800    196.81467     59210873            0     59211639    12.683345    22.410326    14.188073    19.736958    33.262963    9.5241541    12.612127     22.30075    14.235163 
  567000    133.18613     59211950            0     59212468     12.68333    22.410351    14.187876    19.735414    33.265483    9.5043942    12.612127     22.30075    14.235163 
  567200    123.54458     59210599            0     59211080    12.683316    22.410353    14.188099    19.734013    33.265686    9.5267785    12.612127     22.30075    14.235163 
  567400     131.7059     59211524            0     59212037    12.683326     22.41037    14.188002    19.735076    33.267323    9.5169984    12.612127     22.30075    14.235163 
  567600    179.38277     59210062            0     59210760    12.683309    22.410354    14.188207    19.733343    33.265724    9.5375638    12.612127     22.30075    14.235163 
  567800    262.35206     59210521            0     59211542    12.683328    22.410327    14.188175      19.7352    33.263047    9.5343738    12.612127     22.30075    14.235163 
  568000    163.42227     59211613            0     59212249    12.683316    22.410348    14.188387    19.734072    33.265197    9.5555261    12.612127     22.30075    14.235163 
  568200    72.905519     59211150            0     59211434    12.683316    22.410353    14.188157    19.734023    33.265685     9.532526    12.612127     22.30075    14.235163 
  568400    129.84591     59211583            0     59212089    12.683331    22.410346     14.18798    19.735502    33.264927    9.5148607    12.612127     22.30075    14.235163 
  568600    174.68658     59210970            0     59211650    12.683324    22.410382    14.188156    19.734861    33.268519    9.5324003    12.612127     22.30075    14.235163 
  568800    199.85424     59210934            0     59211712    12.683324    22.410347    14.188297    19.734805    33.265099    9.5465938    12.612127     22.30075    14.235163 
  569000     221.8946     59211363            0     59212227    12.683317    22.410319    14.187955    19.734193    33.262294    9.5123191    12.612127     22.30075    14.235163 
  569200    154.51084     59210538            0     59211140    12.683276    22.410326    14.188333    19.730018    33.262948    9.5501845    12.612127     22.30075    14.235163 
  569400    312.81441     59211067            0     59212285    12.683313     22.41035    14.188219    19.733797    33.265357    9.5387932    12.612127     22.30075    14.235163 
  569600    143.34258     59210653            0     59211211    12.683317    22.410356    14.187903    19.734112    33.265993    9.5070904    12.612127     22.30075    14.235163 
  569800    216.48118     59210892            0     59211735    12.683309    22.410364    14.188018    19.733319    33.266754     9.518644    12.612127     22.30075    14.235163 
  570000    201.38568     59211507            0     59212291    12.683315    22.410353    14.188025    19.733988    33.265696    9.5193107    12.612127     22.30075    14.235163 
  570200    152.88095     59210641            0     59211236    12.683326    22.410332    14.188057    19.735063    33.263566    9.5225231    12.612127     22.30075    14.235163 
  570400     72.16177     59210233            0     59210514    12.683307    22.410355    14.188246    19.733167    33.265819    9.5414455    12.612127     22.30075    14.235163 
  570600    243.51025     59211135            0     59212083    12.683303    22.410354    14.188221    19.732705    33.265758    9.5389413    12.612127     22.30075    14.235163 
  570800    302.77443     59210869            0     59212047    12.683344    22.410337    14.188364    19.736816    33.264011     9.553209    12.612127     22.30075    14.235163 
  571000    257.52648     59211371            0     59212374    12.683307     22.41037    14.187947    19.733115    33.267324    9.5115391    12.612127     22.30075    14.235163 
  571200    157.56945     59211041            0     59211654    12.683336    22.410379    14.188025     19.73607    33.268226    9.5193037    12.612127     22.30075    14.235163 
  571400    231.78532     59210679            0     59211581    12.683299    22.410324    14.187958    19.732304    33.262752    9.5126411    12.612127     22.30075    14.235163 
  571600    274.29548     59211576            0     59212643    12.683345    22.410372    14.188162    19.736941    33.267526    9.5330513    12.612127     22.30075    14.235163 
  571800    199.86403     59211352            0     59212130     12.68333    22.410307    14.188162    19.735407    33.261043     9.533061    12.612127     22.30075    14.235163 
  572000    220.29377     59211199            0     59212057    12.683295    22.410318    14.188214    19.731989    33.262113    9.5382283    12.612127     22.30075    14.235163 
  572200    277.49208     59211126            0     59212206    12.683314     22.41035    14.188173     19.73386    33.265377    9.5341392    12.612127     22.30075    14.235163 
  572400    119.78995     59210608            0     59211074    12.683315    22.410354    14.187999    19.733938    33.265805    9.5167363    12.612127     22.30075    14.235163 
  572600    294.48278     59211826            0     59212973    12.683316    22.410352    14.188211    19.734051    33.265554    9.5379131    12.612127     22.30075    14.235163 
  572800    245.33171     59210440            0     59211395    12.683355    22.410347    14.188239    19.737993    33.265085    9.5407656    12.612127     22.30075    14.235163 
  573000    267.37556     59210561            0     59211602    12.683338    22.410326    14.188079    19.736203    33.262983     9.524779    12.612127     22.30075    14.235163 
  573200    257.31439     59210392            0     59211394    12.683316    22.410353    14.187953    19.734014    33.265686    9.5121065    12.612127     22.30075    14.235163 
  573400    273.72783     59210290            0     59211355    12.683365    22.410348    14.188164    19.738981     33.26515    9.5332128    12.612127     22.30075    14.235163 
  573600    346.71283     59210796            0     59212146    12.683317    22.410355    14.188053    19.734125    33.265905    9.5221472    12.612127     22.30075    14.235163 
  573800    161.25724     59210720            0     59211348    12.683335    22.410343    14.188182     19.73598    33.264673    9.5350646    12.612127     22.30075    14.235163 
  574000    256.04268     59210050            0     59211047    12.683323    22.410364    14.188158    19.734794    33.266802    9.5325994    12.612127     22.30075    14.235163 
  574200    278.82236     59211668            0     59212754    12.683326     22.41037    14.187988    19.735093     33.26734    9.5156472    12.612127     22.30075    14.235163 
  574400    313.17695     59210732            0     59211951     12.68331    22.410365    14.187884      19.7334      33.2669    9.5052015    12.612127     22.30075    14.235163 
  574600    123.55549     59210851            0     59211332    12.683287    22.410367    14.188073    19.731131    33.267042    9.5241241    12.612127     22.30075    14.235163 
  574800    93.456784     59211550            0     59211914    12.683314    22.410373    14.187882    19.733809    33.267695    9.5050565    12.612127     22.30075    14.235163 
  575000    279.16665     59211159            0     59212246    12.683342    22.410352    14.188279    19.736675    33.265543    9.5447037    12.612127     22.30075    14.235163 
  575200    293.60328     59211002            0     59212145    12.683309    22.410353    14.188226    19.733391    33.265706    9.5394318    12.612127     22.30075    14.235163 
  575400    264.59015     59210142            0     59211172    12.683313    22.410329    14.188152    19.733717    33.263214    9.5320538    12.612127     22.30075    14.235163 
  575600    216.16001     59210502            0     59211343    12.683314    22.410353    14.188168    19.733867    33.265694    9.5336555    12.612127     22.30075    14.235163 
  575800    149.15445     59210920            0     59211500    12.683286    22.410342     14.18835    19.731061    33.264565    9.5518649    12.612127     22.30075    14.235163 
  576000     144.5816     59211926            0     59212489    12.683285    22.410363    14.188027    19.730914    33.266705    9.5195141    12.612127     22.30075    14.235163 
  576200    238.24155     59211208            0     59212135    12.683304    22.410295    14.188227     19.73283    33.259903    9.5395828    12.612127     22.30075    14.235163 
  576400    257.02219     59211017            0     59212017    12.683316    22.410354    14.188307    19.734043     33.26577    9.5475491    12.612127     22.30075    14.235163 
  576600    66.178478     59210009            0     59210267      12.6833    22.410352    14.188157    19.732404    33.265543    9.5325615    12.612127     22.30075    14.235163 
  576800    322.12181     59211346            0     59212600    12.683316    22.410354     14.18792    19.734001    33.265723    9.5088664    12.612127     22.30075    14.235163 
  577000    143.98709     59210793            0     59211353    12.683323    22.410403    14.188099    19.734719    33.270642     9.526746    12.612127     22.30075    14.235163 
  577200    258.16148     59210483            0     59211488    12.683272    22.410359    14.188201    19.729688    33.266259    9.5369597    12.612127     22.30075    14.235163 
  577400    124.39301     59210966            0     59211450    12.683312    22.410356    14.188079    19.733643    33.265954    9.5246941    12.612127     22.30075    14.235163 
  577600    190.86779     59210807            0     59211550    12.683304    22.410376     14.18804    19.732856    33.267959    9.5208041    12.612127     22.30075    14.235163 
  577800    174.85026     59210906            0     59211587    12.683272    22.410362    14.188154    19.729628    33.266535     9.532231    12.612127     22.30075    14.235163 
  578000    236.00273     59211316            0     59212235    12.683323    22.410335    14.187892     19.73475    33.263847    9.5060026    12.612127     22.30075    14.235163 
  578200    126.62887     59210044            0     59210537    12.683345    22.410365     14.18795    19.736998    33.266821    9.5118756    12.612127     22.30075    14.235163 
  578400    261.94994     59210999            0     59212018    12.683327    22.410356    14.188089    19.735121    33.266005    9.5257076    12.612127     22.30075    14.235163 
  578600    75.384159     59210471            0     59210764     12.68333    22.410367    14.188265    19.735486     33.26707    9.5433427    12.612127     22.30075    14.235163 
  578800     336.9466     59211266            0     59212578    12.683322     22.41034    14.188247     19.73462    33.264309    9.5415202    12.612127     22.30075    14.235163 
  579000    208.59764     59210709            0     59211521    12.683304    22.410378    14.188068    19.732835    33.268185    9.5236342    12.612127     22.30075    14.235163 
  579200    217.52151     59210798            0     59211645    12.683303    22.410353     14.18807     19.73272    33.265645    9.5238711    12.612127     22.30075    14.235163 
  579400    131.57248     59210336            0     59210849    12.683318    22.410353    14.188266    19.734251    33.265673    9.5434577    12.612127     22.30075    14.235163 
  579600    167.02682     59211829            0     59212479    12.683317    22.410349    14.188173    19.734134    33.265292    9.5341257    12.612127     22.30075    14.235163 
  579800    192.72632     59211389            0     59212139    12.683305    22.410341    14.188228    19.732955    33.264504    9.5395992    12.612127     22.30075    14.235163 
  580000    269.03206     59211009            0     59212057    12.683293    22.410355     14.18795    19.731755    33.265809    9.5117941    12.612127     22.30075    14.235163 
  580200    167.00578     59210908            0     59211558    12.683322    22.410372    14.188136    19.734664    33.267568     9.530485    12.612127     22.30075    14.235163 
  580400    172.37767     59210985            0     59211656    12.683325    22.410351    14.188138    19.734934    33.265455    9.5306158    12.612127     22.30075    14.235163 
  580600    135.44311     59210817            0     59211344    12.683315    22.410352    14.188195    19.733906    33.265523    9.5363616    12.612127     22.30075    14.235163 
  580800    166.71061     59210238            0     59210887    12.683315    22.410353    14.188118    19.733983    33.265684    9.5286076    12.612127     22.30075    14.235163 
  581000     120.7144     59210815            0     59211285    12.683293     22.41034    14.188017     19.73175    33.264348    9.5185266    12.612127     22.30075    14.235163 
  581200    169.81729     59211138            0     59211800    12.683328    22.410372    14.188018    19.735213    33.267546    9.5186747    12.612127     22.30075    14.235163 
  581400    315.53117     59211753            0     59212981    12.683315    22.410353    14.187967    19.733919    33.265701    9.5135665    12.612127     22.30075    14.235163 
  581600    179.54179     59210448            0     59211147     12.68326    22.410358    14.188081    19.728474    33.266173    9.5249722    12.612127     22.30075    14.235163 
  581800     270.0343     59211499            0     59212550    12.683314    22.410358    14.188304    19.733828    33.266144    9.5472176    12.612127     22.30075    14.235163 
  582000    158.25309     59210654            0     59211270    12.683316    22.410353    14.188183    19.734047    33.265685    9.5351843    12.612127     22.30075    14.235163 
  582200     141.2824     59210846            0     59211396     12.68331    22.410354    14.188324    19.733442    33.265717    9.5492672    12.612127     22.30075    14.235163 
  582400    189.39618     59211154            0     59211891    12.683333    22.410333    14.188024    19.735748    33.263707    9.5192534    12.612127     22.30075    14.235163 
  582600    134.57214     59210903            0     59211427    12.683317    22.410353     14.18824    19.734138    33.265684    9.5408252    12.612127     22.30075    14.235163 
  582800    184.27338     59210469            0     59211186    12.683311    22.410345    14.188263    19.733565    33.264816    9.5431014    12.612127     22.30075    14.235163 
  583000    234.15499     59211373            0     59212284    12.683313    22.410353    14.188136     19.73375    33.265701    9.5304525    12.612127     22.30075    14.235163 
  583200    285.19435     59211438            0     59212549    12.683307    22.410353     14.18824    19.733173    33.265657    9.5408673    12.612127     22.30075    14.235163 
  583400    169.01263     59211339            0     59211997    12.683317    22.410358    14.188181    19.734108    33.266158    9.5349122    12.612127     22.30075    14.235163 
  583600     300.5715     59212305            0     59213475    12.683335    22.410351    14.187881    19.735991    33.265475    9.5048952    12.612127     22.30075    14.235163 
  583800    416.84575     59210772            0     59212395    12.683317    22.410355    14.187992    19.734182    33.265896    9.5160143    12.612127     22.30075    14.235163 
  584000     165.1524     59211711            0     59212354    12.683321    22.410348    14.188183    19.734516    33.265139     9.535116    12.612127     22.30075    14.235163 
  584200    176.47237     59210823            0     59211510    12.683319    22.410359    14.187983    19.734301     33.26626    9.5151208    12.612127     22.30075    14.235163 
  584400    344.63676     59211005            0     59212347    12.683306    22.410338    14.188055    19.733022    33.264192    9.5222948    12.612127     22.30075    14.235163 
  584600    298.12106     59212510            0     59213670    12.683309    22.410354    14.187765    19.733367    33.265724    9.4932859    12.612127     22.30075    14.235163 
  584800    144.96979     59211202            0     59211766    12.683327    22.410356     14.18814    19.735146     33.26595     9.530849    12.612127     22.30075    14.235163 
  585000    210.25861     59210622            0     59211440      12.6833    22.410367    14.188184    19.732469    33.267019    9.5352472    12.612127     22.30075    14.235163 
  585200    238.21731     59211105            0     59212032    12.683321    22.410362    14.188311    19.734592    33.266562    9.5479636    12.612127     22.30075    14.235163 
  585400    155.68731     59211264            0     59211870    12.683288    22.410407    14.188111    19.731259    33.271024       9.5279    12.612127     22.30075    14.235163 
  585600    221.68789     59210788            0     59211651     12.68332    22.410353    14.188178    19.734421    33.265663    9.5346296    12.612127     22.30075    14.235163 
  585800    225.32407     59211120            0     59211998    12.683342    22.410316     14.18827    19.736636    33.261951    9.5438325    12.612127     22.30075    14.235163 
  586000    73.372418     59211236            0     59211522    12.683309    22.410324    14.188185    19.733359    33.262742    9.5353332    12.612127     22.30075    14.235163 
  586200    350.79526     59211022            0     59212387    12.683324    22.410365     14.18828    19.734876    33.266838    9.5448069    12.612127     22.30075    14.235163 
  586400    152.43357     59210665            0     59211258    12.683316    22.410353    14.188063     19.73401    33.265692    9.5231012    12.612127     22.30075    14.235163 
  586600    172.58481     59210880            0     59211552    12.683328    22.410321    14.188045    19.735202    33.262481    9.5213453    12.612127     22.30075    14.235163 
  586800    258.61655     59210836            0     59211843    12.683305    22.410346    14.188153    19.732931    33.264927    9.5321492    12.612127     22.30075    14.235163 
  587000    263.85128     59210938            0     59211965    12.683307    22.410356    14.188449    19.733178    33.265908    9.5617286    12.612127     22.30075    14.235163 
  587200    172.85379     59212384            0     59213057    12.683319    22.410368    14.187969    19.734341    33.267161    9.5137744    12.612127     22.30075    14.235163 
  587400    188.50124     59211088            0     59211822    12.683319    22.410326    14.188206    19.734388    33.262971    9.5374319    12.612127     22.30075    14.235163 
  587600    226.11765     59210220            0     59211101    12.683293    22.410372    14.188204     19.73179    33.267553    9.5372543    12.612127     22.30075    14.235163 
  587800    219.06373     59211069            0     59211922    12.683342    22.410351    14.187987    19.736609    33.265428    9.5154893    12.612127     22.30075    14.235163 
  588000    133.14547     59210715            0     59211233    12.683342    22.410327    14.188068    19.736657    33.263072    9.5236146    12.612127     22.30075    14.235163 
  588200    208.38764     59211823            0     59212634    12.683316    22.410353    14.188072    19.734014    33.265686    9.5240208    12.612127     22.30075    14.235163 
  588400    117.23919     59210295            0     59210752    12.683317    22.410351    14.188059     19.73412    33.265476    9.5227506    12.612127     22.30075    14.235163 
  588600    215.26018     59210878            0     59211716    12.683316    22.410346    14.188396    19.734035    33.264984    9.5564325    12.612127     22.30075    14.235163 
  588800    147.06338     59211312            0     59211885    12.683321    22.410351    14.188076    19.734568    33.265479    9.5244672    12.612127     22.30075    14.235163 
  589000    317.39199     59211244            0     59212479    12.683316    22.410353     14.18813    19.734014    33.265686    9.5298452    12.612127     22.30075    14.235163 
  589200    122.35904     59211181            0     59211657    12.683302    22.410375    14.187991      19.7326    33.267842    9.5159083    12.612127     22.30075    14.235163 
  589400    121.19463     59211827            0     59212299    12.683292    22.410335    14.187932    19.731672    33.263897    9.5100055    12.612127     22.30075    14.235163 
  589600    163.93576     59210423            0     59211061    12.683318    22.410353    14.188039    19.734216    33.265679    9.5207834    12.612127     22.30075    14.235163 
  589800    305.37935     59210842            0     59212031    12.683334    22.410349    14.188155    19.735808    33.265242    9.5323524    12.612127     22.30075    14.235163 
  590000    298.09328     59210918            0     59212078      12.6833    22.410365    14.188186    19.732425    33.266902    9.5354332    12.612127     22.30075    14.235163 
  590200    142.45496     59211790            0     59212344     12.68332    22.410362    14.188307    19.734451    33.266513    9.5475657    12.612127     22.30075    14.235163 
  590400    109.13603     59211428            0     59211853    12.683339    22.410352    14.188117     19.73639    33.265555    9.5285257    12.612127     22.30075    14.235163 
  590600    177.87379     59211528            0     59212221    12.683279    22.410373    14.188162    19.730376    33.267644    9.5330124    12.612127     22.30075    14.235163 
  590800    338.00281     59210792            0     59212107    12.683311    22.410302    14.188049    19.733497    33.260569    9.5217324    12.612127     22.30075    14.235163 
  591000     248.1162     59210642            0     59211608    12.683329    22.410359    14.188153    19.735368    33.266241    9.5321886    12.612127     22.30075    14.235163 
  591200    348.94114     59211581            0     59212939    12.683301     22.41037    14.188107    19.732576    33.267349    9.5275701    12.612127     22.30075    14.235163 
  591400    319.31469     59211198            0     59212441    12.683326    22.410335    14.188059    19.735092    33.263832    9.5226938    12.612127     22.30075    14.235163 
  591600    275.62145     59210697            0     59211770    12.683324    22.410353    14.188072    19.734847    33.265631    9.5240192    12.612127     22.30075    14.235163 
  591800     213.4373     59210998            0     59211829    12.683296    22.410325    14.188383    19.732092    33.262825    9.5551438    12.612127     22.30075    14.235163 
  592000    96.578166     59211659            0     59212035    12.683279    22.410351    14.188444    19.730311    33.265448     9.561275    12.612127     22.30075    14.235163 
  592200    180.68798     59210842            0     59211545    12.683316    22.410353     14.18808    19.734014    33.265686    9.5248846    12.612127     22.30075    14.235163 
  592400     241.7289     59211282            0     59212223    12.683309    22.410344    14.187992    19.733374    33.264794    9.5159899    12.612127     22.30075    14.235163 
  592600     129.1652     59212617            0     59213120    12.683316    22.410353    14.188148    19.734038    33.265689    9.5316559    12.612127     22.30075    14.235163 
  592800    297.59879     59210937            0     59212095     12.68331    22.410345    14.188167    19.733494     33.26487    9.5335478    12.612127     22.30075    14.235163 
  593000    204.34959     59211275            0     59212070    12.683318    22.410353     14.18793    19.734291    33.265672    9.5098312    12.612127     22.30075    14.235163 
  593200    281.15041     59210949            0     59212044    12.683357    22.410373    14.188279    19.738149    33.267647    9.5447034    12.612127     22.30075    14.235163 
  593400    167.50644     59210062            0     59210714    12.683316    22.410354    14.187946    19.734092      33.2658    9.5114363    12.612127     22.30075    14.235163 
  593600     111.3663     59211034            0     59211467    12.683354    22.410369    14.188206    19.737841    33.267305    9.5374084    12.612127     22.30075    14.235163 
  593800    121.63998     59211002            0     59211475    12.683324     22.41037    14.188096    19.734862    33.267325    9.5264555    12.612127     22.30075    14.235163 
  594000    166.81628     59210947            0     59211596    12.683337    22.410362    14.188155    19.736138    33.266546    9.5323905    12.612127     22.30075    14.235163 
  594200    147.53468     59212221            0     59212795    12.683336    22.410365    14.188202    19.736004    33.266897    9.5370444    12.612127     22.30075    14.235163 
  594400    341.13252     59211027            0     59212355    12.683318    22.410364    14.188136    19.734199     33.26679    9.5304558    12.612127     22.30075    14.235163 
  594600    242.55936     59211382            0     59212326    12.683331    22.410323    14.188015    19.735538    33.262693    9.5183489    12.612127     22.30075    14.235163 
  594800    134.93497     59209928            0     59210454    12.683309    22.410343    14.187948    19.733346    33.264661    9.5116237    12.612127     22.30075    14.235163 
  595000    277.94463     59211109            0     59212191    12.683284    22.410343    14.188117    19.730813    33.264665    9.5285853    12.612127     22.30075    14.235163 
  595200    290.92281     59211398            0     59212531    12.683315    22.410355    14.188262    19.733939    33.265829    9.5430446    12.612127     22.30075    14.235163 
  595400    234.87944     59211257            0     59212171    12.683296    22.410327    14.188064     19.73202    33.263036    9.5232208    12.612127     22.30075    14.235163 
  595600    261.25955     59211736            0     59212753    12.683316    22.410353    14.188256    19.734007    33.265699    9.5424485    12.612127     22.30075    14.235163 
  595800    126.26837     59211560            0     59212052    12.683314    22.410349    14.188109    19.733809    33.265288    9.5277897    12.612127     22.30075    14.235163 
  596000    115.74301     59210674            0     59211124    12.683342    22.410344    14.188248    19.736624    33.264806    9.5416154    12.612127     22.30075    14.235163 
  596200    170.74403     59210933            0     59211597     12.68333    22.410352    14.188142     19.73547    33.265605    9.5310743    12.612127     22.30075    14.235163 
  596400    277.96295     59210720            0     59211802    12.683312    22.410357    14.188101    19.733619    33.266075    9.5269416    12.612127     22.30075    14.235163 
  596600    189.21821     59210657            0     59211393    12.683299    22.410362    14.187997    19.732366    33.266525    9.5165598    12.612127     22.30075    14.235163 
  596800    240.58299     59210971            0     59211908    12.683307    22.410354    14.188241    19.733136    33.265779    9.5409217    12.612127     22.30075    14.235163 
  597000    250.13472     59210127            0     59211101    12.683316    22.410353    14.188075    19.734013    33.265686    9.5243497    12.612127     22.30075    14.235163 
  597200     138.3568     59210339            0     59210878    12.683323    22.410355    14.188121    19.734738    33.265865    9.5288992    12.612127     22.30075    14.235163 
  597400      171.472     59211427            0     59212095     12.68333    22.410352    14.188157    19.735466    33.265602    9.5325666    12.612127     22.30075    14.235163 
  597600    225.05359     59211168            0     59212044    12.683306    22.410334    14.188209    19.733043    33.263764    9.5377928    12.612127     22.30075    14.235163 
  597800    310.69143     59210416            0     59211625    12.683331    22.410324    14.188138    19.735521     33.26271    9.5306682    12.612127     22.30075    14.235163 
  598000    270.63052     59210024            0     59211077    12.683277    22.410371    14.188208    19.730173    33.267454    9.5376278    12.612127     22.30075    14.235163 
  598200    154.52416     59210544            0     59211146    12.683318     22.41035    14.188006    19.734284     33.26532    9.5174252    12.612127     22.30075    14.235163 
  598400     336.7585     59210378            0     59211689    12.683316    22.410354    14.188176    19.734054    33.265748    9.5344162    12.612127     22.30075    14.235163 
  598600    221.42354     59210616            0     59211478    12.683314    22.410353    14.188124    19.733896     33.26568     9.529221    12.612127     22.30075    14.235163 
  598800    155.89389     59211305            0     59211912    12.683316    22.410353    14.188359    19.734013    33.265686    9.5527086    12.612127     22.30075    14.235163 
  599000    137.92631     59211156            0     59211693    12.683343    22.410324     14.18801    19.736742    33.262729    9.5178025    12.612127     22.30075    14.235163 
  599200    135.58307     59211719            0     59212246    12.683321    22.410352    14.188092    19.734534    33.265533    9.5259958    12.612127     22.30075    14.235163 
  599400    267.93547     59210474            0     59211518      12.6833     22.41033    14.188239    19.732457    33.263332    9.5407358    12.612127     22.30075    14.235163 
  599600    279.52442     59210856            0     59211944    12.683317    22.410353    14.188151    19.734138    33.265685    9.5319005    12.612127     22.30075    14.235163 
  599800    210.08538     59209821            0     59210639    12.683309    22.410345    14.187944    19.733329    33.264855    9.5112495    12.612127     22.30075    14.235163 
  600000    124.09692     59211504            0     59211988    12.683326    22.410353    14.187745    19.735069    33.265629    9.4912922    12.612127     22.30075    14.235163 
  600200    142.27369     59210693            0     59211247      12.6833    22.410354    14.188228    19.732474    33.265788    9.5396889    12.612127     22.30075    14.235163 
  600400    135.24095     59210670            0     59211197    12.683285     22.41032    14.188071    19.730962    33.262386    9.5239778    12.612127     22.30075    14.235163 
  600600    239.39393     59211004            0     59211936    12.683316     22.41034    14.188251    19.734013    33.264317    9.5419152    12.612127     22.30075    14.235163 
  600800    199.86106     59210850            0     59211628    12.683316    22.410353     14.18821    19.734019    33.265684    9.5378358    12.612127     22.30075    14.235163 
  601000    235.67599     59210749            0     59211666    12.683319    22.410338    14.188214    19.734385    33.264192    9.5382319    12.612127     22.30075    14.235163 
  601200    273.14487     59211579            0     59212643    12.683322    22.410339    14.187965    19.734615    33.264246    9.5133849    12.612127     22.30075    14.235163 
  601400    216.69785     59211312            0     59212156    12.683293    22.410341    14.188344    19.731724    33.264454    9.5512963    12.612127     22.30075    14.235163 
  601600     87.66163     59211601            0     59211943    12.683318    22.410354    14.187833    19.734255    33.265724    9.5000913    12.612127     22.30075    14.235163 
  601800     257.8534     59210729            0     59211732    12.683315    22.410339    14.188105    19.733981     33.26427    9.5273908    12.612127     22.30075    14.235163 
  602000    85.822229     59210985            0     59211319    12.683277    22.410355    14.188067     19.73013      33.2659    9.5235457    12.612127     22.30075    14.235163 
  602200    275.77077     59210866            0     59211940    12.683316    22.410353    14.188101    19.734013    33.265686    9.5269077    12.612127     22.30075    14.235163 
  602400    276.55894     59210987            0     59212064    12.683302    22.410337      14.1883    19.732612    33.264094    9.5468186    12.612127     22.30075    14.235163 
  602600     269.5933     59211088            0     59212138    12.683297    22.410367    14.188053    19.732126    33.267079    9.5221828    12.612127     22.30075    14.235163 
  602800    199.61999     59209633            0     59210410    12.683316    22.410353    14.188166    19.734028    33.265703    9.5334596    12.612127     22.30075    14.235163 
  603000    150.47691     59210788            0     59211374    12.683295    22.410381    14.188289    19.731898    33.268482    9.5457131    12.612127     22.30075    14.235163 
  603200    164.71411     59211435            0     59212076    12.683341    22.410288    14.188268    19.736547    33.259186    9.5436522    12.612127     22.30075    14.235163 
  603400    282.77572     59210877            0     59211978    12.683316    22.410353    14.188243    19.734014    33.265686    9.5411089    12.612127     22.30075    14.235163 
  603600    276.08018     59210663            0     59211738    12.683318    22.410357    14.188061    19.734229    33.266016    9.5229634    12.612127     22.30075    14.235163 
  603800    293.26175     59211247            0     59212388     12.68327    22.410333    14.188088    19.729419    33.263707    9.5256716    12.612127     22.30075    14.235163 
  604000    330.51488     59211780            0     59213067    12.683316    22.410349    14.188242    19.734054     33.26527     9.541079    12.612127     22.30075    14.235163 
  604200     179.4991     59210446            0     59211145    12.683314    22.410353    14.188198    19.733802    33.265675    9.5366144    12.612127     22.30075    14.235163 
  604400    134.23013     59210425            0     59210947    12.683316    22.410353    14.188078    19.734016    33.265681    9.5246319    12.612127     22.30075    14.235163 
  604600    83.870142     59210541            0     59210867    12.683335    22.410359    14.188106    19.735946    33.266262    9.5274066    12.612127     22.30075    14.235163 
  604800     208.9749     59210283            0     59211096    12.683315    22.410366     14.18806    19.733898    33.266934    9.5228343    12.612127     22.30075    14.235163 
  605000    180.02838     59209959            0     59210660    12.683298    22.410371    14.188064    19.732216    33.267483    9.5232004    12.612127     22.30075    14.235163 
  605200    328.86719     59210063            0     59211343     12.68329    22.410311    14.188191    19.731436    33.261414    9.5359214    12.612127     22.30075    14.235163 
  605400    348.02669     59210438            0     59211792    12.683305    22.410349    14.188061    19.732982    33.265247    9.5229659    12.612127     22.30075    14.235163 
  605600    184.04294     59210209            0     59210926    12.683325    22.410338    14.188233    19.734914    33.264138    9.5401061    12.612127     22.30075    14.235163 
  605800    212.66837     59210499            0     59211327      12.6833    22.410388    14.188309    19.732442      33.2692    9.5478009    12.612127     22.30075    14.235163 
  606000    331.85874     59210824            0     59212116     12.68332    22.410345    14.188223    19.734419    33.264877    9.5391739    12.612127     22.30075    14.235163 
  606200    158.10783     59211965            0     59212581    12.683326    22.410347    14.188101     19.73507    33.265086    9.5269682    12.612127     22.30075    14.235163 
  606400    276.11349     59210636            0     59211710    12.683318    22.410362    14.188228    19.734231    33.266519    9.5396121    12.612127     22.30075    14.235163 
  606600    194.09224     59210657            0     59211413    12.683315    22.410353    14.188117    19.733904    33.265693    9.5285523    12.612127     22.30075    14.235163 
  606800    294.85495     59211802            0     59212950    12.683324    22.410375    14.188234    19.734847    33.267881    9.5402579    12.612127     22.30075    14.235163 
  607000    225.14429     59210304            0     59211180    12.683322    22.410341    14.188117    19.734643    33.264441     9.528518    12.612127     22.30075    14.235163 
  607200    253.30837     59210942            0     59211928    12.683316    22.410353    14.188227    19.734014    33.265686    9.5395798    12.612127     22.30075    14.235163 
  607400    291.31962     59211434            0     59212569    12.683322    22.410342    14.187994    19.734638    33.264567    9.5162772    12.612127     22.30075    14.235163 
  607600    383.74986     59210058            0     59211552    12.683275    22.410353    14.188017    19.729918    33.265701    9.5185782    12.612127     22.30075    14.235163 
  607800    284.74307     59211646            0     59212754    12.683324    22.410375    14.188112    19.734889    33.267837    9.5280773    12.612127     22.30075    14.235163 
  608000    178.67617     59210249            0     59210944    12.683329    22.410349    14.188101    19.735336    33.265272    9.5269166    12.612127     22.30075    14.235163 
  608200    162.41224     59211262            0     59211894    12.683314    22.410353    14.188056    19.733889    33.265693    9.5224529    12.612127     22.30075    14.235163 
  608400    111.60922     59210530            0     59210965    12.683326    22.410351     14.18821    19.735048    33.265498      9.53785    12.612127     22.30075    14.235163 
  608600    168.96309     59210962            0     59211619    12.683315    22.410347    14.188178    19.733899    33.265104    9.5346592    12.612127     22.30075    14.235163 
  608800    196.61336     59211079            0     59211844    12.683325    22.410353    14.188085    19.734966    33.265634     9.525297    12.612127     22.30075    14.235163 
  609000    216.84419     59210096            0     59210940    12.683347    22.410377    14.188187    19.737109    33.268106    9.5354981    12.612127     22.30075    14.235163 
  609200    134.87421     59209995            0     59210520    12.683306    22.410371    14.188211    19.733012    33.267501    9.5379213    12.612127     22.30075    14.235163 
  609400    259.59908     59211358            0     59212368    12.683316    22.410353    14.187938    19.734014    33.265686    9.5105943    12.612127     22.30075    14.235163 
  609600    176.82518     59210130            0     59210818    12.683316    22.410336     14.18812    19.734047    33.263973    9.5288357    12.612127     22.30075    14.235163 
  609800    177.96662     59210506            0     59211199    12.683304     22.41036    14.188117    19.732838    33.266327    9.5285807    12.612127     22.30075    14.235163 
  610000    280.57595     59212380            0     59213472    12.683299    22.410354    14.188229    19.732313    33.265788     9.539761    12.612127     22.30075    14.235163 
  610200    253.13203     59211531            0     59212516    12.683318    22.410351    14.188266    19.734253    33.265498    9.5434678    12.612127     22.30075    14.235163 
  610400    143.83222     59210676            0     59211236    12.683315    22.410364    14.187948    19.733906    33.266745    9.5116391    12.612127     22.30075    14.235163 
  610600    237.43429     59210916            0     59211840    12.683316    22.410366    14.188021    19.734079    33.266954    9.5188993    12.612127     22.30075    14.235163 
  610800    236.81913     59210469            0     59211391    12.683331    22.410363    14.188164    19.735532    33.266669    9.5332205    12.612127     22.30075    14.235163 
  611000    296.02796     59210376            0     59211529    12.683332    22.410321    14.188231    19.735627    33.262503    9.5399911    12.612127     22.30075    14.235163 
  611200    157.25691     59210906            0     59211518    12.683313    22.410378    14.188048    19.733702    33.268131    9.5216447    12.612127     22.30075    14.235163 
  611400    146.32523     59210471            0     59211040    12.683297    22.410329    14.188119    19.732157     33.26328    9.5287153    12.612127     22.30075    14.235163 
  611600    208.11256     59210887            0     59211698    12.683316    22.410353    14.188238    19.734014    33.265687    9.5406795    12.612127     22.30075    14.235163 
  611800    343.28546     59211809            0     59213145    12.683312     22.41036    14.188286    19.733638    33.266321    9.5454561    12.612127     22.30075    14.235163 
  612000    158.79783     59211145            0     59211763    12.683318    22.410349    14.188056     19.73424    33.265239    9.5224837    12.612127     22.30075    14.235163 
  612200     88.07717     59211420            0     59211763    12.683305    22.410375    14.188179    19.732921    33.267874     9.534705    12.612127     22.30075    14.235163 
  612400     165.3173     59210827            0     59211470    12.683342    22.410349    14.188072     19.73664    33.265258    9.5240436    12.612127     22.30075    14.235163 
  612600    350.30237     59210963            0     59212327    12.683312    22.410366    14.188051     19.73363    33.266924    9.5218962    12.612127     22.30075    14.235163 
  612800     296.9726     59211258            0     59212414    12.683334    22.410381    14.188155    19.735832    33.268468    9.5323417    12.612127     22.30075    14.235163 
  613000    184.04155     59211212            0     59211929    12.683317    22.410376    14.188312    19.734171     33.26794    9.5480749    12.612127     22.30075    14.235163 
  613200    201.61843     59210258            0     59211043    12.683325    22.410341    14.188154    19.734955    33.264488    9.5322467    12.612127     22.30075    14.235163 
  613400     341.7268     59210709            0     59212039    12.683306    22.410354    14.188095    19.733087    33.265736    9.5263458    12.612127     22.30075    14.235163 
  613600    236.49645     59211624            0     59212545    12.683319    22.410347    14.187877    19.734333    33.265056    9.5045659    12.612127     22.30075    14.235163 
  613800    277.95685     59209935            0     59211017    12.683316    22.410353    14.188166    19.734075    33.265684    9.5334864    12.612127     22.30075    14.235163 
  614000     350.5756     59211873            0     59213238    12.683316    22.410353    14.187927    19.734014    33.265687     9.509569    12.612127     22.30075    14.235163 
  614200    112.04834     59211946            0     59212382    12.683335    22.410354    14.188311    19.735972     33.26572    9.5479766    12.612127     22.30075    14.235163 
  614400    114.80635     59210721            0     59211168    12.683335    22.410315    14.188084    19.735904    33.261839    9.5252002    12.612127     22.30075    14.235163 
  614600    198.83533     59210865            0     59211639    12.683316    22.410353    14.188101    19.734023    33.265678    9.5269904    12.612127     22.30075    14.235163 
  614800    207.31112     59212578            0     59213385    12.683338    22.410352    14.188155    19.736231    33.265565    9.5323004    12.612127     22.30075    14.235163 
  615000    164.93095     59211026            0     59211668    12.683308    22.410363    14.188163    19.733257    33.266707    9.5331215    12.612127     22.30075    14.235163 
  615200    283.46981     59211031            0     59212135    12.683342    22.410379    14.188165    19.736605     33.26823    9.5333933    12.612127     22.30075    14.235163 
  615400     186.6207     59211092            0     59211818    12.683293     22.41034    14.188368    19.731711    33.264374    9.5536224    12.612127     22.30075    14.235163 
  615600    143.37788     59211398            0     59211956    12.683327    22.410357    14.187802    19.735127    33.266064    9.4970425    12.612127     22.30075    14.235163 
  615800    159.24704     59211791            0     59212410    12.683289    22.410355    14.188203    19.731329    33.265895    9.5371875    12.612127     22.30075    14.235163 
  616000    125.35457     59210766            0     59211254    12.683297    22.410387     14.18809     19.73219    33.269046    9.5258291    12.612127     22.30075    14.235163 
  616200    249.86256     59210875            0     59211848    12.683313    22.410344    14.188016    19.733749    33.264788    9.5183899    12.612127     22.30075    14.235163 
  616400    183.03281     59210226            0     59210938    12.683316    22.410338    14.187988    19.734064    33.264197    9.5155929    12.612127     22.30075    14.235163 
  616600    246.85529     59211298            0     59212259    12.683316    22.410353    14.188224    19.734058      33.2657    9.5392236    12.612127     22.30075    14.235163 
  616800    183.53282     59210624            0     59211338    12.683344    22.410388     14.18816    19.736804    33.269209    9.5328083    12.612127     22.30075    14.235163 
  617000    361.39137     59210326            0     59211733    12.683317    22.410352    14.188374    19.734112    33.265535    9.5542679    12.612127     22.30075    14.235163 
  617200    274.29189     59210461            0     59211529    12.683316    22.410353    14.188118    19.734014    33.265687    9.5286828    12.612127     22.30075    14.235163 
  617400    185.02396     59211877            0     59212597    12.683322    22.410352    14.187881    19.734689    33.265544    9.5049277    12.612127     22.30075    14.235163 
  617600    135.60977     59211097            0     59211625    12.683318    22.410353    14.188108    19.734233    33.265681    9.5276404    12.612127     22.30075    14.235163 
  617800    154.71034     59211606            0     59212208    12.683316    22.410353    14.188029    19.734014    33.265686    9.5197496    12.612127     22.30075    14.235163 
  618000    317.89504     59211257            0     59212495    12.683308    22.410354    14.187965    19.733265    33.265733    9.5133585    12.612127     22.30075    14.235163 
  618200    173.61336     59210932            0     59211608    12.683297     22.41033    14.188124    19.732141    33.263349    9.5292778    12.612127     22.30075    14.235163 
  618400    234.80757     59212174            0     59213088    12.683312    22.410353    14.187935     19.73369    33.265646    9.5102931    12.612127     22.30075    14.235163 
  618600    206.93488     59211105            0     59211911    12.683295    22.410372    14.188269    19.731963    33.267574    9.5437524    12.612127     22.30075    14.235163 
  618800    92.181135     59211526            0     59211885      12.6833    22.410329    14.188219      19.7324    33.263275    9.5387151    12.612127     22.30075    14.235163 
  619000     272.1009     59209969            0     59211028    12.683325    22.410338    14.188126    19.734974    33.264119     9.529398    12.612127     22.30075    14.235163 
  619200    201.49136     59212127            0     59212911     12.68332    22.410353    14.188117    19.734468    33.265661       9.5285    12.612127     22.30075    14.235163 
  619400    208.68175     59211507            0     59212320    12.683334    22.410352    14.188254    19.735805     33.26555    9.5422506    12.612127     22.30075    14.235163 
  619600    289.98498     59210856            0     59211985    12.683337    22.410344    14.188116    19.736113    33.264749    9.5284799    12.612127     22.30075    14.235163 
  619800    167.86969     59212303            0     59212957      12.6833    22.410332      14.1884    19.732422    33.263574     9.556855    12.612127     22.30075    14.235163 
  620000    346.81344     59210705            0     59212055    12.683275    22.410345    14.187958    19.729917    33.264834    9.5126023    12.612127     22.30075    14.235163 
  620200    218.51189     59211277            0     59212128    12.683316    22.410353    14.187957    19.734014    33.265687    9.5125298    12.612127     22.30075    14.235163 
  620400    205.96038     59211079            0     59211881    12.683339    22.410347    14.188308      19.7363    33.265025    9.5476779    12.612127     22.30075    14.235163 
  620600    218.14343     59210091            0     59210940    12.683318    22.410337    14.188198    19.734224    33.264065    9.5366785    12.612127     22.30075    14.235163 
  620800    216.54877     59210942            0     59211785    12.683306    22.410376    14.188182    19.733076    33.267929    9.5350468    12.612127     22.30075    14.235163 
  621000    163.60941     59210481            0     59211118    12.683329    22.410353    14.188106    19.735316    33.265642    9.5274095    12.612127     22.30075    14.235163 
  621200    125.29083     59211792            0     59212280    12.683331    22.410341    14.188499    19.735504    33.264488    9.5667248    12.612127     22.30075    14.235163 
  621400     207.8968     59210680            0     59211490    12.683315    22.410341    14.188057    19.733956    33.264446    9.5225265    12.612127     22.30075    14.235163 
  621600    119.58555     59210710            0     59211176    12.683312    22.410371    14.188052    19.733661    33.267457    9.5220762    12.612127     22.30075    14.235163 
  621800     256.6551     59210774            0     59211773    12.683313    22.410357     14.18822    19.733791    33.266093    9.5388499    12.612127     22.30075    14.235163 
  622000    231.69478     59211458            0     59212360     12.68331    22.410363    14.188078    19.733457    33.266689    9.5246154    12.612127     22.30075    14.235163 
  622200    235.47902     59210916            0     59211833    12.683316    22.410353    14.188411    19.734013    33.265686    9.5579372    12.612127     22.30075    14.235163 
  622400    117.75222     59211377            0     59211835    12.683328    22.410375    14.188081    19.735298    33.267832    9.5249783    12.612127     22.30075    14.235163 
  622600    290.86166     59210927            0     59212060    12.683315    22.410352    14.188037    19.733941    33.265585    9.5205197    12.612127     22.30075    14.235163 
  622800     130.5072     59211408            0     59211916    12.683315    22.410352    14.187967    19.733918    33.265539    9.5135142    12.612127     22.30075    14.235163 
  623000    404.78952     59210814            0     59212389    12.683337    22.410352    14.188329    19.736192    33.265567    9.5497687    12.612127     22.30075    14.235163 
  623200    249.46779     59211179            0     59212151    12.683334    22.410357    14.188068    19.735848    33.266059    9.5236778    12.612127     22.30075    14.235163 
  623400    219.43985     59211388            0     59212243    12.683324    22.410353    14.188164    19.734827     33.26569    9.5332826    12.612127     22.30075    14.235163 
  623600    214.05245     59210712            0     59211545    12.683316    22.410353    14.188107    19.734014    33.265687    9.5275267    12.612127     22.30075    14.235163 
  623800     206.1489     59211532            0     59212335    12.683329    22.410353    14.188256    19.735299    33.265615    9.5424008    12.612127     22.30075    14.235163 
  624000    237.33884     59210508            0     59211432    12.683327    22.410375    14.188161    19.735175    33.267832    9.5329412    12.612127     22.30075    14.235163 
  624200    248.68139     59210361            0     59211329    12.683307    22.410339     14.18812    19.733108    33.264277    9.5288689    12.612127     22.30075    14.235163 
  624400     143.0081     59209981            0     59210538    12.683284    22.410325    14.187999    19.730814    33.262876    9.5166962    12.612127     22.30075    14.235163 
  624600    131.60267     59211280            0     59211792    12.683314    22.410349    14.187956    19.733809    33.265208     9.512472    12.612127     22.30075    14.235163 
  624800    208.67119     59210933            0     59211745    12.683299    22.410343    14.188055    19.732297    33.264665    9.5223645    12.612127     22.30075    14.235163 
  625000    223.02989     59210297            0     59211165    12.683322    22.410389    14.188231    19.734618    33.269277    9.5399525    12.612127     22.30075    14.235163 
  625200    160.29847     59211139            0     59211763     12.68331    22.410362    14.188095    19.733493    33.266601    9.5263315    12.612127     22.30075    14.235163 
  625400    121.83114     59210975            0     59211449    12.683312    22.410359     14.18822    19.733667    33.266291    9.5388905    12.612127     22.30075    14.235163 
  625600     114.4945     59211235            0     59211681    12.683311    22.410375    14.188304    19.733516    33.267851    9.5472625    12.612127     22.30075    14.235163 
  625800    38.583587     59210815            0     59210965    12.683319    22.410353    14.187964    19.734346    33.265668    9.5132834    12.612127     22.30075    14.235163 
  626000    181.39805     59211189            0     59211895     12.68331    22.410345    14.188062    19.733446    33.264818    9.5230549    12.612127     22.30075    14.235163 
  626200    159.75027     59210473            0     59211095    12.683316    22.410353    14.187992    19.734014    33.265687    9.5160295    12.612127     22.30075    14.235163 
  626400     89.58299     59211525            0     59211873    12.683316    22.410353     14.18802    19.734013    33.265687    9.5187958    12.612127     22.30075    14.235163 
  626600    179.20704     59211234            0     59211932    12.683314    22.410354    14.188204    19.733843    33.265757    9.5372242    12.612127     22.30075    14.235163 
  626800    201.84103     59211325            0     59212111     12.68331    22.410356    14.188005     19.73346    33.265912    9.5173099    12.612127     22.30075    14.235163 
  627000    190.29064     59209893            0     59210634    12.683316    22.410353    14.188126    19.734013    33.265686    9.5294218    12.612127     22.30075    14.235163 
  627200    217.48227     59211497            0     59212344    12.683324    22.410357    14.188092    19.734806    33.266043     9.526007    12.612127     22.30075    14.235163 
  627400    152.50592     59210945            0     59211539    12.683319    22.410376    14.188155    19.734363    33.268002     9.532353    12.612127     22.30075    14.235163 
  627600    126.58724     59210597            0     59211090    12.683321    22.410361    14.188222    19.734523    33.266465    9.5390686    12.612127     22.30075    14.235163 
  627800    431.20033     59210094            0     59211772    12.683301    22.410362    14.188197    19.732504    33.266536    9.5365585    12.612127     22.30075    14.235163 
  628000    182.93494     59210838            0     59211550    12.683305    22.410354     14.18825    19.732954    33.265755    9.5418646    12.612127     22.30075    14.235163 
  628200    204.60081     59210786            0     59211582     12.68334    22.410358     14.18793    19.736475    33.266181    9.5098246    12.612127     22.30075    14.235163 
  628400    285.02778     59211304            0     59212413    12.683338    22.410336    14.188433    19.736266    33.263939    9.5601539    12.612127     22.30075    14.235163 
  628600    118.26787     59211463            0     59211924    12.683349    22.410361    14.188206    19.737317    33.266444    9.5374747    12.612127     22.30075    14.235163 
  628800    209.49741     59211099            0     59211914    12.683282     22.41038    14.188162    19.730654     33.26832    9.5330194    12.612127     22.30075    14.235163 
  629000    245.36653     59209842            0     59210797     12.68333    22.410344    14.188077    19.735416    33.264795    9.5245325    12.612127     22.30075    14.235163 
  629200    362.86192     59211775            0     59213187    12.683315    22.410353    14.188292    19.733994    33.265669    9.5460646    12.612127     22.30075    14.235163 
  629400     92.97184     59211233            0     59211594    12.683295     22.41034    14.188094     19.73191     33.26434    9.5262086    12.612127     22.30075    14.235163 
  629600      165.469     59209797            0     59210441    12.683323     22.41035    14.188097    19.734782    33.265309     9.526589    12.612127     22.30075    14.235163 
  629800    190.37099     59211242            0     59211983    12.683326    22.410353    14.188028    19.735082    33.265627    9.5195963    12.612127     22.30075    14.235163 
  630000    345.35666     59210611            0     59211956    12.683339    22.410351    14.188248    19.736396    33.265482    9.5416973    12.612127     22.30075    14.235163 
  630200    131.41894     59211202            0     59211713    12.683306    22.410369    14.188256    19.733016    33.267219    9.5424256    12.612127     22.30075    14.235163 
  630400     263.1083     59210845            0     59211869    12.683327     22.41032    14.188211    19.735137    33.262373    9.5379181    12.612127     22.30075    14.235163 
  630600    178.91226     59211440            0     59212137    12.683317    22.410352    14.187861    19.734141    33.265527    9.5029687    12.612127     22.30075    14.235163 
  630800     359.2817     59210731            0     59212130    12.683293    22.410345    14.188145    19.731775    33.264881    9.5313472    12.612127     22.30075    14.235163 
  631000    488.95345     59211025            0     59212928     12.68329    22.410354     14.18836    19.731414    33.265788    9.5528241    12.612127     22.30075    14.235163 
  631200    322.36096     59210397            0     59211652     12.68331    22.410367    14.187942    19.733476    33.267011    9.5110281    12.612127     22.30075    14.235163 
  631400    256.80459     59210907            0     59211907    12.683316    22.410353    14.188303     19.73402    33.265702    9.5471519    12.612127     22.30075    14.235163 
  631600    198.67836     59212643            0     59213416    12.683316    22.410353     14.18813    19.734013    33.265685    9.5298203    12.612127     22.30075    14.235163 
  631800    249.00315     59210936            0     59211905    12.683316    22.410353    14.188145    19.734023    33.265677    9.5313787    12.612127     22.30075    14.235163 
  632000    228.14047     59210614            0     59211503    12.683312    22.410353    14.187889    19.733666    33.265662    9.5057361    12.612127     22.30075    14.235163 
  632200    251.13928     59210854            0     59211831     12.68332    22.410344    14.188344    19.734486    33.264753     9.551249    12.612127     22.30075    14.235163 
  632400    223.82123     59210132            0     59211004    12.683305    22.410364    14.188103    19.732955    33.266749    9.5271214    12.612127     22.30075    14.235163 
  632600    125.83908     59210867            0     59211357    12.683326    22.410353    14.188114    19.735073    33.265627    9.5282524    12.612127     22.30075    14.235163 
  632800    112.12955     59211928            0     59212364    12.683318    22.410354    14.188276    19.734254    33.265783    9.5444139    12.612127     22.30075    14.235163 
  633000    229.07147     59212209            0     59213101     12.68332    22.410353     14.18796    19.734447    33.265662     9.512837    12.612127     22.30075    14.235163 
  633200    229.21386     59210762            0     59211654    12.683316    22.410353    14.188137    19.734013    33.265684    9.5305844    12.612127     22.30075    14.235163 
  633400    354.18648     59211355            0     59212734    12.683309     22.41037    14.187928    19.733306    33.267309    9.5096532    12.612127     22.30075    14.235163 
  633600    150.21563     59211102            0     59211687    12.683316    22.410354    14.188355       19.734    33.265715    9.5523632    12.612127     22.30075    14.235163 
  633800    291.17403     59211757            0     59212890    12.683317    22.410357    14.187905    19.734122    33.266022    9.5073632    12.612127     22.30075    14.235163 
  634000    259.73819     59210092            0     59211103    12.683308    22.410341    14.188006    19.733226    33.264482    9.5174094    12.612127     22.30075    14.235163 
  634200    198.09252     59210763            0     59211534    12.683316    22.410353    14.188044    19.734014    33.265684     9.521267    12.612127     22.30075    14.235163 
  634400    280.22299     59209606            0     59210697    12.683333    22.410378    14.188121    19.735754    33.268181    9.5289128    12.612127     22.30075    14.235163 
  634600    283.99733     59210541            0     59211646    12.683314    22.410368     14.18819    19.733877    33.267124    9.5358121    12.612127     22.30075    14.235163 
  634800    261.77088     59211293            0     59212312    12.683279    22.410354    14.188343    19.730349    33.265792    9.5511652    12.612127     22.30075    14.235163 
  635000    273.31413     59211246            0     59212310    12.683301    22.410354    14.188022    19.732519    33.265768    9.5190042    12.612127     22.30075    14.235163 
  635200     202.8899     59210985            0     59211775    12.683316    22.410353    14.188163    19.734044    33.265684    9.5331173    12.612127     22.30075    14.235163 
  635400    144.18173     59212168            0     59212729    12.683315    22.410354    14.187935    19.733943    33.265725    9.5103627    12.612127     22.30075    14.235163 
  635600    204.20898     59211495            0     59212290     12.68333    22.410325    14.188288    19.735434     33.26289     9.545627    12.612127     22.30075    14.235163 
  635800    231.70348     59210647            0     59211549    12.683312    22.410348    14.187861    19.733641    33.265167    9.5029177    12.612127     22.30075    14.235163 
  636000    245.15211     59210719            0     59211673    12.683309    22.410361    14.188109    19.733299    33.266435    9.5277398    12.612127     22.30075    14.235163 
  636200    356.19464     59212153            0     59213539    12.683306     22.41037    14.187964    19.733096    33.267354    9.5132453    12.612127     22.30075    14.235163 
  636400    236.94579     59210998            0     59211921    12.683301    22.410325    14.188057    19.732553    33.262842    9.5225351    12.612127     22.30075    14.235163 
  636600    269.66764     59210913            0     59211963      12.6833    22.410356    14.188299    19.732462    33.266002    9.5467876    12.612127     22.30075    14.235163 
  636800     210.2262     59210590            0     59211409    12.683307    22.410354    14.188143    19.733125    33.265792    9.5311334    12.612127     22.30075    14.235163 
  637000    323.54751     59210908            0     59212168    12.683298    22.410355    14.188112    19.732199    33.265843    9.5280033    12.612127     22.30075    14.235163 
  637200    283.64814     59211853            0     59212957    12.683316    22.410353    14.188069    19.734014    33.265686    9.5237746    12.612127     22.30075    14.235163 
  637400    150.63196     59210296            0     59210882    12.683312    22.410361    14.188177    19.733615    33.266476    9.5345921    12.612127     22.30075    14.235163 
  637600    423.45573     59211165            0     59212813    12.683315    22.410363    14.188279    19.733941    33.266677     9.544735    12.612127     22.30075    14.235163 
  637800    356.45049     59210743            0     59212131    12.683322    22.410335    14.188207    19.734608    33.263864    9.5375033    12.612127     22.30075    14.235163 
  638000     121.4858     59211517            0     59211990    12.683302    22.410358    14.188025    19.732663    33.266129    9.5193665    12.612127     22.30075    14.235163 
  638200    259.18205     59210341            0     59211350    12.683316    22.410353    14.188063    19.734014    33.265686    9.5231135    12.612127     22.30075    14.235163 
  638400    253.51319     59210610            0     59211597    12.683316    22.410353    14.188066    19.734015    33.265685    9.5234242    12.612127     22.30075    14.235163 
  638600    278.27526     59211329            0     59212412    12.683295    22.410394    14.188231    19.731967     33.26973    9.5399517    12.612127     22.30075    14.235163 
  638800    268.43606     59212057            0     59213102    12.683315    22.410354    14.188145    19.733956    33.265805    9.5313034    12.612127     22.30075    14.235163 
  639000    224.06958     59210270            0     59211142    12.683316    22.410353    14.188093    19.734016    33.265681     9.526105    12.612127     22.30075    14.235163 
  639200    341.73926     59209854            0     59211184    12.683316    22.410353    14.188111    19.734013    33.265686    9.5279666    12.612127     22.30075    14.235163 
  639400    125.35997     59210215            0     59210703    12.683316    22.410354    14.188125    19.734051     33.26575    9.5293062    12.612127     22.30075    14.235163 
  639600    248.53348     59211180            0     59212147    12.683316    22.410348    14.188079    19.734064    33.265189    9.5247835    12.612127     22.30075    14.235163 
  639800    237.95581     59211593            0     59212520    12.683311    22.410353    14.188019    19.733554    33.265702    9.5187052    12.612127     22.30075    14.235163 
  640000    218.73572     59211179            0     59212031    12.683335    22.410335    14.188008    19.735931    33.263853    9.5176095    12.612127     22.30075    14.235163 
  640200     333.7971     59210493            0     59211792    12.683316    22.410353    14.188022    19.734012    33.265689    9.5190182    12.612127     22.30075    14.235163 
  640400    129.12052     59210787            0     59211289     12.68333    22.410377    14.188103    19.735424    33.268057    9.5271413    12.612127     22.30075    14.235163 
  640600    126.51284     59211087            0     59211579    12.683292    22.410386    14.188062     19.73166    33.268942    9.5230004    12.612127     22.30075    14.235163 
  640800    223.28694     59210644            0     59211513    12.683318    22.410339    14.188082    19.734254    33.264282    9.5250197    12.612127     22.30075    14.235163 
  641000    125.74759     59211224            0     59211713    12.683311    22.410363    14.188046    19.733597    33.266648    9.5214286    12.612127     22.30075    14.235163 
  641200    157.78851     59211922            0     59212536    12.683316    22.410353    14.187777    19.734022    33.265689    9.4944891    12.612127     22.30075    14.235163 
  641400    119.14834     59211948            0     59212412    12.683341    22.410355    14.188242     19.73657    33.265898    9.5410842    12.612127     22.30075    14.235163 
  641600    385.00931     59211379            0     59212878    12.683337    22.410298    14.188124    19.736169    33.260108    9.5291967    12.612127     22.30075    14.235163 
  641800    246.86263     59210110            0     59211071     12.68337    22.410333    14.188166    19.739435    33.263667    9.5334329    12.612127     22.30075    14.235163 
  642000     183.7154     59211135            0     59211850    12.683395    22.410294    14.187899    19.741913     33.25979    9.5067472    12.612127     22.30075    14.235163 
  642200    67.484935     59210721            0     59210983    12.683342    22.410352    14.188004    19.736602    33.265535     9.517218    12.612127     22.30075    14.235163 
  642400    139.38964     59210716            0     59211259    12.683305    22.410355    14.188149     19.73296    33.265847    9.5317776    12.612127     22.30075    14.235163 
  642600    196.34846     59210750            0     59211515    12.683314     22.41036    14.188231     19.73385    33.266315    9.5399651    12.612127     22.30075    14.235163 
  642800    71.986624     59211045            0     59211325    12.683313    22.410352    14.188254    19.733765    33.265526    9.5422636    12.612127     22.30075    14.235163 
  643000     126.3672     59210503            0     59210995    12.683318    22.410344    14.188188    19.734284    33.264759    9.5356596    12.612127     22.30075    14.235163 
  643200     295.0817     59210557            0     59211705    12.683316    22.410353    14.187979    19.734001    33.265634    9.5147392    12.612127     22.30075    14.235163 
  643400    265.23342     59210999            0     59212031    12.683318    22.410369    14.188196    19.734208    33.267306    9.5364925    12.612127     22.30075    14.235163 
  643600    167.25736     59211476            0     59212128    12.683316    22.410353    14.188098    19.734014    33.265686    9.5266342    12.612127     22.30075    14.235163 
  643800    247.67292     59210909            0     59211873    12.683314    22.410342    14.188018    19.733864    33.264599    9.5186635    12.612127     22.30075    14.235163 
  644000    147.77216     59211346            0     59211922    12.683316    22.410353    14.188114    19.734013    33.265687    9.5282184    12.612127     22.30075    14.235163 
  644200    233.91348     59210562            0     59211472    12.683303    22.410377    14.188069     19.73276      33.2681    9.5236963    12.612127     22.30075    14.235163 
  644400    129.11784     59211299            0     59211801    12.683305     22.41031    14.188385    19.732928    33.261402    9.5553976    12.612127     22.30075    14.235163 
  644600    101.24132     59210768            0     59211162    12.683364     22.41032    14.188308    19.738825    33.262326    9.5476345    12.612127     22.30075    14.235163 
  644800    333.79341     59211223            0     59212522    12.683312    22.410368     14.18832    19.733638    33.267131    9.5488593    12.612127     22.30075    14.235163 
  645000    251.26494     59210567            0     59211545    12.683336    22.410352     14.18812    19.736067    33.265572     9.528803    12.612127     22.30075    14.235163 
  645200     234.2278     59211216            0     59212128    12.683303    22.410345    14.188153    19.732789    33.264811    9.5321205    12.612127     22.30075    14.235163 
  645400    189.51475     59211736            0     59212474    12.683308    22.410354     14.18831    19.733253    33.265789    9.5478982    12.612127     22.30075    14.235163 
  645600    220.05491     59212366            0     59213223    12.683318    22.410362    14.187783    19.734258    33.266564    9.4951496    12.612127     22.30075    14.235163 
  645800    289.15884     59211479            0     59212605    12.683304    22.410364    14.188211     19.73284    33.266718    9.5379459    12.612127     22.30075    14.235163 
  646000    138.26997     59210908            0     59211446    12.683296    22.410354    14.188249    19.732053    33.265742    9.5417676    12.612127     22.30075    14.235163 
  646200      214.196     59211350            0     59212184    12.683316    22.410353     14.18808    19.734013    33.265686    9.5248801    12.612127     22.30075    14.235163 
  646400    260.25928     59211891            0     59212905    12.683335    22.410378    14.187999    19.735934     33.26814    9.5167829    12.612127     22.30075    14.235163 
  646600    148.80764     59211043            0     59211623    12.683316    22.410353    14.187992    19.734014    33.265686    9.5160206    12.612127     22.30075    14.235163 
  646800    185.13109     59209827            0     59210548    12.683305    22.410314     14.18807    19.732914    33.261767    9.5238833    12.612127     22.30075    14.235163 
  647000    228.06697     59210982            0     59211870     12.68329    22.410361    14.188162    19.731475    33.266488     9.533067    12.612127     22.30075    14.235163 
  647200    228.30086     59211500            0     59212389    12.683354    22.410352    14.188079    19.737813    33.265511    9.5247578    12.612127     22.30075    14.235163 
  647400    145.33434     59210621            0     59211187    12.683327    22.410362     14.18795    19.735115    33.266509     9.511856    12.612127     22.30075    14.235163 
  647600    278.73645     59210387            0     59211472    12.683315    22.410353    14.187968    19.733974    33.265688    9.5136863    12.612127     22.30075    14.235163 
  647800    169.17267     59210470            0     59211128    12.683316     22.41035    14.187984    19.734009    33.265337    9.5152809    12.612127     22.30075    14.235163 
  648000    278.69805     59211589            0     59212674    12.683316    22.410354    14.187877    19.734063    33.265761    9.5045108    12.612127     22.30075    14.235163 
  648200    249.44995     59211487            0     59212458    12.683305    22.410357    14.188505    19.732899    33.266098    9.5673488    12.612127     22.30075    14.235163 
  648400    130.08283     59211249            0     59211755    12.683296    22.410335    14.188051    19.732077     33.26388    9.5219385    12.612127     22.30075    14.235163 
  648600    243.56984     59212184            0     59213133    12.683316    22.410353    14.188273    19.734045    33.265622     9.544177    12.612127     22.30075    14.235163 
  648800    136.61403     59210532            0     59211064    12.683342    22.410367    14.188046    19.736675    33.267034    9.5214171    12.612127     22.30075    14.235163 
  649000    367.65692     59210796            0     59212228    12.683315    22.410354    14.188277    19.733996     33.26574    9.5445749    12.612127     22.30075    14.235163 
  649200    159.37135     59211442            0     59212063    12.683326    22.410333    14.188225    19.735038    33.263662    9.5393561    12.612127     22.30075    14.235163 
  649400    101.77752     59211092            0     59211489    12.683286    22.410322    14.188121    19.731027    33.262572    9.5289599    12.612127     22.30075    14.235163 
  649600    343.39091     59210806            0     59212142    12.683331     22.41032    14.188173    19.735555    33.262308    9.5341685    12.612127     22.30075    14.235163 
  649800    274.90615     59210651            0     59211721    12.683322     22.41037    14.188071    19.734616    33.267319    9.5238979    12.612127     22.30075    14.235163 
  650000    333.35121     59210551            0     59211849    12.683326    22.410339    14.188319    19.735072    33.264239    9.5487882    12.612127     22.30075    14.235163 
  650200    165.24351     59210714            0     59211357    12.683314    22.410341    14.188242    19.733892    33.264466    9.5410488    12.612127     22.30075    14.235163 
  650400    242.62918     59210555            0     59211499    12.683369    22.410346    14.188046    19.739331    33.264983    9.5214325    12.612127     22.30075    14.235163 
  650600    252.16293     59210374            0     59211356    12.683321    22.410371    14.188271     19.73451    33.267418    9.5439104    12.612127     22.30075    14.235163 
  650800    181.02164     59211599            0     59212304    12.683308    22.410364     14.18825    19.733229    33.266735    9.5418712    12.612127     22.30075    14.235163 
  651000    271.17273     59210907            0     59211963    12.683313    22.410358    14.188268    19.733779    33.266175    9.5436619    12.612127     22.30075    14.235163 
  651200    211.24709     59210615            0     59211438    12.683318    22.410358    14.188058    19.734273    33.266159    9.5226181    12.612127     22.30075    14.235163 
  651400    115.21905     59211684            0     59212132    12.683319    22.410336    14.187904    19.734325    33.263977    9.5072579    12.612127     22.30075    14.235163 
  651600    368.24692     59210507            0     59211941    12.683316    22.410353       14.188    19.734013    33.265686    9.5168247    12.612127     22.30075    14.235163 
  651800    316.90324     59210473            0     59211707     12.68331    22.410344    14.188138    19.733432    33.264796    9.5306079    12.612127     22.30075    14.235163 
  652000    136.92081     59211517            0     59212050    12.683314    22.410357    14.188022    19.733845    33.266019    9.5190682    12.612127     22.30075    14.235163 
  652200    149.95727     59210272            0     59210856    12.683287    22.410355    14.188045    19.731168    33.265844    9.5213283    12.612127     22.30075    14.235163 
  652400    136.58045     59210090            0     59210621    12.683314    22.410351    14.188245    19.733844    33.265484    9.5413502    12.612127     22.30075    14.235163 
  652600    219.29086     59211224            0     59212078    12.683337    22.410354    14.188222    19.736126    33.265778    9.5390206    12.612127     22.30075    14.235163 
  652800    196.52371     59211038            0     59211803    12.683291    22.410355    14.188016    19.731512    33.265842    9.5184119    12.612127     22.30075    14.235163 
  653000    173.79224     59210635            0     59211312    12.683325    22.410366    14.188348    19.734948    33.266917    9.5516132    12.612127     22.30075    14.235163 
  653200    151.57045     59211217            0     59211807    12.683308    22.410328    14.188013    19.733201    33.263114    9.5181132    12.612127     22.30075    14.235163 
  653400    249.87078     59211355            0     59212327    12.683316    22.410353    14.188036    19.734025    33.265672    9.5204427    12.612127     22.30075    14.235163 
  653600    220.78721     59210388            0     59211247    12.683304    22.410339    14.188142    19.732818    33.264231    9.5310578    12.612127     22.30075    14.235163 
  653800    288.67594     59211575            0     59212699    12.683276    22.410346    14.188215    19.730054    33.264977    9.5383253    12.612127     22.30075    14.235163 
  654000    129.05401     59210508            0     59211010    12.683314    22.410357    14.188207    19.733828    33.266011    9.5375756    12.612127     22.30075    14.235163 
  654200    179.09158     59212160            0     59212857    12.683316    22.410353    14.188214    19.734043    33.265677    9.5382606    12.612127     22.30075    14.235163 
  654400     164.0852     59210600            0     59211239    12.683345    22.410311    14.188158    19.736918    33.261444    9.5326145    12.612127     22.30075    14.235163 
  654600    229.78458     59211617            0     59212511    12.683332    22.410383    14.188028    19.735631    33.268682     9.519647    12.612127     22.30075    14.235163 
  654800    235.07042     59210209            0     59211124    12.683316    22.410353     14.18815    19.734025    33.265665    9.5318328    12.612127     22.30075    14.235163 
  655000     233.7307     59210487            0     59211397    12.683299    22.410334    14.188177    19.732299    33.263738    9.5345864    12.612127     22.30075    14.235163 
  655200    177.19883     59210485            0     59211175    12.683335    22.410359    14.188191    19.735935    33.266302    9.5359234    12.612127     22.30075    14.235163 
  655400    283.76762     59210325            0     59211430    12.683326    22.410351    14.188233    19.735082     33.26547    9.5401815    12.612127     22.30075    14.235163 
  655600    165.40006     59211674            0     59212318    12.683323    22.410359    14.188112    19.734797    33.266248    9.5280491    12.612127     22.30075    14.235163 
  655800    113.77818     59211546            0     59211989    12.683311    22.410328    14.188454    19.733566    33.263205    9.5622961    12.612127     22.30075    14.235163 
  656000    281.82005     59212011            0     59213109    12.683316    22.410353    14.188407    19.734009    33.265695    9.5575491    12.612127     22.30075    14.235163 
  656200     167.0076     59210948            0     59211598    12.683316    22.410353    14.187935       19.734    33.265688    9.5103097    12.612127     22.30075    14.235163 
  656400    232.10484     59210276            0     59211180    12.683319    22.410363    14.188112     19.73431     33.26663    9.5280914    12.612127     22.30075    14.235163 
  656600    198.10934     59210318            0     59211089    12.683316    22.410353    14.188213    19.734014    33.265686    9.5381113    12.612127     22.30075    14.235163 
  656800    210.15041     59210768            0     59211587    12.683316    22.410353    14.188085     19.73401    33.265686    9.5252984    12.612127     22.30075    14.235163 
  657000    196.93382     59210000            0     59210766    12.683329    22.410346     14.18813    19.735362    33.264942    9.5298758    12.612127     22.30075    14.235163 
  657200     201.4464     59212196            0     59212980    12.683305    22.410354    14.188311    19.732973    33.265743    9.5479558    12.612127     22.30075    14.235163 
  657400    87.653402     59211256            0     59211597    12.683317     22.41037    14.188199     19.73415    33.267384    9.5367815    12.612127     22.30075    14.235163 
  657600    135.96029     59210600            0     59211129    12.683334    22.410342    14.188057    19.735854    33.264588    9.5224963    12.612127     22.30075    14.235163 
  657800    176.01179     59211165            0     59211850    12.683282    22.410332    14.188077    19.730695     33.26353    9.5245725    12.612127     22.30075    14.235163 
  658000    401.25487     59210647            0     59212209    12.683323    22.410332    14.188003    19.734775    33.263562    9.5171125    12.612127     22.30075    14.235163 
  658200    368.02638     59212285            0     59213718    12.683316    22.410353     14.18809    19.734014    33.265687     9.525845    12.612127     22.30075    14.235163 
  658400    276.70865     59210621            0     59211698    12.683301    22.410345    14.188079    19.732527    33.264888    9.5247265    12.612127     22.30075    14.235163 
  658600    312.49069     59210651            0     59211868    12.683322    22.410362     14.18816    19.734605    33.266581    9.5328116    12.612127     22.30075    14.235163 
  658800     198.3814     59210536            0     59211308    12.683341    22.410368    14.187997    19.736562    33.267142    9.5165603    12.612127     22.30075    14.235163 
  659000    407.66764     59210600            0     59212187    12.683316    22.410353    14.188311     19.73401    33.265696    9.5479778    12.612127     22.30075    14.235163 
  659200    146.83591     59211274            0     59211846    12.683334    22.410367    14.188195    19.735801    33.267078    9.5363102    12.612127     22.30075    14.235163 
  659400    371.92134     59211901            0     59213349    12.683298    22.410369    14.188015    19.732242    33.267257    9.5183293    12.612127     22.30075    14.235163 
  659600    217.97066     59211529            0     59212377    12.683327    22.410353    14.187973    19.735133    33.265643    9.5141563    12.612127     22.30075    14.235163 
  659800    170.65728     59211072            0     59211737    12.683316    22.410353    14.188228    19.734018    33.265674    9.5396872    12.612127     22.30075    14.235163 
  660000    124.03731     59210910            0     59211393    12.683326     22.41033     14.18819    19.735004    33.263325    9.5358642    12.612127     22.30075    14.235163 
  660200    205.74079     59210888            0     59211689    12.683333    22.410352    14.188141    19.735741    33.265521    9.5309889    12.612127     22.30075    14.235163 
  660400    214.03319     59211418            0     59212251      12.6833    22.410328    14.187902    19.732444    33.263134    9.5069886    12.612127     22.30075    14.235163 
  660600    145.19499     59210014            0     59210579    12.683316    22.410353     14.18813    19.734014    33.265686    9.5297962    12.612127     22.30075    14.235163 
  660800    105.82827     59210638            0     59211050    12.683309    22.410355    14.188129    19.733388     33.26582    9.5297187    12.612127     22.30075    14.235163 
  661000    112.25231     59211356            0     59211793    12.683316    22.410353    14.188383    19.734003    33.265704    9.5551756    12.612127     22.30075    14.235163 
  661200    130.29923     59210326            0     59210833    12.683301     22.41036    14.188018    19.732513    33.266324    9.5186367    12.612127     22.30075    14.235163 
  661400    276.93957     59211324            0     59212402    12.683285    22.410364    14.187872    19.730985    33.266725    9.5040373    12.612127     22.30075    14.235163 
  661600     261.7066     59210869            0     59211888    12.683317    22.410352    14.188284    19.734113    33.265509    9.5452928    12.612127     22.30075    14.235163 
  661800    160.27552     59210243            0     59210867    12.683302    22.410377    14.188187    19.732667    33.268076    9.5354965    12.612127     22.30075    14.235163 
  662000    223.14909     59211004            0     59211872    12.683312    22.410361    14.188026    19.733636    33.266436    9.5194016    12.612127     22.30075    14.235163 
  662200    344.18911     59211076            0     59212416    12.683305    22.410336    14.188021    19.732929    33.263952    9.5189547    12.612127     22.30075    14.235163 
  662400    178.72444     59211554            0     59212249    12.683322    22.410363    14.188278     19.73464    33.266653    9.5446358    12.612127     22.30075    14.235163 
  662600    139.17025     59210427            0     59210969    12.683315    22.410354     14.18812    19.733959    33.265796    9.5288802    12.612127     22.30075    14.235163 
  662800    230.99764     59210070            0     59210969     12.68332    22.410353    14.188243    19.734403     33.26567    9.5411476    12.612127     22.30075    14.235163 
  663000    178.03718     59210692            0     59211385    12.683329    22.410336    14.187916    19.735386    33.263927    9.5084655    12.612127     22.30075    14.235163 
  663200    123.18777     59211444            0     59211924    12.683313    22.410359    14.188017    19.733713    33.266283    9.5185801    12.612127     22.30075    14.235163 
  663400    268.61271     59210257            0     59211303    12.683339    22.410365    14.188082    19.736363    33.266865    9.5250177    12.612127     22.30075    14.235163 
  663600    371.18388     59212092            0     59213537     12.68331    22.410354    14.188297     19.73342    33.265773    9.5465934    12.612127     22.30075    14.235163 
  663800    345.21373     59210850            0     59212194    12.683316    22.410353     14.18815    19.734014    33.265686    9.5318469    12.612127     22.30075    14.235163 
  664000    116.07046     59210024            0     59210476    12.683306    22.410373    14.188169    19.732997    33.267694     9.533773    12.612127     22.30075    14.235163 
  664200    284.40845     59210259            0     59211366    12.683316    22.410353    14.187992    19.734047    33.265623    9.5160104    12.612127     22.30075    14.235163 
  664400    262.39024     59209967            0     59210988     12.68333    22.410352    14.188233    19.735482    33.265606    9.5401898    12.612127     22.30075    14.235163 
  664600    203.46797     59211174            0     59211966    12.683316    22.410353    14.188268    19.734022    33.265686    9.5436295    12.612127     22.30075    14.235163 
  664800    389.32836     59210357            0     59211872    12.683301    22.410347    14.188077    19.732545    33.265059     9.524563    12.612127     22.30075    14.235163 
  665000    363.67821     59210169            0     59211584    12.683326    22.410353    14.188116    19.735015    33.265646    9.5283996    12.612127     22.30075    14.235163 
  665200    190.97869     59210448            0     59211192    12.683305    22.410323     14.18808    19.732964    33.262641    9.5248397    12.612127     22.30075    14.235163 
  665400    226.30602     59210784            0     59211665    12.683336    22.410335    14.188071    19.736067    33.263878    9.5239172    12.612127     22.30075    14.235163 
  665600    116.96986     59211757            0     59212213    12.683304    22.410342    14.188144    19.732827    33.264517     9.531232    12.612127     22.30075    14.235163 
  665800    257.29174     59211767            0     59212768    12.683314    22.410358    14.188268    19.733828    33.266115     9.543672    12.612127     22.30075    14.235163 
  666000    171.14364     59211680            0     59212346    12.683316    22.410354    14.187992    19.734007    33.265713    9.5160613    12.612127     22.30075    14.235163 
  666200    266.73017     59211090            0     59212128     12.68332     22.41036    14.188168    19.734473    33.266397      9.53367    12.612127     22.30075    14.235163 
  666400    211.82201     59210747            0     59211571    12.683331    22.410379    14.188352     19.73558    33.268285    9.5520115    12.612127     22.30075    14.235163 
  666600     275.8447     59210152            0     59211226    12.683298    22.410325    14.188051    19.732228    33.262854    9.5219162    12.612127     22.30075    14.235163 
  666800    375.25193     59211105            0     59212566      12.6833    22.410336    14.188081    19.732455    33.263938    9.5249494    12.612127     22.30075    14.235163 
  667000    87.957245     59210554            0     59210896    12.683342    22.410367    14.188215    19.736696    33.267066    9.5383459    12.612127     22.30075    14.235163 
  667200    238.83541     59210923            0     59211852    12.683309    22.410359     14.18828    19.733367    33.266287    9.5448474    12.612127     22.30075    14.235163 
  667400    179.50458     59211290            0     59211989    12.683319    22.410358    14.188054    19.734317    33.266115    9.5221962    12.612127     22.30075    14.235163 
  667600    207.24584     59211752            0     59212559    12.683318    22.410348    14.188449    19.734235    33.265177    9.5617756    12.612127     22.30075    14.235163 
  667800     118.7197     59211646            0     59212108    12.683328     22.41033    14.188089    19.735208    33.263356    9.5257558    12.612127     22.30075    14.235163 
  668000    118.41888     59210411            0     59210872    12.683299    22.410364     14.18796    19.732367    33.266723    9.5127971    12.612127     22.30075    14.235163 
  668200    196.93633     59210586            0     59211352    12.683311    22.410354    14.188038    19.733532    33.265724    9.5206868    12.612127     22.30075    14.235163 
  668400    190.28819     59211279            0     59212020    12.683316    22.410353    14.188055     19.73401    33.265683    9.5223835    12.612127     22.30075    14.235163 
  668600    247.94192     59210373            0     59211338    12.683315    22.410336    14.188175    19.733984    33.263941    9.5343188    12.612127     22.30075    14.235163 
  668800    156.71978     59210217            0     59210827    12.683277    22.410375    14.188082    19.730193    33.267832    9.5250415    12.612127     22.30075    14.235163 
  669000    198.60554     59211250            0     59212023    12.683299    22.410354     14.18837    19.732356    33.265756    9.5538964    12.612127     22.30075    14.235163 
  669200    135.27506     59211363            0     59211890    12.683332    22.410324    14.188178     19.73561     33.26271    9.5346334    12.612127     22.30075    14.235163 
  669400    191.31417     59210646            0     59211390      12.6833    22.410391    14.188279    19.732469     33.26943    9.5447072    12.612127     22.30075    14.235163 
  669600    202.24516     59211279            0     59212067    12.683323    22.410375    14.188125    19.734792    33.267843    9.5293491    12.612127     22.30075    14.235163 
  669800    370.09236     59210996            0     59212437     12.68329    22.410352    14.188093    19.731489    33.265593    9.5261886    12.612127     22.30075    14.235163 
  670000    279.68196     59210958            0     59212047    12.683347    22.410371    14.188153    19.737145    33.267442    9.5321192    12.612127     22.30075    14.235163 
  670200     238.5897     59210735            0     59211664    12.683339    22.410367    14.187932    19.736384    33.267082    9.5100144    12.612127     22.30075    14.235163 
  670400       407.08     59210763            0     59212348    12.683311    22.410352    14.188079    19.733509    33.265541    9.5247308    12.612127     22.30075    14.235163 
  670600    232.07931     59210965            0     59211868    12.683317    22.410353    14.188336    19.734118    33.265696    9.5504225    12.612127     22.30075    14.235163 
  670800    276.59702     59210948            0     59212024    12.683295    22.410348    14.188198    19.731898     33.26511    9.5366941    12.612127     22.30075    14.235163 
  671000    158.68685     59210372            0     59210989    12.683294    22.410361    14.188244    19.731831    33.266436     9.541294    12.612127     22.30075    14.235163 
  671200     117.1442     59210955            0     59211411      12.6833    22.410354    14.187959    19.732423    33.265746    9.5127239    12.612127     22.30075    14.235163 
  671400    167.38492     59211902            0     59212554    12.683272    22.410356    14.188217    19.729629    33.265929    9.5385785    12.612127     22.30075    14.235163 
  671600    213.78312     59210565            0     59211398    12.683321    22.410343    14.188138    19.734556    33.264613     9.530641    12.612127     22.30075    14.235163 
  671800    136.06376     59210871            0     59211401    12.683316    22.410354    14.188156    19.734051     33.26572    9.5324235    12.612127     22.30075    14.235163 
  672000    279.14718     59211026            0     59212112    12.683319    22.410353    14.187977    19.734375    33.265666    9.5145872    12.612127     22.30075    14.235163 
  672200    337.05703     59211231            0     59212543    12.683313    22.410351    14.188149    19.733785    33.265422    9.5317142    12.612127     22.30075    14.235163 
  672400     74.72749     59211060            0     59211351    12.683348     22.41036    14.188425    19.737233    33.266371    9.5593846    12.612127     22.30075    14.235163 
  672600     206.4072     59211472            0     59212275    12.683305    22.410374      14.1879    19.732948    33.267806    9.5068234    12.612127     22.30075    14.235163 
  672800    256.05248     59212077            0     59213073    12.683311    22.410372    14.188226    19.733522    33.267587    9.5394928    12.612127     22.30075    14.235163 
  673000    142.35385     59210770            0     59211325    12.683301    22.410326     14.18807    19.732576    33.262933    9.5238363    12.612127     22.30075    14.235163 
  673200    134.95941     59211218            0     59211743    12.683316    22.410353    14.188099    19.734014    33.265686     9.526702    12.612127     22.30075    14.235163 
  673400    229.03623     59210693            0     59211585    12.683313    22.410353    14.188135    19.733759    33.265699    9.5303821    12.612127     22.30075    14.235163 
  673600    92.465092     59211419            0     59211779    12.683306    22.410364    14.188029     19.73308    33.266735     9.519694    12.612127     22.30075    14.235163 
  673800    272.82413     59211861            0     59212923    12.683327    22.410353    14.188403    19.735183     33.26565    9.5571257    12.612127     22.30075    14.235163 
  674000    131.37079     59210535            0     59211047    12.683296     22.41033    14.188227    19.732042    33.263337    9.5395404    12.612127     22.30075    14.235163 
  674200    256.26759     59211106            0     59212103    12.683312    22.410369    14.188246    19.733674     33.26725    9.5414717    12.612127     22.30075    14.235163 
  674400     196.1689     59210957            0     59211720    12.683283    22.410355    14.188301    19.730765    33.265866    9.5469457    12.612127     22.30075    14.235163 
  674600    274.42756     59210540            0     59211608    12.683317    22.410351    14.188181    19.734146    33.265501     9.534935    12.612127     22.30075    14.235163 
  674800    182.99341     59210758            0     59211471    12.683274    22.410342    14.188028    19.729881    33.264588    9.5196797    12.612127     22.30075    14.235163 
  675000    411.81557     59211700            0     59213303    12.683315    22.410353    14.187861    19.733937    33.265672    9.5029343    12.612127     22.30075    14.235163 
  675200     272.3899     59210824            0     59211884    12.683298    22.410364    14.188068    19.732269    33.266711    9.5236401    12.612127     22.30075    14.235163 
  675400    246.34628     59210713            0     59211672     12.68333    22.410333    14.188186    19.735458    33.263693    9.5354803    12.612127     22.30075    14.235163 
  675600    148.89215     59210609            0     59211188     12.68331    22.410374    14.188132    19.733427    33.267784    9.5300706    12.612127     22.30075    14.235163 
  675800    173.87408     59210204            0     59210881    12.683315    22.410349    14.188181    19.733935    33.265251    9.5349235    12.612127     22.30075    14.235163 
  676000    315.31257     59211532            0     59212759    12.683299    22.410355    14.187957    19.732376    33.265874    9.5125227    12.612127     22.30075    14.235163 
  676200    143.41096     59210670            0     59211228    12.683317    22.410353    14.188227    19.734166    33.265676    9.5395217    12.612127     22.30075    14.235163 
  676400    175.01677     59212322            0     59213004    12.683315    22.410353    14.187987    19.733963    33.265609    9.5155143    12.612127     22.30075    14.235163 
  676600    280.06575     59210722            0     59211812    12.683293     22.41037    14.188325    19.731764     33.26733     9.549341    12.612127     22.30075    14.235163 
  676800    308.09995     59211021            0     59212220    12.683349     22.41035    14.188215    19.737363    33.265383    9.5383929    12.612127     22.30075    14.235163 
  677000    412.61953     59210963            0     59212569    12.683314    22.410356    14.187978    19.733804    33.266004    9.5146734    12.612127     22.30075    14.235163 
  677200    280.85583     59210191            0     59211284    12.683308    22.410368    14.188045    19.733259    33.267187    9.5213443    12.612127     22.30075    14.235163 
  677400    145.69772     59210413            0     59210980    12.683302    22.410341    14.187977    19.732648    33.264482    9.5145354    12.612127     22.30075    14.235163 
  677600    178.09451     59211040            0     59211733    12.683359     22.41038    14.188214    19.738313    33.268329     9.538266    12.612127     22.30075    14.235163 
  677800    266.60243     59210872            0     59211910    12.683341    22.410332    14.188192    19.736528    33.263596    9.5360472    12.612127     22.30075    14.235163 
  678000    119.75243     59211348            0     59211814    12.683325    22.410357    14.188156    19.734938    33.266012    9.5324419    12.612127     22.30075    14.235163 
  678200    271.23557     59211089            0     59212144     12.68331    22.410364    14.188286    19.733492    33.266792     9.545417    12.612127     22.30075    14.235163 
  678400     227.4077     59210564            0     59211449    12.683295    22.410389    14.187966    19.731911    33.269216    9.5134523    12.612127     22.30075    14.235163 
  678600    159.58272     59211534            0     59212155    12.683319    22.410349    14.188111    19.734386     33.26528    9.5279581    12.612127     22.30075    14.235163 
  678800    282.08427     59210151            0     59211249    12.683314    22.410351    14.188113    19.733855    33.265445    9.5281229    12.612127     22.30075    14.235163 
  679000    135.81719     59210964            0     59211493    12.683324    22.410322    14.187906     19.73488    33.262548    9.5074019    12.612127     22.30075    14.235163 
  679200    133.98296     59211289            0     59211811    12.683307    22.410324    14.188255    19.733165    33.262722    9.5423968    12.612127     22.30075    14.235163 
  679400    301.38518     59210895            0     59212069    12.683317    22.410359    14.188011    19.734108     33.26626    9.5179054    12.612127     22.30075    14.235163 
  679600    110.21685     59211567            0     59211996    12.683311      22.4103    14.188363    19.733562    33.260349    9.5531378    12.612127     22.30075    14.235163 
  679800    240.81898     59210754            0     59211691    12.683317    22.410352    14.188095    19.734126    33.265532    9.5263111    12.612127     22.30075    14.235163 
  680000    220.21882     59210798            0     59211655    12.683297    22.410348    14.188228    19.732196      33.2652    9.5396648    12.612127     22.30075    14.235163 
  680200    221.92126     59210632            0     59211496    12.683327    22.410351     14.18801    19.735102    33.265447    9.5178347    12.612127     22.30075    14.235163 
  680400    102.60899     59210536            0     59210936    12.683314    22.410348    14.188163    19.733878    33.265131    9.5331362    12.612127     22.30075    14.235163 
  680600    175.56368     59210648            0     59211332    12.683331    22.410376    14.188128    19.735511    33.267976    9.5296054    12.612127     22.30075    14.235163 
  680800    65.683641     59210869            0     59211125     12.68332    22.410331    14.188154    19.734419    33.263426    9.5322913    12.612127     22.30075    14.235163 
  681000    261.14762     59212671            0     59213688    12.683293    22.410378    14.187886    19.731775    33.268171    9.5054617    12.612127     22.30075    14.235163 
  681200    210.32943     59210229            0     59211048    12.683315    22.410352    14.187966    19.733906    33.265582    9.5134354    12.612127     22.30075    14.235163 
  681400    151.60047     59211932            0     59212522    12.683298    22.410348    14.188353    19.732291    33.265188    9.5521347    12.612127     22.30075    14.235163 
  681600    216.54935     59210817            0     59211660    12.683296    22.410369    14.188084    19.732061    33.267287    9.5252108    12.612127     22.30075    14.235163 
  681800    177.34127     59210485            0     59211175    12.683312    22.410359    14.188133    19.733691    33.266279    9.5301621    12.612127     22.30075    14.235163 
  682000    163.21807     59210348            0     59210983    12.683317     22.41035    14.188104    19.734185    33.265347    9.5272178    12.612127     22.30075    14.235163 
  682200    182.55609     59211457            0     59212168    12.683319    22.410354    14.188057    19.734326    33.265759    9.5225163    12.612127     22.30075    14.235163 
  682400    117.46449     59210458            0     59210916    12.683342     22.41035    14.188083    19.736604    33.265365    9.5251778    12.612127     22.30075    14.235163 
  682600    122.54368     59210601            0     59211078    12.683275    22.410372    14.188071    19.729971    33.267547     9.523938    12.612127     22.30075    14.235163 
  682800      311.919     59211633            0     59212848    12.683316    22.410353    14.188137    19.734016    33.265686    9.5305224    12.612127     22.30075    14.235163 
  683000    240.17362     59211205            0     59212140    12.683315    22.410352    14.188249    19.733945    33.265598    9.5417178    12.612127     22.30075    14.235163 
  683200    221.81883     59210900            0     59211763    12.683336    22.410354    14.188102    19.736082    33.265787     9.527025    12.612127     22.30075    14.235163 
  683400    240.59571     59210932            0     59211868    12.683316    22.410353    14.188162     19.73401    33.265687    9.5330761    12.612127     22.30075    14.235163 
  683600    306.45525     59211267            0     59212460    12.683334    22.410352    14.188311    19.735825     33.26558    9.5479699    12.612127     22.30075    14.235163 
  683800    271.35231     59211125            0     59212182    12.683323     22.41035    14.188197    19.734781    33.265311    9.5365685    12.612127     22.30075    14.235163 
  684000    315.57088     59210994            0     59212223    12.683311    22.410362    14.188237    19.733576    33.266551    9.5405631    12.612127     22.30075    14.235163 
  684200    158.81671     59211118            0     59211736    12.683302    22.410381     14.18832    19.732615     33.26845    9.5488614    12.612127     22.30075    14.235163 
  684400    206.23176     59211544            0     59212346    12.683315    22.410354    14.188068    19.733952    33.265749    9.5236252    12.612127     22.30075    14.235163 
  684600    179.75072     59211911            0     59212611    12.683307    22.410398    14.188303    19.733157    33.270154    9.5471585    12.612127     22.30075    14.235163 
  684800    139.58996     59210055            0     59210598    12.683315    22.410352    14.188032    19.733959    33.265568    9.5199918    12.612127     22.30075    14.235163 
  685000    126.39898     59210889            0     59211381    12.683313    22.410353    14.188113    19.733723    33.265684    9.5281127    12.612127     22.30075    14.235163 
  685200     225.2857     59210454            0     59211331    12.683313    22.410349     14.18817    19.733702    33.265222    9.5338948    12.612127     22.30075    14.235163 
  685400    285.41124     59212312            0     59213423    12.683316    22.410353    14.188191    19.734015    33.265685     9.535908    12.612127     22.30075    14.235163 
  685600    372.23676     59211556            0     59213005    12.683336    22.410352    14.188209    19.736023    33.265574    9.5377668    12.612127     22.30075    14.235163 
  685800    193.16959     59210879            0     59211631      12.6833    22.410348    14.188273    19.732484    33.265139    9.5441428    12.612127     22.30075    14.235163 
  686000    267.96677     59211635            0     59212678    12.683316    22.410353    14.188355    19.734014    33.265686    9.5523978    12.612127     22.30075    14.235163 
  686200    171.93066     59210764            0     59211433    12.683311    22.410344    14.188205    19.733528    33.264731    9.5373948    12.612127     22.30075    14.235163 
  686400    99.014265     59211969            0     59212354    12.683318    22.410348    14.188087    19.734237    33.265126    9.5255767    12.612127     22.30075    14.235163 
  686600    198.37991     59210519            0     59211291    12.683312    22.410362    14.188029    19.733692    33.266538    9.5197685    12.612127     22.30075    14.235163 
  686800    110.67917     59211569            0     59212000    12.683311    22.410341      14.1882    19.733535    33.264493    9.5368634    12.612127     22.30075    14.235163 
  687000    182.84728     59210976            0     59211688    12.683316    22.410353    14.188218    19.734011    33.265689    9.5386682    12.612127     22.30075    14.235163 
  687200    152.23421     59210466            0     59211059     12.68331    22.410365     14.18815    19.733438    33.266826    9.5318383    12.612127     22.30075    14.235163 
  687400    87.195099     59210914            0     59211253    12.683321    22.410346    14.188146    19.734588    33.264991    9.5314201    12.612127     22.30075    14.235163 
  687600    407.84341     59210696            0     59212284    12.683335    22.410353    14.188059    19.735988    33.265641     9.522757    12.612127     22.30075    14.235163 
  687800    423.56445     59211249            0     59212898    12.683298    22.410368    14.188059    19.732273    33.267205    9.5227613    12.612127     22.30075    14.235163 
  688000    175.00177     59211083            0     59211764    12.683339    22.410351    14.188237    19.736355     33.26547    9.5405114    12.612127     22.30075    14.235163 
  688200    322.67791     59211268            0     59212524    12.683302    22.410346    14.188334    19.732631    33.264987    9.5502648    12.612127     22.30075    14.235163 
  688400    171.73066     59210100            0     59210768    12.683342    22.410351    14.188178    19.736675    33.265464    9.5346869    12.612127     22.30075    14.235163 
  688600    136.10334     59210600            0     59211129    12.683317    22.410369    14.187918    19.734107    33.267252    9.5085945    12.612127     22.30075    14.235163 
  688800    320.41439     59210599            0     59211846    12.683317    22.410352    14.188047    19.734171     33.26558    9.5215037    12.612127     22.30075    14.235163 
  689000    311.41782     59210781            0     59211994    12.683339    22.410351    14.188105    19.736323    33.265503     9.527341    12.612127     22.30075    14.235163 
  689200    172.94931     59210403            0     59211076    12.683338    22.410352    14.188248    19.736262    33.265606    9.5416297    12.612127     22.30075    14.235163 
  689400    178.72791     59211084            0     59211780    12.683303    22.410338    14.188022    19.732781    33.264136    9.5190043    12.612127     22.30075    14.235163 
  689600    223.12297     59210858            0     59211727    12.683317    22.410329    14.188102    19.734154     33.26328    9.5270327    12.612127     22.30075    14.235163 
  689800    300.59475     59210822            0     59211993    12.683317    22.410356    14.188281    19.734155    33.265927    9.5449638    12.612127     22.30075    14.235163 
  690000    240.18169     59210826            0     59211761    12.683321    22.410361    14.188139    19.734499    33.266409    9.5307392    12.612127     22.30075    14.235163 
  690200    202.58963     59211245            0     59212033    12.683313    22.410373    14.188197    19.733753    33.267633    9.5365195    12.612127     22.30075    14.235163 
  690400     288.9607     59210870            0     59211995    12.683294    22.410375    14.188184    19.731879    33.267904    9.5352878    12.612127     22.30075    14.235163 
  690600    167.43543     59211376            0     59212028    12.683353    22.410323    14.187897    19.737763    33.262607    9.5065083    12.612127     22.30075    14.235163 
  690800    82.711924     59210495            0     59210817    12.683316    22.410353    14.188067    19.734024    33.265664    9.5235097    12.612127     22.30075    14.235163 
  691000    210.46609     59211656            0     59212476    12.683309    22.410365    14.188031    19.733346     33.26681     9.519934    12.612127     22.30075    14.235163 
  691200    217.28216     59210205            0     59211051    12.683316    22.410353    14.188081    19.734014    33.265686    9.5249075    12.612127     22.30075    14.235163 
  691400    329.34803     59210998            0     59212280    12.683278    22.410356    14.188032    19.730243    33.266001     9.520065    12.612127     22.30075    14.235163 
  691600    217.99699     59210656            0     59211505    12.683302    22.410331    14.188252    19.732637    33.263506    9.5420615    12.612127     22.30075    14.235163 
  691800    150.60123     59211395            0     59211981    12.683318    22.410356    14.188356     19.73422    33.266001    9.5524226    12.612127     22.30075    14.235163 
  692000    87.844121     59210865            0     59211207    12.683318    22.410351    14.188228    19.734266     33.26548    9.5396661    12.612127     22.30075    14.235163 
  692200     206.1338     59212052            0     59212854     12.68331    22.410368    14.188131    19.733457     33.26718    9.5299792    12.612127     22.30075    14.235163 
  692400    221.14749     59210372            0     59211233    12.683325    22.410366       14.188    19.734917    33.266974    9.5168709    12.612127     22.30075    14.235163 
  692600    198.41428     59210201            0     59210973    12.683346    22.410359    14.188078    19.737059     33.26623    9.5246057    12.612127     22.30075    14.235163 
  692800     145.0044     59210848            0     59211413    12.683316    22.410344    14.188123    19.734011    33.264759    9.5291034    12.612127     22.30075    14.235163 
  693000    77.032827     59211243            0     59211543    12.683324    22.410374    14.188103     19.73482    33.267765    9.5270985    12.612127     22.30075    14.235163 
  693200    151.31671     59211202            0     59211791    12.683316    22.410354     14.18829    19.734053    33.265772    9.5458951    12.612127     22.30075    14.235163 
  693400    214.64956     59211685            0     59212521    12.683316    22.410353    14.188249    19.734021    33.265673    9.5417983    12.612127     22.30075    14.235163 
  693600    243.87923     59210271            0     59211220    12.683316    22.410353     14.18812    19.734013    33.265684    9.5288839    12.612127     22.30075    14.235163 
  693800    369.87337     59211278            0     59212718    12.683312    22.410358    14.188062    19.733621    33.266193    9.5230033    12.612127     22.30075    14.235163 
  694000    135.11764     59210510            0     59211036     12.68332    22.410361    14.187967    19.734443    33.266462    9.5135498    12.612127     22.30075    14.235163 
  694200    275.96834     59211029            0     59212103    12.683325    22.410353    14.188082    19.734995    33.265676     9.525089    12.612127     22.30075    14.235163 
  694400    181.26208     59211062            0     59211767    12.683314    22.410381    14.188198    19.733873    33.268423    9.5366702    12.612127     22.30075    14.235163 
  694600    305.62151     59210696            0     59211886    12.683316    22.410353     14.18817    19.734007    33.265687    9.5338641    12.612127     22.30075    14.235163 
  694800    179.48195     59210547            0     59211246    12.683317     22.41035    14.188088     19.73417    33.265381    9.5256552    12.612127     22.30075    14.235163 
  695000    214.44612     59211462            0     59212297    12.683299    22.410357    14.188195     19.73239    33.266067    9.5363441    12.612127     22.30075    14.235163 
  695200    147.87888     59210955            0     59211531    12.683272    22.410375    14.188159    19.729599      33.2679     9.532766    12.612127     22.30075    14.235163 
  695400    241.58597     59210023            0     59210963    12.683321    22.410354    14.188167    19.734529    33.265735    9.5335821    12.612127     22.30075    14.235163 
  695600    128.32406     59210101            0     59210600    12.683308    22.410383    14.188074    19.733291     33.26864    9.5242548    12.612127     22.30075    14.235163 
  695800     187.0691     59211880            0     59212608    12.683336     22.41037    14.188183    19.736066    33.267364    9.5351463    12.612127     22.30075    14.235163 
  696000    287.51854     59212057            0     59213177    12.683323    22.410338    14.188256    19.734773    33.264186    9.5424377    12.612127     22.30075    14.235163 
  696200     235.1018     59210047            0     59210962    12.683316    22.410353    14.188126    19.734007    33.265704    9.5294275    12.612127     22.30075    14.235163 
  696400    274.33801     59211261            0     59212329    12.683329    22.410364    14.188107    19.735362     33.26672    9.5275288    12.612127     22.30075    14.235163 
  696600    236.88454     59211061            0     59211983    12.683317     22.41035    14.188139    19.734194    33.265332     9.530779    12.612127     22.30075    14.235163 
  696800    231.76121     59211598            0     59212501    12.683307    22.410351    14.188041    19.733119    33.265471    9.5209484    12.612127     22.30075    14.235163 
  697000    254.08443     59210355            0     59211344     12.68332    22.410318     14.18812     19.73445    33.262182    9.5288838    12.612127     22.30075    14.235163 
  697200    277.90948     59210274            0     59211355    12.683328    22.410353    14.188176    19.735238    33.265622    9.5344125    12.612127     22.30075    14.235163 
  697400    271.27879     59211490            0     59212546    12.683331    22.410352    14.188282    19.735526    33.265603    9.5450275    12.612127     22.30075    14.235163 
  697600    240.87305     59210515            0     59211453    12.683319    22.410344    14.188093     19.73434    33.264801     9.526097    12.612127     22.30075    14.235163 
  697800    234.18598     59211033            0     59211945    12.683317    22.410362     14.18799    19.734105    33.266595    9.5157944    12.612127     22.30075    14.235163 
  698000    132.66218     59211080            0     59211597    12.683339    22.410347    14.187884    19.736389    33.265048    9.5052736    12.612127     22.30075    14.235163 
  698200    229.64705     59210842            0     59211736    12.683354     22.41036    14.188022    19.737837     33.26638    9.5190825    12.612127     22.30075    14.235163 
  698400     156.4444     59210790            0     59211399    12.683306    22.410309    14.188305    19.733043    33.261279    9.5473094    12.612127     22.30075    14.235163 
  698600    199.79274     59210604            0     59211382    12.683315    22.410354     14.18811    19.733908    33.265759    9.5278257    12.612127     22.30075    14.235163 
  698800    159.65386     59211082            0     59211703    12.683346    22.410378    14.188071    19.737043    33.268135    9.5239157    12.612127     22.30075    14.235163 
  699000    124.93908     59209907            0     59210393    12.683315    22.410353    14.188017    19.733923    33.265609    9.5185765    12.612127     22.30075    14.235163 
  699200    171.52427     59210541            0     59211209    12.683318    22.410367    14.188277     19.73429    33.267104    9.5445119    12.612127     22.30075    14.235163 
  699400    187.54471     59210834            0     59211564    12.683326    22.410366    14.188138    19.735046    33.266999    9.5306238    12.612127     22.30075    14.235163 
  699600    151.90187     59211636            0     59212227    12.683306    22.410338    14.187983    19.733012    33.264138    9.5151782    12.612127     22.30075    14.235163 
  699800    146.36159     59210570            0     59211140    12.683316    22.410353    14.188336    19.734006    33.265676    9.5504973    12.612127     22.30075    14.235163 
  700000    55.192329     59211076            0     59211291    12.683323    22.410355    14.188046    19.734755     33.26587    9.5214302    12.612127     22.30075    14.235163 
  700200     304.4568     59210387            0     59211572    12.683285    22.410361    14.188108    19.730993    33.266447    9.5276899    12.612127     22.30075    14.235163 
  700400    208.21013     59210049            0     59210859    12.683304    22.410354    14.188129    19.732893     33.26575    9.5297663    12.612127     22.30075    14.235163 
  700600    109.59819     59211162            0     59211589    12.683316    22.410353    14.188141    19.734014    33.265686    9.5309651    12.612127     22.30075    14.235163 
  700800    397.68724     59210675            0     59212223    12.683316    22.410353    14.187889    19.734016    33.265685    9.5056924    12.612127     22.30075    14.235163 
  701000    283.50091     59210404            0     59211508    12.683345    22.410352    14.188165    19.736978    33.265523    9.5333391    12.612127     22.30075    14.235163 
  701200    186.38658     59210773            0     59211499    12.683335    22.410361    14.188204    19.735987    33.266458    9.5372488    12.612127     22.30075    14.235163 
  701400    143.34043     59211099            0     59211657    12.683335    22.410376    14.188043    19.735909    33.267979    9.5211306    12.612127     22.30075    14.235163 
  701600    239.90847     59209516            0     59210450    12.683313     22.41035    14.188028    19.733795    33.265348    9.5196375    12.612127     22.30075    14.235163 
  701800    171.59253     59209828            0     59210496    12.683303    22.410362    14.188136    19.732729    33.266517    9.5304707    12.612127     22.30075    14.235163 
  702000     224.0806     59210819            0     59211691    12.683299    22.410329     14.18797    19.732352    33.263271    9.5138728    12.612127     22.30075    14.235163 
  702200    138.35944     59210494            0     59211033     12.68332    22.410383    14.187976    19.734426    33.268634    9.5144129    12.612127     22.30075    14.235163 
  702400    300.75282     59210429            0     59211600    12.683348    22.410351    14.188069    19.737254    33.265505    9.5237025    12.612127     22.30075    14.235163 
  702600    332.19216     59209920            0     59211213    12.683332    22.410358    14.188091    19.735687    33.266194    9.5259069    12.612127     22.30075    14.235163 
  702800    120.94974     59211550            0     59212021     12.68331    22.410344    14.188188    19.733463    33.264805    9.5356114    12.612127     22.30075    14.235163 
  703000    129.18436     59212387            0     59212890    12.683316    22.410353     14.18829    19.734006    33.265688    9.5458038    12.612127     22.30075    14.235163 
  703200    274.97276     59210830            0     59211900    12.683309    22.410354    14.188137    19.733344    33.265724    9.5305677    12.612127     22.30075    14.235163 
  703400      186.816     59210921            0     59211648    12.683311     22.41035    14.188333    19.733525    33.265389     9.550113    12.612127     22.30075    14.235163 
  703600    264.13253     59210958            0     59211987    12.683316    22.410353     14.18828    19.734004    33.265669    9.5448568    12.612127     22.30075    14.235163 
  703800    213.58554     59210637            0     59211469    12.683316    22.410353    14.188073    19.734007    33.265687    9.5241718    12.612127     22.30075    14.235163 
  704000    152.05744     59210726            0     59211318    12.683326    22.410334    14.188047    19.735004    33.263729    9.5215633    12.612127     22.30075    14.235163 
  704200    272.14351     59211458            0     59212518    12.683323    22.410359    14.188013    19.734704      33.2663    9.5181777    12.612127     22.30075    14.235163 
  704400    178.11636     59210420            0     59211113    12.683324    22.410366    14.188137    19.734857    33.266943    9.5305075    12.612127     22.30075    14.235163 
  704600     92.00773     59210378            0     59210736    12.683316    22.410353    14.188048    19.734029    33.265654    9.5216285    12.612127     22.30075    14.235163 
  704800    90.447422     59210624            0     59210976    12.683317    22.410356    14.187983    19.734161    33.265911    9.5151214    12.612127     22.30075    14.235163 
  705000    109.21168     59210080            0     59210506     12.68333    22.410326    14.188109     19.73546    33.262943    9.5276998    12.612127     22.30075    14.235163 
  705200    217.50587     59210407            0     59211254    12.683312    22.410353    14.188106    19.733653    33.265704    9.5274719    12.612127     22.30075    14.235163 
  705400    92.944143     59211256            0     59211618    12.683316    22.410353    14.188401    19.734013    33.265686    9.5569183    12.612127     22.30075    14.235163 
  705600    199.15954     59210939            0     59211714      12.6833    22.410329    14.188145    19.732423    33.263253    9.5313409    12.612127     22.30075    14.235163 
  705800    198.30089     59211409            0     59212180    12.683316    22.410353    14.188136    19.734014    33.265686    9.5303972    12.612127     22.30075    14.235163 
  706000    107.59885     59209804            0     59210223    12.683328    22.410359    14.188031    19.735261    33.266276    9.5199387    12.612127     22.30075    14.235163 
  706200    165.93916     59210616            0     59211262    12.683315    22.410355    14.188053     19.73391    33.265884     9.522146    12.612127     22.30075    14.235163 
  706400    90.530199     59210669            0     59211021    12.683314    22.410353    14.188147    19.733822    33.265696    9.5315373    12.612127     22.30075    14.235163 
  706600    130.75087     59211860            0     59212369    12.683303    22.410368     14.18818    19.732768    33.267166    9.5348274    12.612127     22.30075    14.235163 
  706800    247.37999     59211895            0     59212858     12.68333    22.410333    14.188333    19.735473    33.263704    9.5501289    12.612127     22.30075    14.235163 
  707000    73.240959     59211464            0     59211750    12.683313    22.410347    14.188151    19.733756    33.265073    9.5319432    12.612127     22.30075    14.235163 
  707200    152.02032     59212342            0     59212934    12.683326    22.410332    14.188591    19.735097    33.263547    9.5760079    12.612127     22.30075    14.235163 
  707400    196.80966     59211410            0     59212176    12.683354    22.410351    14.187927    19.737808    33.265477    9.5095282    12.612127     22.30075    14.235163 
  707600    241.08106     59212046            0     59212985    12.683333    22.410352    14.188082    19.735775    33.265538    9.5250216    12.612127     22.30075    14.235163 
  707800    134.03898     59210834            0     59211356    12.683321    22.410353    14.188337    19.734559    33.265647    9.5505111    12.612127     22.30075    14.235163 
  708000    184.29933     59211101            0     59211819    12.683327    22.410353    14.188082    19.735185    33.265623    9.5250364    12.612127     22.30075    14.235163 
  708200    95.862482     59211540            0     59211913    12.683348    22.410378    14.188152    19.737206    33.268194    9.5320639    12.612127     22.30075    14.235163 
  708400    179.83782     59211531            0     59212231    12.683314    22.410353    14.187886    19.733816    33.265682     9.505386    12.612127     22.30075    14.235163 
  708600    269.79807     59209597            0     59210647     12.68332    22.410345    14.188166    19.734425    33.264872    9.5334253    12.612127     22.30075    14.235163 
  708800    156.95694     59210619            0     59211230    12.683315    22.410352    14.188259    19.733912    33.265539    9.5427563    12.612127     22.30075    14.235163 
  709000    345.40211     59210428            0     59211773    12.683308    22.410321    14.188139    19.733206    33.262468    9.5307153    12.612127     22.30075    14.235163 
  709200     255.0161     59209828            0     59210821    12.683315    22.410353    14.188116    19.733969    33.265651    9.5284484    12.612127     22.30075    14.235163 
  709400    208.15271     59210452            0     59211263    12.683314    22.410366     14.18834    19.733838    33.266985    9.5508965    12.612127     22.30075    14.235163 
  709600    169.91017     59210217            0     59210879     12.68332    22.410358    14.188362    19.734404    33.266166    9.5530926    12.612127     22.30075    14.235163 
  709800    207.96091     59210804            0     59211614    12.683313    22.410352    14.188394    19.733769    33.265525     9.556272    12.612127     22.30075    14.235163 
  710000    136.57978     59210655            0     59211187    12.683317    22.410334    14.188238    19.734146    33.263777    9.5406782    12.612127     22.30075    14.235163 
  710200    168.90873     59210866            0     59211524    12.683324    22.410352    14.188249    19.734806    33.265556    9.5417165    12.612127     22.30075    14.235163 
  710400    133.65881     59211042            0     59211562    12.683312    22.410341     14.18815    19.733668    33.264443    9.5317958    12.612127     22.30075    14.235163 
  710600    163.96807     59211519            0     59212157    12.683315    22.410355    14.188267    19.733959    33.265813    9.5435601    12.612127     22.30075    14.235163 
  710800    124.04348     59210390            0     59210872    12.683316    22.410353    14.188095    19.734017    33.265691    9.5263726    12.612127     22.30075    14.235163 
  711000    192.23715     59210775            0     59211523    12.683338    22.410361    14.188087    19.736229    33.266484     9.525532    12.612127     22.30075    14.235163 
  711200    220.18508     59210194            0     59211052    12.683281    22.410349     14.18811    19.730521    33.265288    9.5278056    12.612127     22.30075    14.235163 
  711400     178.6482     59210420            0     59211115    12.683336    22.410315     14.18805    19.736083    33.261893    9.5218233    12.612127     22.30075    14.235163 
  711600     172.0344     59210834            0     59211504     12.68333    22.410366     14.18827    19.735419    33.266978    9.5438957    12.612127     22.30075    14.235163 
  711800    237.74877     59210823            0     59211748    12.683316    22.410344    14.188029    19.734048    33.264774     9.519711    12.612127     22.30075    14.235163 
  712000    230.50144     59211701            0     59212599    12.683306    22.410376    14.188134    19.733047    33.267913    9.5302742    12.612127     22.30075    14.235163 
  712200    266.95302     59211047            0     59212086    12.683314    22.410357     14.18837    19.733848    33.266033      9.55385    12.612127     22.30075    14.235163 
  712400      202.563     59211283            0     59212072    12.683286    22.410355    14.188202    19.731079    33.265848    9.5370479    12.612127     22.30075    14.235163 
  712600    124.39019     59211613            0     59212097    12.683314    22.410357    14.188162    19.733814    33.266011    9.5330343    12.612127     22.30075    14.235163 
  712800    227.09601     59211273            0     59212157    12.683316    22.410353    14.188235    19.734013    33.265681     9.540311    12.612127     22.30075    14.235163 
  713000    108.31563     59211489            0     59211911    12.683342    22.410353    14.188151    19.736693    33.265668    9.5319778    12.612127     22.30075    14.235163 
  713200    188.72124     59210932            0     59211666    12.683301    22.410356    14.188127    19.732548    33.265913    9.5294964    12.612127     22.30075    14.235163 
  713400    305.56146     59211502            0     59212691    12.683316    22.410353    14.188117       19.734    33.265682    9.5285021    12.612127     22.30075    14.235163 
  713600    241.93704     59211663            0     59212605    12.683316    22.410353    14.187901    19.734015    33.265686    9.5069469    12.612127     22.30075    14.235163 
  713800    134.26284     59211251            0     59211774    12.683316    22.410353    14.188133    19.734013    33.265686    9.5301434    12.612127     22.30075    14.235163 
  714000    159.66627     59210963            0     59211584     12.68332    22.410327    14.188336    19.734495    33.263066    9.5504692    12.612127     22.30075    14.235163 
  714200    279.66899     59210953            0     59212041    12.683306     22.41033    14.188027    19.733061    33.263333      9.51954    12.612127     22.30075    14.235163 
  714400    245.03215     59212431            0     59213384     12.68332    22.410317    14.188399    19.734436    33.262032    9.5567771    12.612127     22.30075    14.235163 
  714600    212.27459     59211825            0     59212651    12.683339    22.410352    14.188237    19.736311     33.26556     9.540535    12.612127     22.30075    14.235163 
  714800    126.55462     59210894            0     59211386    12.683332    22.410351    14.188137    19.735693    33.265427    9.5305501    12.612127     22.30075    14.235163 
  715000    199.56189     59210913            0     59211690    12.683289    22.410349     14.18838    19.731376    33.265292    9.5548433    12.612127     22.30075    14.235163 
  715200    181.33562     59209646            0     59210352    12.683354    22.410357     14.18821    19.737842    33.266028    9.5378797    12.612127     22.30075    14.235163 
  715400    214.84638     59210899            0     59211736     12.68331    22.410364    14.188151    19.733424    33.266803    9.5319327    12.612127     22.30075    14.235163 
  715600    221.33571     59211308            0     59212169    12.683321    22.410362    14.187918    19.734582    33.266556    9.5086401    12.612127     22.30075    14.235163 
  715800    274.41896     59210658            0     59211726    12.683324    22.410353    14.188142    19.734806    33.265635    9.5310935    12.612127     22.30075    14.235163 
  716000    284.69659     59209927            0     59211035    12.683317     22.41035    14.188175    19.734197    33.265322    9.5343369    12.612127     22.30075    14.235163 
  716200    136.54895     59211692            0     59212224    12.683318    22.410353    14.188245    19.734206    33.265676    9.5413489    12.612127     22.30075    14.235163 
  716400    236.69789     59211580            0     59212502    12.683324    22.410337    14.188194    19.734827    33.264105    9.5362363    12.612127     22.30075    14.235163 
  716600    164.96785     59210292            0     59210934    12.683313    22.410314    14.188166    19.733793     33.26177    9.5334369    12.612127     22.30075    14.235163 
  716800    188.53607     59211688            0     59212422      12.6833    22.410371    14.188253    19.732464    33.267431    9.5421102    12.612127     22.30075    14.235163 
  717000    237.58775     59212032            0     59212957    12.683297    22.410324    14.188355    19.732107    33.262735    9.5523725    12.612127     22.30075    14.235163 
  717200    180.03833     59210755            0     59211456    12.683316    22.410351    14.187909    19.734016    33.265506    9.5077547    12.612127     22.30075    14.235163 
  717400    187.35073     59211243            0     59211972    12.683316    22.410353    14.188152    19.734014    33.265686    9.5319998    12.612127     22.30075    14.235163 
  717600    178.47469     59211634            0     59212328    12.683316    22.410354    14.188105    19.734019    33.265718    9.5273092    12.612127     22.30075    14.235163 
  717800    176.35086     59212418            0     59213105    12.683338    22.410352    14.187711    19.736275    33.265535    9.4879583    12.612127     22.30075    14.235163 
  718000    217.19549     59210769            0     59211615    12.683314    22.410351    14.188161    19.733873     33.26547    9.5329627    12.612127     22.30075    14.235163 
  718200     123.2387     59211043            0     59211523    12.683328    22.410355    14.188153    19.735213    33.265845    9.5321098    12.612127     22.30075    14.235163 
  718400    237.60586     59210931            0     59211856    12.683316    22.410363    14.188094     19.73402    33.266611    9.5262919    12.612127     22.30075    14.235163 
  718600     114.8141     59210528            0     59210975    12.683315    22.410355    14.187998    19.733923    33.265865    9.5166169    12.612127     22.30075    14.235163 
  718800    129.97573     59210465            0     59210971    12.683327     22.41033    14.188309    19.735193    33.263374    9.5477488    12.612127     22.30075    14.235163 
  719000    297.74705     59210267            0     59211426    12.683313    22.410359    14.187953    19.733706     33.26629    9.5120985    12.612127     22.30075    14.235163 
  719200    94.822041     59211249            0     59211618      12.6833    22.410321    14.188024    19.732421     33.26246     9.519262    12.612127     22.30075    14.235163 
  719400     189.4433     59211645            0     59212382    12.683296    22.410354    14.187897    19.732039    33.265789    9.5065692    12.612127     22.30075    14.235163 
  719600    135.42211     59210187            0     59210714    12.683301    22.410367    14.188093    19.732584     33.26702    9.5261297    12.612127     22.30075    14.235163 
  719800    349.80054     59211362            0     59212724    12.683288    22.410355    14.188186    19.731236    33.265821    9.5354092    12.612127     22.30075    14.235163 
  720000    223.06149     59211347            0     59212216    12.683322    22.410346    14.188074    19.734686    33.264913    9.5242887    12.612127     22.30075    14.235163 
  720200    224.91346     59210898            0     59211773    12.683345    22.410352    14.188249    19.736926    33.265598    9.5417502    12.612127     22.30075    14.235163 
  720400    216.24906     59210825            0     59211667    12.683302    22.410354    14.188238    19.732607    33.265768    9.5406072    12.612127     22.30075    14.235163 
  720600    330.17382     59211108            0     59212393    12.683314    22.410343    14.188152    19.733891     33.26462    9.5320598    12.612127     22.30075    14.235163 
  720800     110.1347     59212339            0     59212768    12.683322    22.410356    14.187938    19.734673    33.265923    9.5106178    12.612127     22.30075    14.235163 
  721000    204.59774     59209439            0     59210235    12.683321    22.410338     14.18818    19.734539    33.264144    9.5348422    12.612127     22.30075    14.235163 
  721200    153.65213     59210362            0     59210960      12.6833    22.410371    14.188031    19.732466    33.267501    9.5199062    12.612127     22.30075    14.235163 
  721400    228.76702     59211638            0     59212529    12.683292    22.410372    14.188046    19.731639    33.267541    9.5214816    12.612127     22.30075    14.235163 
  721600    310.47373     59210931            0     59212140    12.683305    22.410332    14.188018    19.732975    33.263518     9.518664    12.612127     22.30075    14.235163 
  721800    90.667121     59210448            0     59210801    12.683314    22.410348    14.187962    19.733846    33.265161    9.5130068    12.612127     22.30075    14.235163 
  722000    146.73204     59211606            0     59212177    12.683316    22.410353     14.18806    19.734045    33.265685    9.5228287    12.612127     22.30075    14.235163 
  722200    250.86235     59210383            0     59211359    12.683349    22.410351    14.188243    19.737329    33.265487    9.5411157    12.612127     22.30075    14.235163 
  722400    187.12122     59211159            0     59211888     12.68327     22.41034    14.188077    19.729487    33.264383    9.5245318    12.612127     22.30075    14.235163 
  722600    191.97777     59210975            0     59211722    12.683334    22.410368    14.188174    19.735844     33.26712    9.5342652    12.612127     22.30075    14.235163 
  722800    163.18968     59209822            0     59210458    12.683294    22.410355    14.188025    19.731822    33.265846    9.5193748    12.612127     22.30075    14.235163 
  723000    207.74003     59211675            0     59212484    12.683326    22.410376     14.18821    19.735057    33.267978    9.5378587    12.612127     22.30075    14.235163 
  723200    228.80751     59210565            0     59211455    12.683315    22.410353     14.18815    19.733995    33.265689    9.5318385    12.612127     22.30075    14.235163 
  723400    142.86948     59211169            0     59211725    12.683326    22.410372    14.188158    19.735093     33.26756    9.5326155    12.612127     22.30075    14.235163 
  723600    155.19744     59211065            0     59211669    12.683326    22.410306    14.188058    19.735029    33.260927    9.5226163    12.612127     22.30075    14.235163 
  723800    166.61339     59210541            0     59211189    12.683297    22.410325    14.188166    19.732151    33.262885    9.5334863    12.612127     22.30075    14.235163 
  724000    162.86579     59211746            0     59212380     12.68332    22.410353    14.188227    19.734432    33.265658    9.5395356    12.612127     22.30075    14.235163 
  724200     280.6416     59211218            0     59212311    12.683316    22.410353    14.188044    19.734013    33.265689    9.5212395    12.612127     22.30075    14.235163 
  724400     213.7742     59210889            0     59211721    12.683342     22.41033    14.188207    19.736634    33.263334    9.5375416    12.612127     22.30075    14.235163 
  724600     191.5078     59210555            0     59211300    12.683315    22.410353    14.188137    19.733986     33.26564     9.530528    12.612127     22.30075    14.235163 
  724800    183.58246     59211792            0     59212506    12.683326    22.410353    14.187986    19.735003     33.26564    9.5154776    12.612127     22.30075    14.235163 
  725000    192.31619     59211888            0     59212637    12.683303    22.410336    14.187872    19.732752    33.263923    9.5040593    12.612127     22.30075    14.235163 
  725200    73.288472     59210204            0     59210489    12.683304    22.410378    14.188079    19.732798    33.268134    9.5247022    12.612127     22.30075    14.235163 
  725400    243.89944     59211297            0     59212247     12.68332    22.410374    14.188262    19.734411    33.267763    9.5430157    12.612127     22.30075    14.235163 
  725600     281.6501     59210882            0     59211978    12.683321    22.410344     14.18813    19.734591    33.264757    9.5297977    12.612127     22.30075    14.235163 
  725800    165.82901     59211749            0     59212394    12.683305    22.410373     14.18786    19.732986    33.267707    9.5028665    12.612127     22.30075    14.235163 
  726000    138.70234     59211903            0     59212443    12.683313    22.410358    14.188155    19.733771    33.266163    9.5323367    12.612127     22.30075    14.235163 
  726200    313.54945     59210903            0     59212124    12.683326    22.410314    14.188236    19.734999    33.261765    9.5404104    12.612127     22.30075    14.235163 
  726400    274.29127     59210591            0     59211659    12.683333    22.410319    14.188174    19.735763    33.262225    9.5342712    12.612127     22.30075    14.235163 
  726600    201.16306     59210681            0     59211464    12.683331    22.410321    14.188062    19.735578    33.262438     9.523058    12.612127     22.30075    14.235163 
  726800    174.02022     59211226            0     59211904    12.683296    22.410353    14.188332    19.732093    33.265648    9.5500854    12.612127     22.30075    14.235163 
  727000    228.98739     59211113            0     59212005    12.683314     22.41035    14.188388    19.733809    33.265356    9.5556868    12.612127     22.30075    14.235163 
  727200    173.36279     59210180            0     59210855    12.683315    22.410353    14.188013    19.733995    33.265661    9.5181741    12.612127     22.30075    14.235163 
  727400    434.24498     59210198            0     59211888    12.683315    22.410354    14.188165    19.733932    33.265711    9.5333839    12.612127     22.30075    14.235163 
  727600    253.07192     59211036            0     59212021    12.683314    22.410353    14.187943    19.733808    33.265698    9.5111816    12.612127     22.30075    14.235163 
  727800    228.15511     59210947            0     59211836    12.683341    22.410352    14.188026    19.736561    33.265531    9.5194736    12.612127     22.30075    14.235163 
  728000    173.60896     59211778            0     59212454    12.683324    22.410326    14.187949    19.734836    33.262998    9.5116886    12.612127     22.30075    14.235163 
  728200    221.93966     59210793            0     59211657    12.683316    22.410354    14.188007    19.734081    33.265789    9.5175181    12.612127     22.30075    14.235163 
  728400     195.3387     59210749            0     59211509    12.683321    22.410353    14.188261    19.734534    33.265657    9.5429181    12.612127     22.30075    14.235163 
  728600    242.92223     59210070            0     59211016    12.683307    22.410324    14.188261    19.733146    33.262766    9.5428996    12.612127     22.30075    14.235163 
  728800     136.7945     59209883            0     59210416    12.683297    22.410321    14.188174    19.732169     33.26244    9.5342385    12.612127     22.30075    14.235163 
  729000    245.03779     59210720            0     59211674    12.683304    22.410296    14.188171    19.732813    33.259985    9.5339919    12.612127     22.30075    14.235163 
  729200    35.551996     59211816            0     59211955    12.683326    22.410353    14.188136    19.735001    33.265624    9.5304602    12.612127     22.30075    14.235163 
  729400    221.40024     59211148            0     59212010    12.683284    22.410368    14.188034    19.730822    33.267169    9.5202003    12.612127     22.30075    14.235163 
  729600    79.663267     59210608            0     59210918    12.683312    22.410348    14.187991    19.733642    33.265109    9.5159279    12.612127     22.30075    14.235163 
  729800    231.18682     59210405            0     59211305    12.683316    22.410349       14.188    19.734043     33.26527    9.5168855    12.612127     22.30075    14.235163 
  730000    267.53788     59209897            0     59210938    12.683329    22.410347    14.188229    19.735299    33.265103    9.5397387    12.612127     22.30075    14.235163 
  730200    165.49303     59210176            0     59210821    12.683315    22.410354    14.188137    19.733909    33.265782    9.5305521    12.612127     22.30075    14.235163 
  730400    112.34944     59210569            0     59211007    12.683338    22.410352    14.188027    19.736275    33.265561    9.5195848    12.612127     22.30075    14.235163 
  730600    186.18536     59210932            0     59211657    12.683316    22.410353    14.187981    19.734015    33.265686     9.514963    12.612127     22.30075    14.235163 
  730800    156.86331     59211461            0     59212071    12.683327    22.410354    14.187997    19.735163    33.265741    9.5165606    12.612127     22.30075    14.235163 
  731000    157.45365     59210566            0     59211179    12.683297     22.41037    14.188111    19.732183    33.267347    9.5278996    12.612127     22.30075    14.235163 
  731200    188.71633     59211168            0     59211902    12.683347    22.410375    14.188226    19.737169    33.267873    9.5394641    12.612127     22.30075    14.235163 
  731400     300.5463     59211567            0     59212737    12.683331    22.410375    14.187985    19.735576    33.267879    9.5153562    12.612127     22.30075    14.235163 
  731600    143.83093     59211726            0     59212286    12.683316    22.410353    14.188155    19.734014    33.265685    9.5322958    12.612127     22.30075    14.235163 
  731800    164.76941     59211702            0     59212344    12.683313    22.410399    14.188477    19.733708    33.270307    9.5645619    12.612127     22.30075    14.235163 
  732000    306.61708     59209845            0     59211038     12.68332    22.410359    14.188093    19.734416    33.266264    9.5261612    12.612127     22.30075    14.235163 
  732200    158.31981     59211955            0     59212571    12.683303    22.410378    14.188006    19.732768    33.268158    9.5174048    12.612127     22.30075    14.235163 
  732400     171.9166     59211069            0     59211738    12.683316    22.410345    14.188162    19.734087     33.26487     9.532998    12.612127     22.30075    14.235163 
  732600    286.71894     59211796            0     59212912    12.683311    22.410347    14.188206    19.733542    33.265036    9.5374897    12.612127     22.30075    14.235163 
  732800    114.47237     59210278            0     59210724    12.683299    22.410367    14.188142    19.732343    33.267074    9.5310714    12.612127     22.30075    14.235163 
  733000    148.83379     59211433            0     59212013    12.683325    22.410379    14.188138    19.734945     33.26829     9.530652    12.612127     22.30075    14.235163 
  733200    296.36126     59210159            0     59211313    12.683346    22.410351    14.188138    19.737083    33.265452    9.5306451    12.612127     22.30075    14.235163 
  733400    225.34635     59210713            0     59211591    12.683309    22.410377    14.188116    19.733365    33.268033    9.5284608    12.612127     22.30075    14.235163 
  733600    223.54932     59211806            0     59212677    12.683328    22.410353    14.187844    19.735244    33.265658    9.5011967    12.612127     22.30075    14.235163 
  733800    209.85205     59212141            0     59212958    12.683308    22.410368    14.188147    19.733293    33.267163    9.5315406    12.612127     22.30075    14.235163 
  734000    133.37425     59212030            0     59212549    12.683314    22.410352    14.188086    19.733881    33.265556    9.5254506    12.612127     22.30075    14.235163 
  734200    184.91534     59211143            0     59211863    12.683332    22.410353     14.18823    19.735621    33.265613    9.5398734    12.612127     22.30075    14.235163 
  734400    266.70089     59211197            0     59212236    12.683314    22.410342    14.188085    19.733843    33.264551    9.5253422    12.612127     22.30075    14.235163 
  734600    69.894176     59210473            0     59210745    12.683278    22.410358      14.1881    19.730234     33.26612     9.526878    12.612127     22.30075    14.235163 
  734800    211.59133     59210320            0     59211143     12.68333     22.41036    14.188066    19.735496    33.266387    9.5234416    12.612127     22.30075    14.235163 
  735000     220.4524     59210394            0     59211252    12.683317    22.410356    14.188163    19.734157    33.265942    9.5331518    12.612127     22.30075    14.235163 
  735200    283.84164     59210780            0     59211885    12.683328    22.410386    14.188261    19.735258    33.268919     9.542946    12.612127     22.30075    14.235163 
  735400    158.56449     59211120            0     59211737     12.68328    22.410361    14.188116    19.730424    33.266412    9.5284323    12.612127     22.30075    14.235163 
  735600    260.15967     59210604            0     59211617    12.683289    22.410336    14.188142    19.731326    33.263921    9.5310179    12.612127     22.30075    14.235163 
  735800    193.88359     59210417            0     59211172    12.683316    22.410353    14.188317    19.734021    33.265688     9.548565    12.612127     22.30075    14.235163 
  736000    210.55282     59211016            0     59211836     12.68333    22.410331    14.188074    19.735446    33.263428    9.5242462    12.612127     22.30075    14.235163 
  736200    325.29589     59210477            0     59211743    12.683318    22.410354    14.188085    19.734252    33.265798    9.5253848    12.612127     22.30075    14.235163 
  736400    259.73968     59211322            0     59212333    12.683363    22.410356    14.188092    19.738702    33.265984    9.5260801    12.612127     22.30075    14.235163 
  736600    110.66315     59211936            0     59212367    12.683306    22.410359    14.187888    19.733093    33.266224    9.5056704    12.612127     22.30075    14.235163 
  736800    162.81966     59210146            0     59210780    12.683303    22.410375    14.188021    19.732728    33.267858    9.5189301    12.612127     22.30075    14.235163 
  737000    311.58969     59210928            0     59212141    12.683328    22.410371    14.188382     19.73528    33.267426     9.555092    12.612127     22.30075    14.235163 
  737200    165.68715     59211340            0     59211985    12.683316    22.410353    14.187907    19.734014    33.265686    9.5075012    12.612127     22.30075    14.235163 
  737400    255.24397     59211068            0     59212061    12.683298    22.410388    14.188284    19.732253    33.269159     9.545207    12.612127     22.30075    14.235163 
  737600    154.73467     59210718            0     59211321    12.683309    22.410366    14.188199    19.733387    33.266984    9.5367865    12.612127     22.30075    14.235163 
  737800    210.51824     59211329            0     59212148    12.683316    22.410353    14.188101    19.734018    33.265679     9.526963    12.612127     22.30075    14.235163 
  738000    302.45147     59211354            0     59212531    12.683294    22.410356    14.188227    19.731881    33.265939    9.5395591    12.612127     22.30075    14.235163 
  738200     318.8164     59210688            0     59211929    12.683317    22.410353    14.187978    19.734133     33.26568    9.5146454    12.612127     22.30075    14.235163 
  738400    226.85976     59210607            0     59211490    12.683322     22.41034    14.188071    19.734605    33.264354    9.5239365    12.612127     22.30075    14.235163 
  738600    183.45991     59210719            0     59211433    12.683316    22.410364    14.188248    19.734069    33.266783    9.5416219    12.612127     22.30075    14.235163 
  738800    122.25261     59210594            0     59211070    12.683316    22.410352    14.188325    19.734049     33.26557    9.5493889    12.612127     22.30075    14.235163 
  739000     165.4385     59210239            0     59210883    12.683314    22.410353    14.188208    19.733859    33.265693    9.5376536    12.612127     22.30075    14.235163 
  739200    139.02119     59210332            0     59210873    12.683316    22.410353    14.188323    19.734014    33.265686    9.5491934    12.612127     22.30075    14.235163 
  739400    267.24504     59210925            0     59211966    12.683326    22.410333    14.188139    19.735033    33.263672    9.5307773    12.612127     22.30075    14.235163 
  739600    137.24996     59210075            0     59210609    12.683325    22.410338    14.188212    19.734978    33.264145    9.5380851    12.612127     22.30075    14.235163 
  739800    174.27588     59209871            0     59210549    12.683286    22.410368    14.188097    19.731064    33.267208    9.5265163    12.612127     22.30075    14.235163 
  740000    142.50583     59211044            0     59211599    12.683309    22.410367    14.188209    19.733309    33.267078     9.537769    12.612127     22.30075    14.235163 
  740200    118.79827     59210814            0     59211276    12.683346    22.410349    14.188203    19.737084     33.26529    9.5371676    12.612127     22.30075    14.235163 
  740400    290.65932     59210933            0     59212064    12.683309    22.410342    14.188126    19.733299    33.264544    9.5294375    12.612127     22.30075    14.235163 
  740600    212.27346     59210366            0     59211193    12.683339    22.410352    14.188062    19.736304    33.265559    9.5230313    12.612127     22.30075    14.235163 
  740800    165.23325     59211314            0     59211957    12.683346    22.410333    14.188055    19.737023    33.263639    9.5223731    12.612127     22.30075    14.235163 
  741000    228.14846     59211593            0     59212481    12.683318    22.410351    14.188348    19.734274     33.26545    9.5516063    12.612127     22.30075    14.235163 
  741200    239.08145     59211472            0     59212402    12.683318    22.410345    14.188365    19.734259     33.26487    9.5533209    12.612127     22.30075    14.235163 
  741400    350.43978     59211344            0     59212709      12.6833    22.410371    14.188176      19.7324    33.267463    9.5344955    12.612127     22.30075    14.235163 
  741600    246.09707     59211779            0     59212737    12.683316    22.410353    14.188058    19.734012    33.265686    9.5226752    12.612127     22.30075    14.235163 
  741800    185.74617     59210649            0     59211372    12.683315    22.410354    14.188204    19.733974    33.265763    9.5372544    12.612127     22.30075    14.235163 
  742000    155.07566     59211886            0     59212490    12.683338    22.410352    14.187982    19.736284    33.265561    9.5150644    12.612127     22.30075    14.235163 
  742200    203.70894     59210635            0     59211428    12.683307    22.410368    14.188231    19.733141    33.267161    9.5399574    12.612127     22.30075    14.235163 
  742400    236.67386     59211495            0     59212416    12.683332     22.41036    14.187808    19.735661    33.266372     9.497593    12.612127     22.30075    14.235163 
  742600    244.90308     59211928            0     59212881    12.683322    22.410342    14.188041    19.734624    33.264602    9.5209816    12.612127     22.30075    14.235163 
  742800    301.55996     59210619            0     59211793    12.683309    22.410353    14.188039    19.733366    33.265633    9.5207778    12.612127     22.30075    14.235163 
  743000    222.09892     59211796            0     59212661     12.68332    22.410318    14.187906    19.734427    33.262147     9.507405    12.612127     22.30075    14.235163 
  743200    274.77225     59211279            0     59212349    12.683317    22.410351    14.187918    19.734126    33.265465    9.5085876    12.612127     22.30075    14.235163 
  743400    302.02125     59210199            0     59211375    12.683312    22.410348    14.188275    19.733683    33.265177    9.5443589    12.612127     22.30075    14.235163 
  743600    277.92376     59211708            0     59212790    12.683316    22.410353    14.187978    19.734021    33.265692    9.5146517    12.612127     22.30075    14.235163 
  743800    93.021455     59210595            0     59210957    12.683306    22.410354    14.188229    19.733088    33.265711    9.5397924    12.612127     22.30075    14.235163 
  744000    205.02655     59210317            0     59211115    12.683318    22.410357    14.188104    19.734238    33.266056    9.5272093    12.612127     22.30075    14.235163 
  744200    200.76881     59210219            0     59211000    12.683319    22.410345    14.188102    19.734302    33.264834    9.5270294    12.612127     22.30075    14.235163 
  744400    160.11776     59210785            0     59211408     12.68334     22.41034    14.188119    19.736457    33.264389    9.5287354    12.612127     22.30075    14.235163 
  744600    134.06172     59210492            0     59211014    12.683319    22.410357    14.188188    19.734329    33.266045     9.535637    12.612127     22.30075    14.235163 
  744800    255.36341     59210750            0     59211744    12.683308    22.410372    14.188143    19.733284    33.267584    9.5311632    12.612127     22.30075    14.235163 
  745000     125.8534     59211312            0     59211802    12.683301    22.410387    14.188082    19.732595    33.269086     9.525064    12.612127     22.30075    14.235163 
  745200    124.59417     59210544            0     59211029    12.683319    22.410358    14.188007     19.73435    33.266187    9.5175501    12.612127     22.30075    14.235163 
  745400    129.43696     59211669            0     59212173    12.683328    22.410373    14.188022    19.735252     33.26761    9.5189953    12.612127     22.30075    14.235163 
  745600    102.41098     59210617            0     59211016    12.683322    22.410354    14.188195    19.734688    33.265757    9.5363754    12.612127     22.30075    14.235163 
  745800    185.55422     59212040            0     59212762    12.683316    22.410353    14.187959    19.734015    33.265686    9.5127706    12.612127     22.30075    14.235163 
  746000    339.59426     59210897            0     59212219    12.683302    22.410379    14.188148    19.732697    33.268288    9.5316131    12.612127     22.30075    14.235163 
  746200    208.07086     59210563            0     59211373    12.683335    22.410382    14.188257    19.735962    33.268539    9.5425698    12.612127     22.30075    14.235163 
  746400    260.52052     59211537            0     59212552    12.683314     22.41035    14.187993     19.73386    33.265385    9.5161403    12.612127     22.30075    14.235163 
  746600    160.83192     59210502            0     59211128    12.683316    22.410353    14.188056    19.734012    33.265678     9.522419    12.612127     22.30075    14.235163 
  746800    166.38252     59211600            0     59212248    12.683316    22.410353    14.188218    19.734013    33.265687     9.538637    12.612127     22.30075    14.235163 
  747000    155.52635     59210923            0     59211528     12.68334    22.410352    14.188053    19.736488    33.265548    9.5221586    12.612127     22.30075    14.235163 
  747200    138.17293     59211052            0     59211590    12.683316    22.410353    14.188102    19.734008    33.265686    9.5270136    12.612127     22.30075    14.235163 
  747400    244.14864     59210288            0     59211239    12.683318    22.410349    14.188134     19.73424     33.26524    9.5302263    12.612127     22.30075    14.235163 
  747600    163.09527     59211049            0     59211683     12.68333    22.410353    14.188035    19.735411    33.265702    9.5203257    12.612127     22.30075    14.235163 
  747800    143.91626     59210349            0     59210910     12.68332    22.410359    14.188245    19.734406    33.266292    9.5413523    12.612127     22.30075    14.235163 
  748000    178.86831     59211175            0     59211872    12.683361    22.410334    14.188237    19.738523     33.26378    9.5405774    12.612127     22.30075    14.235163 
  748200    115.00466     59210672            0     59211120    12.683349    22.410325    14.188049    19.737321    33.262824    9.5217885    12.612127     22.30075    14.235163 
  748400    235.71891     59211221            0     59212139    12.683316    22.410353    14.187934    19.734012    33.265686    9.5102367    12.612127     22.30075    14.235163 
  748600    317.06718     59210776            0     59212010    12.683294     22.41037    14.188134    19.731859    33.267332    9.5302731    12.612127     22.30075    14.235163 
  748800      199.057     59211513            0     59212288    12.683321    22.410349    14.188328    19.734547    33.265305    9.5496921    12.612127     22.30075    14.235163 
  749000    129.96499     59211194            0     59211699    12.683311    22.410362    14.188127    19.733551    33.266578    9.5295592    12.612127     22.30075    14.235163 
  749200    147.25931     59211829            0     59212402    12.683303    22.410347    14.187965    19.732758    33.265069    9.5133399    12.612127     22.30075    14.235163 
  749400    207.10938     59211652            0     59212459    12.683316    22.410364    14.188099    19.734031    33.266712    9.5267458    12.612127     22.30075    14.235163 
  749600    228.67115     59210140            0     59211030     12.68333     22.41036    14.188176    19.735426    33.266332    9.5344278    12.612127     22.30075    14.235163 
  749800    266.29827     59210631            0     59211668    12.683316    22.410353    14.188068    19.734015    33.265687    9.5236006    12.612127     22.30075    14.235163 
  750000    214.18127     59210379            0     59211212    12.683325    22.410353    14.188073    19.734966    33.265618    9.5241252    12.612127     22.30075    14.235163 
  750200    104.01174     59210054            0     59210458    12.683319    22.410349    14.188159    19.734315    33.265277    9.5326969    12.612127     22.30075    14.235163 
  750400    123.42757     59211626            0     59212106    12.683271    22.410366    14.188226    19.729581    33.267008    9.5394364    12.612127     22.30075    14.235163 
  750600    267.95086     59211657            0     59212700    12.683315    22.410358    14.187973     19.73393    33.266125    9.5141245    12.612127     22.30075    14.235163 
  750800    96.101977     59210822            0     59211196    12.683285    22.410356    14.188226    19.730947     33.26597    9.5394827    12.612127     22.30075    14.235163 
  751000    313.21864     59210582            0     59211801    12.683319    22.410353    14.188193     19.73436    33.265667    9.5361773    12.612127     22.30075    14.235163 
  751200    227.96057     59210188            0     59211075    12.683308    22.410342    14.187967    19.733248    33.264513    9.5135424    12.612127     22.30075    14.235163 
  751400    178.12457     59210330            0     59211023    12.683326    22.410366     14.18801    19.735038    33.266922     9.517851    12.612127     22.30075    14.235163 
  751600    220.65916     59210342            0     59211201    12.683339    22.410355    14.188109    19.736311    33.265834    9.5276945    12.612127     22.30075    14.235163 
  751800      202.162     59211820            0     59212607    12.683298    22.410368    14.188268    19.732293    33.267141    9.5436024    12.612127     22.30075    14.235163 
  752000    178.45123     59210379            0     59211074    12.683316    22.410353    14.188238    19.734014    33.265686    9.5406464    12.612127     22.30075    14.235163 
  752200    241.88302     59211187            0     59212128    12.683309    22.410339    14.188079    19.733334    33.264236    9.5247098    12.612127     22.30075    14.235163 
  752400    250.63924     59211292            0     59212268    12.683318    22.410341     14.18821    19.734246    33.264435    9.5378306    12.612127     22.30075    14.235163 
  752600    210.38198     59210918            0     59211737    12.683305    22.410337    14.188039    19.732965    33.264038    9.5207293    12.612127     22.30075    14.235163 
  752800    133.18124     59211244            0     59211762    12.683338    22.410353    14.187992    19.736266    33.265623    9.5160865    12.612127     22.30075    14.235163 
  753000     129.4589     59211405            0     59211909    12.683321    22.410342    14.188325    19.734514    33.264574    9.5493098    12.612127     22.30075    14.235163 
  753200    117.62819     59210859            0     59211317    12.683298    22.410355    14.188168    19.732284    33.265907    9.5336487    12.612127     22.30075    14.235163 
  753400    114.95339     59210078            0     59210525    12.683309    22.410359       14.188    19.733315    33.266272    9.5167998    12.612127     22.30075    14.235163 
  753600    307.09205     59210141            0     59211336    12.683303    22.410377    14.188034    19.732738    33.268101    9.5202428    12.612127     22.30075    14.235163 
  753800    171.17173     59211382            0     59212048    12.683318    22.410358    14.188047    19.734291    33.266128    9.5215129    12.612127     22.30075    14.235163 
  754000     269.7438     59211432            0     59212482    12.683316    22.410353     14.18824    19.734025    33.265686    9.5408581    12.612127     22.30075    14.235163 
  754200    208.98808     59211433            0     59212246    12.683319    22.410353    14.188084     19.73437    33.265667    9.5252066    12.612127     22.30075    14.235163 
  754400    239.31707     59210710            0     59211641    12.683303    22.410372     14.18825    19.732767    33.267582      9.54184    12.612127     22.30075    14.235163 
  754600    259.22418     59210498            0     59211507    12.683285    22.410355    14.188036    19.730936    33.265857    9.5203921    12.612127     22.30075    14.235163 
  754800    134.85768     59210658            0     59211183    12.683315    22.410352    14.188335    19.733909    33.265528    9.5503976    12.612127     22.30075    14.235163 
  755000    182.95583     59210913            0     59211626    12.683358    22.410329    14.187993    19.738272    33.263299    9.5161486    12.612127     22.30075    14.235163 
  755200    231.27475     59210749            0     59211649    12.683329    22.410328    14.187939    19.735371      33.2632    9.5106994    12.612127     22.30075    14.235163 
  755400    345.87628     59210917            0     59212264    12.683318    22.410349    14.188129    19.734238    33.265259    9.5297034    12.612127     22.30075    14.235163 
  755600    204.43701     59210432            0     59211228    12.683317    22.410347     14.18803    19.734122    33.265025    9.5198883    12.612127     22.30075    14.235163 
  755800    130.24173     59210581            0     59211088    12.683329    22.410328    14.188142    19.735347    33.263132     9.531088    12.612127     22.30075    14.235163 
  756000    260.21445     59210191            0     59211204    12.683315    22.410352    14.188053    19.733964    33.265608    9.5221044    12.612127     22.30075    14.235163 
  756200    216.99251     59211089            0     59211934    12.683309    22.410363    14.188203     19.73335    33.266681    9.5371209    12.612127     22.30075    14.235163 
  756400    182.06572     59210484            0     59211193    12.683316    22.410353    14.187964    19.734015    33.265688    9.5132162    12.612127     22.30075    14.235163 
  756600    240.40345     59210620            0     59211556    12.683307    22.410332    14.188196    19.733169    33.263528    9.5364695    12.612127     22.30075    14.235163 
  756800    157.26705     59210881            0     59211493    12.683316    22.410353     14.18796    19.734079    33.265685    9.5128775    12.612127     22.30075    14.235163 
  757000    200.40944     59210172            0     59210952    12.683317    22.410352    14.188153    19.734104    33.265594    9.5320982    12.612127     22.30075    14.235163 
  757200    243.08078     59211188            0     59212135    12.683316     22.41037    14.188165    19.734007    33.267371    9.5333778    12.612127     22.30075    14.235163 
  757400    203.13112     59210395            0     59211186    12.683318    22.410347    14.188108    19.734277    33.265081    9.5276452    12.612127     22.30075    14.235163 
  757600    137.97036     59210147            0     59210684    12.683308     22.41034    14.188211    19.733222    33.264318    9.5379569    12.612127     22.30075    14.235163 
  757800    202.02152     59210711            0     59211498    12.683313    22.410354    14.188202    19.733702    33.265749    9.5370785    12.612127     22.30075    14.235163 
  758000    127.85912     59210671            0     59211169    12.683323    22.410349    14.188072    19.734764    33.265302    9.5240553    12.612127     22.30075    14.235163 
  758200    190.68675     59211240            0     59211982    12.683296    22.410362    14.188218    19.732038    33.266522    9.5386065    12.612127     22.30075    14.235163 
  758400    196.20486     59211607            0     59212371    12.683292    22.410379    14.188068    19.731692    33.268251    9.5236288    12.612127     22.30075    14.235163 
  758600    304.75442     59211101            0     59212287    12.683297     22.41031    14.188135    19.732118    33.261391    9.5303399    12.612127     22.30075    14.235163 
  758800    194.44232     59211201            0     59211958    12.683316    22.410353    14.188181    19.734018    33.265693    9.5349147    12.612127     22.30075    14.235163 
  759000    222.22655     59211929            0     59212794    12.683316    22.410353    14.187751    19.734014    33.265685    9.4919173    12.612127     22.30075    14.235163 
  759200    149.59801     59210605            0     59211187    12.683316    22.410353    14.188198    19.734014    33.265686    9.5366667    12.612127     22.30075    14.235163 
  759400    315.06414     59212635            0     59213861    12.683323    22.410338     14.18775    19.734779    33.264175    9.4918401    12.612127     22.30075    14.235163 
  759600     134.9139     59211071            0     59211596    12.683326    22.410383    14.188118    19.735037    33.268667    9.5286304    12.612127     22.30075    14.235163 
  759800    135.92466     59211144            0     59211673    12.683316    22.410353    14.187945    19.734012    33.265695    9.5113101    12.612127     22.30075    14.235163 
  760000    149.55654     59210573            0     59211156    12.683355    22.410336     14.18798    19.737976    33.263985      9.51481    12.612127     22.30075    14.235163 
  760200    301.57962     59211121            0     59212295    12.683322    22.410328    14.188247      19.7346    33.263158    9.5415558    12.612127     22.30075    14.235163 
  760400    175.90034     59211692            0     59212376    12.683329    22.410353    14.188033    19.735343    33.265613    9.5201486    12.612127     22.30075    14.235163 
  760600    383.79767     59210153            0     59211647    12.683319    22.410367    14.188027     19.73433    33.267087     9.519556    12.612127     22.30075    14.235163 
  760800    158.62195     59210311            0     59210929    12.683328    22.410389    14.188112    19.735201    33.269221    9.5280764    12.612127     22.30075    14.235163 
  761000    272.94217     59209991            0     59211053    12.683313    22.410349    14.188162    19.733736    33.265232    9.5329958    12.612127     22.30075    14.235163 
  761200    111.88635     59211595            0     59212030    12.683314    22.410353    14.188083    19.733894    33.265688    9.5251112    12.612127     22.30075    14.235163 
  761400    386.81029     59210866            0     59212371    12.683316    22.410353    14.188171    19.734015    33.265686    9.5339515    12.612127     22.30075    14.235163 
  761600    229.81118     59211504            0     59212398    12.683314    22.410357    14.188175    19.733891    33.266018    9.5343068    12.612127     22.30075    14.235163 
  761800    226.89705     59210204            0     59211087      12.6833    22.410382    14.188125    19.732484    33.268537    9.5293876    12.612127     22.30075    14.235163 
  762000    183.05879     59210371            0     59211084    12.683324    22.410356    14.188019    19.734829     33.26598    9.5187413    12.612127     22.30075    14.235163 
  762200    148.33752     59210322            0     59210899    12.683315    22.410353    14.188271    19.733938    33.265691    9.5439037    12.612127     22.30075    14.235163 
  762400     239.9402     59210006            0     59210940    12.683308    22.410375    14.188133    19.733231    33.267821    9.5301677    12.612127     22.30075    14.235163 
  762600    259.17052     59210035            0     59211044    12.683318    22.410344    14.187891    19.734227    33.264755    9.5059506    12.612127     22.30075    14.235163 
  762800    250.81264     59210637            0     59211614    12.683284    22.410361    14.188275    19.730858    33.266438    9.5443652    12.612127     22.30075    14.235163 
  763000    200.07172     59210856            0     59211635    12.683312    22.410384    14.188205    19.733605    33.268745     9.537373    12.612127     22.30075    14.235163 
  763200     326.6931     59210612            0     59211883    12.683308    22.410354    14.187932    19.733283    33.265756    9.5100804    12.612127     22.30075    14.235163 
  763400     275.0202     59210702            0     59211773    12.683313    22.410383    14.188019    19.733795     33.26868    9.5187052    12.612127     22.30075    14.235163 
  763600    145.29234     59211606            0     59212171    12.683316    22.410353     14.18827    19.734023      33.2657    9.5438191    12.612127     22.30075    14.235163 
  763800    172.87618     59210432            0     59211105    12.683282    22.410353    14.188025    19.730621     33.26566    9.5193423    12.612127     22.30075    14.235163 
  764000    228.99373     59210837            0     59211729    12.683288    22.410331    14.188431    19.731244    33.263418    9.5599247    12.612127     22.30075    14.235163 
  764200    150.40581     59211780            0     59212365    12.683348    22.410341    14.188142     19.73722    33.264479    9.5310082    12.612127     22.30075    14.235163 
  764400    210.32528     59211421            0     59212239    12.683302    22.410378    14.188331    19.732684    33.268205    9.5499991    12.612127     22.30075    14.235163 
  764600    161.00515     59210762            0     59211389    12.683301    22.410366    14.188048    19.732542    33.266957      9.52161    12.612127     22.30075    14.235163 
  764800    114.61801     59210791            0     59211237    12.683316    22.410352    14.188045     19.73407    33.265572    9.5213117    12.612127     22.30075    14.235163 
  765000    215.36432     59210907            0     59211745    12.683311    22.410343    14.188105     19.73357    33.264677    9.5273833    12.612127     22.30075    14.235163 
  765200    239.96931     59211048            0     59211982    12.683338    22.410387    14.188297    19.736215    33.269092      9.54656    12.612127     22.30075    14.235163 
  765400     125.9426     59211155            0     59211645    12.683287    22.410361    14.188194    19.731131    33.266419    9.5362124    12.612127     22.30075    14.235163 
  765600    148.01601     59211692            0     59212268     12.68329    22.410325    14.188172    19.731437    33.262819     9.534082    12.612127     22.30075    14.235163 
  765800    257.73539     59210694            0     59211698    12.683312    22.410347    14.188052     19.73362    33.265083    9.5220648    12.612127     22.30075    14.235163 
  766000    265.18734     59211703            0     59212735     12.68335    22.410354      14.1882    19.737474    33.265777    9.5368633    12.612127     22.30075    14.235163 
  766200    208.29234     59210605            0     59211416    12.683307    22.410354    14.188085    19.733118     33.26575    9.5253651    12.612127     22.30075    14.235163 
  766400    249.64989     59210438            0     59211410    12.683317    22.410356     14.18793    19.734141    33.265911    9.5097981    12.612127     22.30075    14.235163 
  766600    185.68275     59210985            0     59211708    12.683302    22.410375    14.188077    19.732683    33.267841    9.5245013    12.612127     22.30075    14.235163 
  766800    97.298867     59211047            0     59211426     12.68332    22.410369    14.188135    19.734428    33.267295    9.5303182    12.612127     22.30075    14.235163 
  767000     198.0949     59211663            0     59212434    12.683301    22.410374    14.188132    19.732556    33.267716    9.5300132    12.612127     22.30075    14.235163 
  767200    138.08015     59212101            0     59212638    12.683311    22.410354    14.188131    19.733553    33.265712    9.5299722    12.612127     22.30075    14.235163 
  767400    259.28139     59210971            0     59211980    12.683342    22.410353    14.188023    19.736633    33.265654    9.5191186    12.612127     22.30075    14.235163 
  767600    196.93242     59211080            0     59211846    12.683314    22.410334    14.188405    19.733889    33.263733    9.5573515    12.612127     22.30075    14.235163 
  767800    143.87988     59211181            0     59211741    12.683314    22.410353    14.187892    19.733894    33.265695    9.5060081    12.612127     22.30075    14.235163 
  768000    185.20343     59211043            0     59211764    12.683315     22.41035    14.188122    19.733919    33.265324    9.5290751    12.612127     22.30075    14.235163 
  768200    299.40568     59211474            0     59212639    12.683311    22.410346    14.188215    19.733564    33.264997    9.5383025    12.612127     22.30075    14.235163 
  768400    154.55349     59211166            0     59211768    12.683316    22.410353    14.188155    19.734014    33.265687    9.5322966    12.612127     22.30075    14.235163 
  768600    254.45911     59211159            0     59212149    12.683309    22.410352    14.188161    19.733392    33.265567     9.532987    12.612127     22.30075    14.235163 
  768800    109.83395     59210189            0     59210616     12.68332    22.410373    14.188176    19.734457    33.267617    9.5344184    12.612127     22.30075    14.235163 
  769000    229.68649     59211283            0     59212177    12.683319    22.410366    14.188148    19.734319    33.266994    9.5316433    12.612127     22.30075    14.235163 
  769200    175.64506     59210339            0     59211023    12.683317    22.410355    14.188252    19.734102     33.26582    9.5420487    12.612127     22.30075    14.235163 
  769400     258.2321     59210508            0     59211513    12.683318    22.410353     14.18813    19.734286    33.265669    9.5298907    12.612127     22.30075    14.235163 
  769600    162.84467     59210627            0     59211261    12.683309    22.410365    14.188044    19.733379    33.266893    9.5212647    12.612127     22.30075    14.235163 
  769800    235.30729     59211454            0     59212370    12.683317    22.410356    14.188185    19.734141    33.265977    9.5353963    12.612127     22.30075    14.235163 
  770000    198.59911     59210739            0     59211512    12.683308    22.410367    14.187876    19.733259    33.267054    9.5044107    12.612127     22.30075    14.235163 
  770200      140.037     59210451            0     59210996    12.683323    22.410349    14.188141     19.73471    33.265285    9.5309753    12.612127     22.30075    14.235163 
  770400    159.55993     59211106            0     59211727    12.683312     22.41033    14.188063    19.733599    33.263344    9.5231852    12.612127     22.30075    14.235163 
  770600    376.08454     59210282            0     59211746    12.683352    22.410339    14.187984    19.737683    33.264222    9.5152587    12.612127     22.30075    14.235163 
  770800    333.60685     59210994            0     59212293    12.683319    22.410347     14.18815     19.73434     33.26506    9.5318285    12.612127     22.30075    14.235163 
  771000     52.66333     59210378            0     59210583    12.683317    22.410353    14.188126    19.734187    33.265677    9.5294169    12.612127     22.30075    14.235163 
  771200    221.59584     59211643            0     59212505    12.683287    22.410366    14.188331    19.731121    33.266929    9.5499079    12.612127     22.30075    14.235163 
  771400    165.89969     59210826            0     59211472    12.683314    22.410372    14.188245    19.733878    33.267597    9.5413272    12.612127     22.30075    14.235163 
  771600    89.378334     59210342            0     59210690    12.683339    22.410391    14.188278     19.73636    33.269431    9.5446174    12.612127     22.30075    14.235163 
  771800    215.27264     59211019            0     59211857    12.683352    22.410372    14.188132    19.737699    33.267559    9.5300675    12.612127     22.30075    14.235163 
  772000    190.77413     59211461            0     59212204    12.683322    22.410343    14.188023    19.734608    33.264628    9.5191419    12.612127     22.30075    14.235163 
  772200    193.22439     59210479            0     59211231    12.683315    22.410353    14.188107    19.733973    33.265668    9.5275074    12.612127     22.30075    14.235163 
  772400      196.761     59210998            0     59211764     12.68332    22.410358    14.188005    19.734447    33.266133    9.5173583    12.612127     22.30075    14.235163 
  772600    68.896518     59210835            0     59211103    12.683325    22.410347    14.188027    19.734968    33.265054    9.5194982    12.612127     22.30075    14.235163 
  772800    224.21256     59210971            0     59211844    12.683308    22.410369    14.188103    19.733217    33.267247    9.5271487    12.612127     22.30075    14.235163 
  773000    89.503448     59211004            0     59211352    12.683302     22.41038    14.187794    19.732665    33.268353    9.4962441    12.612127     22.30075    14.235163 
  773200    209.65334     59211009            0     59211825    12.683319    22.410347    14.188252    19.734357     33.26501    9.5420764    12.612127     22.30075    14.235163 
  773400     213.5128     59212038            0     59212870     12.68334    22.410352    14.188382    19.736454    33.265531    9.5551033    12.612127     22.30075    14.235163 
  773600    243.22188     59210105            0     59211051    12.683321    22.410353    14.188219     19.73454    33.265657    9.5387153    12.612127     22.30075    14.235163 
  773800    247.22158     59211145            0     59212107    12.683309    22.410354    14.187961    19.733312    33.265738    9.5129216    12.612127     22.30075    14.235163 
  774000    232.40133     59209984            0     59210889    12.683309    22.410364    14.188113    19.733376    33.266797    9.5281836    12.612127     22.30075    14.235163 
  774200    199.70572     59210632            0     59211410    12.683336    22.410332    14.188188    19.736068    33.263544    9.5355966    12.612127     22.30075    14.235163 
  774400     156.1368     59211496            0     59212104    12.683334    22.410326    14.188005    19.735829    33.262916     9.517304    12.612127     22.30075    14.235163 
  774600    325.49056     59210708            0     59211976    12.683335    22.410357    14.188014    19.735994    33.266039    9.5182316    12.612127     22.30075    14.235163 
  774800    216.76039     59210687            0     59211531    12.683308    22.410322    14.188123     19.73323    33.262595    9.5291643    12.612127     22.30075    14.235163 
  775000    141.30217     59211158            0     59211708    12.683316    22.410353    14.188101    19.734028    33.265658    9.5269253    12.612127     22.30075    14.235163 
  775200    201.51657     59210408            0     59211193    12.683342    22.410314    14.188313    19.736649    33.261727    9.5481687    12.612127     22.30075    14.235163 
  775400    181.09956     59211975            0     59212680     12.68331    22.410365    14.188299    19.733427    33.266825    9.5467292    12.612127     22.30075    14.235163 
  775600    224.69024     59211296            0     59212171    12.683316    22.410353     14.18811    19.734017    33.265683    9.5278182    12.612127     22.30075    14.235163 
  775800    260.59292     59210559            0     59211573    12.683331    22.410346    14.188134    19.735575    33.264967    9.5302026    12.612127     22.30075    14.235163 
  776000    319.56334     59211323            0     59212568    12.683296    22.410356    14.188066    19.732069    33.265987    9.5234614    12.612127     22.30075    14.235163 
  776200    301.33742     59211234            0     59212407    12.683297     22.41034    14.188298    19.732183    33.264399    9.5466634    12.612127     22.30075    14.235163 
  776400    152.56424     59210979            0     59211573     12.68334    22.410309    14.188107     19.73646    33.261241    9.5275864    12.612127     22.30075    14.235163 
  776600    279.69659     59210911            0     59212000      12.6833    22.410327    14.188014    19.732457    33.263095    9.5182628    12.612127     22.30075    14.235163 
  776800    208.86481     59210501            0     59211314    12.683306    22.410354    14.188099    19.733034     33.26574    9.5267705    12.612127     22.30075    14.235163 
  777000    164.67184     59209780            0     59210422    12.683292    22.410323    14.188114    19.731625    33.262654    9.5282388    12.612127     22.30075    14.235163 
  777200    109.47892     59210990            0     59211416    12.683324    22.410337    14.188191    19.734848    33.264035     9.535903    12.612127     22.30075    14.235163 
  777400    141.34757     59210187            0     59210738    12.683297    22.410359    14.188061    19.732133    33.266256    9.5229148    12.612127     22.30075    14.235163 
  777600    212.06649     59209993            0     59210818    12.683313    22.410358    14.187994    19.733778    33.266154    9.5162519    12.612127     22.30075    14.235163 
  777800    160.78594     59211061            0     59211687    12.683315    22.410354    14.188147    19.733956    33.265711    9.5315432    12.612127     22.30075    14.235163 
  778000    325.43543     59211024            0     59212291    12.683325    22.410367    14.188044    19.734905    33.267049    9.5212846    12.612127     22.30075    14.235163 
  778200    220.50661     59211012            0     59211870    12.683291    22.410379    14.187862    19.731528    33.268286    9.5030154    12.612127     22.30075    14.235163 
  778400    271.01209     59210572            0     59211627     12.68334    22.410359    14.188092     19.73647    33.266213    9.5260609    12.612127     22.30075    14.235163 
  778600    161.10752     59210556            0     59211183    12.683304    22.410354    14.188034    19.732883    33.265752    9.5202714    12.612127     22.30075    14.235163 
  778800    164.95249     59211515            0     59212158    12.683312    22.410351     14.18808    19.733651    33.265424    9.5248017    12.612127     22.30075    14.235163 
  779000    204.81543     59211998            0     59212796    12.683316    22.410353    14.188404    19.734019     33.26568    9.5572283    12.612127     22.30075    14.235163 
  779200    206.59686     59211852            0     59212656      12.6833    22.410354     14.18817    19.732464    33.265772    9.5338924    12.612127     22.30075    14.235163 
  779400    156.17137     59210689            0     59211297    12.683318    22.410357      14.1881    19.734284    33.266099    9.5268906    12.612127     22.30075    14.235163 
  779600    215.38908     59211650            0     59212488    12.683332    22.410352    14.187921    19.735687    33.265594    9.5089167    12.612127     22.30075    14.235163 
  779800    160.97781     59211357            0     59211984    12.683313    22.410359    14.188097    19.733773    33.266272    9.5265128    12.612127     22.30075    14.235163 
  780000    167.61732     59211127            0     59211780    12.683316    22.410353    14.187898     19.73403    33.265686    9.5066399    12.612127     22.30075    14.235163 
  780200    242.64172     59210725            0     59211670    12.683318    22.410344    14.188189    19.734264    33.264737    9.5357746    12.612127     22.30075    14.235163 
  780400    113.21595     59210449            0     59210890    12.683303    22.410338    14.188115    19.732761    33.264152    9.5283101    12.612127     22.30075    14.235163 
  780600    207.31049     59211895            0     59212702    12.683293    22.410354    14.188034    19.731735    33.265808    9.5202587    12.612127     22.30075    14.235163 
  780800    201.18482     59211334            0     59212117      12.6833    22.410384    14.188059    19.732467    33.268757     9.522781    12.612127     22.30075    14.235163 
  781000    139.89342     59212175            0     59212720    12.683319    22.410353    14.188176    19.734321     33.26567    9.5344951    12.612127     22.30075    14.235163 
  781200    218.99017     59210000            0     59210853    12.683316     22.41035    14.188087    19.734091    33.265366    9.5255889    12.612127     22.30075    14.235163 
  781400    353.08349     59211453            0     59212828    12.683314    22.410359    14.188091     19.73381     33.26627    9.5258967    12.612127     22.30075    14.235163 
  781600    162.26226     59211952            0     59212583    12.683338    22.410314    14.188305    19.736242    33.261796    9.5473106    12.612127     22.30075    14.235163 
  781800    145.05141     59211413            0     59211978    12.683308    22.410341     14.18815    19.733254     33.26448    9.5318272    12.612127     22.30075    14.235163 
  782000    266.22029     59210255            0     59211291    12.683316    22.410353     14.18815    19.734054    33.265667    9.5318732    12.612127     22.30075    14.235163 
  782200    281.89212     59211793            0     59212890    12.683314    22.410357    14.188395    19.733809    33.266093    9.5563965    12.612127     22.30075    14.235163 
  782400    229.52962     59210971            0     59211864    12.683299    22.410354    14.188077    19.732393    33.265789    9.5245509    12.612127     22.30075    14.235163 
  782600    156.45716     59210562            0     59211171    12.683305    22.410373    14.188082    19.732994    33.267696     9.525039    12.612127     22.30075    14.235163 
  782800    143.69131     59210276            0     59210836    12.683314     22.41036    14.188084    19.733865    33.266346    9.5252191    12.612127     22.30075    14.235163 
  783000    177.71991     59210858            0     59211549    12.683322    22.410343    14.188123    19.734614    33.264633    9.5291565    12.612127     22.30075    14.235163 
  783200    351.34811     59210869            0     59212237    12.683317     22.41035    14.188263     19.73419    33.265344    9.5431025    12.612127     22.30075    14.235163 
  783400    246.29497     59210947            0     59211905    12.683322    22.410363    14.187921     19.73467    33.266696    9.5089834    12.612127     22.30075    14.235163 
  783600    188.74833     59210596            0     59211331    12.683307     22.41034    14.187953    19.733159    33.264367    9.5121049    12.612127     22.30075    14.235163 
  783800    250.25625     59211021            0     59211996     12.68331    22.410354    14.188416    19.733477    33.265722    9.5584784    12.612127     22.30075    14.235163 
  784000    149.54916     59210738            0     59211320    12.683308    22.410306    14.188065    19.733262    33.260994    9.5233441    12.612127     22.30075    14.235163 
  784200    387.50131     59211490            0     59212998    12.683316    22.410353    14.187828    19.734024    33.265683    9.4996279    12.612127     22.30075    14.235163 
  784400    229.53718     59210664            0     59211558    12.683318    22.410352    14.188251    19.734255    33.265577    9.5419228    12.612127     22.30075    14.235163 
  784600    179.16147     59211249            0     59211947    12.683316    22.410353     14.18825    19.734013    33.265685    9.5418434    12.612127     22.30075    14.235163 
  784800    254.76381     59211507            0     59212499    12.683312    22.410348    14.187914    19.733697    33.265112     9.508242    12.612127     22.30075    14.235163 
  785000    175.49459     59210355            0     59211038    12.683367    22.410358    14.188182    19.739138    33.266141     9.535068    12.612127     22.30075    14.235163 
  785200     169.5746     59211164            0     59211825    12.683307    22.410358     14.18792    19.733165    33.266121    9.5088186    12.612127     22.30075    14.235163 
  785400    212.50362     59211276            0     59212104    12.683316    22.410356    14.188233    19.734088    33.265954    9.5401561    12.612127     22.30075    14.235163 
  785600    229.81116     59211331            0     59212226    12.683303    22.410368    14.188359    19.732793    33.267182    9.5527294    12.612127     22.30075    14.235163 
  785800    178.63907     59211605            0     59212300    12.683316    22.410353    14.187898    19.734031    33.265656    9.5066402    12.612127     22.30075    14.235163 
  786000    387.74986     59210276            0     59211785    12.683323    22.410352    14.188083    19.734699    33.265537    9.5251311    12.612127     22.30075    14.235163 
  786200    122.70379     59210124            0     59210602    12.683316    22.410353    14.188022    19.734013    33.265686    9.5190303    12.612127     22.30075    14.235163 
  786400    145.38719     59210261            0     59210827    12.683316    22.410353    14.188222    19.734054    33.265684    9.5390518    12.612127     22.30075    14.235163 
  786600    102.39985     59211164            0     59211563    12.683316    22.410353    14.188206    19.734017    33.265686    9.5374834    12.612127     22.30075    14.235163 
  786800    232.16272     59210838            0     59211742    12.683326    22.410353    14.188133    19.734998    33.265632     9.530131    12.612127     22.30075    14.235163 
  787000    213.52848     59211126            0     59211957    12.683275    22.410355    14.188156    19.729963    33.265903    9.5324094    12.612127     22.30075    14.235163 
  787200     254.3976     59210413            0     59211403    12.683308     22.41034    14.188193    19.733243    33.264349    9.5361065    12.612127     22.30075    14.235163 
  787400    116.60666     59212012            0     59212466    12.683328    22.410341    14.188391    19.735247    33.264422    9.5559349    12.612127     22.30075    14.235163 
  787600    289.60016     59211295            0     59212422    12.683375    22.410349    14.188302    19.739913    33.265288    9.5470417    12.612127     22.30075    14.235163 
  787800    117.82812     59211396            0     59211855    12.683315    22.410354    14.188363    19.733967    33.265733    9.5531503    12.612127     22.30075    14.235163 
  788000    230.11433     59211429            0     59212325    12.683339     22.41034    14.188169    19.736381    33.264323    9.5336993    12.612127     22.30075    14.235163 
  788200    303.46797     59211537            0     59212718    12.683316    22.410353    14.188344    19.734014    33.265686    9.5512155    12.612127     22.30075    14.235163 
  788400    161.32268     59210276            0     59210904    12.683314    22.410379    14.188259    19.733851    33.268239    9.5427144    12.612127     22.30075    14.235163 
  788600    213.96167     59211727            0     59212559    12.683316    22.410353    14.188185    19.734059    33.265681     9.535367    12.612127     22.30075    14.235163 
  788800    197.28282     59211395            0     59212163    12.683328    22.410329    14.188265     19.73527    33.263211    9.5433373    12.612127     22.30075    14.235163 
  789000    148.33388     59211254            0     59211832    12.683332    22.410322    14.188181    19.735605    33.262538    9.5349264    12.612127     22.30075    14.235163 
  789200    299.52548     59211127            0     59212293    12.683335    22.410352     14.18808     19.73596    33.265579    9.5248535    12.612127     22.30075    14.235163 
  789400    202.75994     59210780            0     59211569    12.683316    22.410353    14.188161    19.734013    33.265686    9.5329585    12.612127     22.30075    14.235163 
  789600    314.79993     59210420            0     59211645    12.683309    22.410356    14.188152    19.733372    33.265913    9.5320136    12.612127     22.30075    14.235163 
  789800    237.07316     59210565            0     59211488    12.683348     22.41038    14.188082     19.73726    33.268363    9.5250374    12.612127     22.30075    14.235163 
  790000    126.64082     59210721            0     59211214    12.683316    22.410353     14.18814    19.734014    33.265686    9.5308245    12.612127     22.30075    14.235163 
  790200    117.19282     59211339            0     59211795    12.683333    22.410374    14.188156    19.735703    33.267749    9.5324714    12.612127     22.30075    14.235163 
  790400    157.28737     59211983            0     59212595    12.683306    22.410338    14.188203    19.733027    33.264182    9.5371164    12.612127     22.30075    14.235163 
  790600     182.1125     59211550            0     59212259    12.683311    22.410382    14.187976    19.733593    33.268533    9.5144668    12.612127     22.30075    14.235163 
  790800    171.91923     59211117            0     59211787    12.683317    22.410358    14.188135    19.734103    33.266158    9.5303697    12.612127     22.30075    14.235163 
  791000    143.77955     59210463            0     59211023    12.683316    22.410353    14.188115    19.734013    33.265686    9.5283026    12.612127     22.30075    14.235163 
  791200    228.19504     59210782            0     59211671     12.68333    22.410367    14.188108    19.735483    33.267103    9.5276529    12.612127     22.30075    14.235163 
  791400    148.38146     59212565            0     59213142    12.683318    22.410358    14.187909    19.734231    33.266149    9.5077243    12.612127     22.30075    14.235163 
  791600    119.29811     59210195            0     59210660    12.683316    22.410353      14.1882    19.734014    33.265686    9.5368765    12.612127     22.30075    14.235163 
  791800    80.955751     59211165            0     59211481    12.683309    22.410355    14.187986    19.733324    33.265847     9.515428    12.612127     22.30075    14.235163 
  792000    154.90745     59212572            0     59213175    12.683317     22.41035    14.188243    19.734174    33.265369    9.5411499    12.612127     22.30075    14.235163 
  792200    197.61765     59211663            0     59212433    12.683325    22.410369    14.188036    19.734935    33.267236    9.5204503    12.612127     22.30075    14.235163 
  792400    165.95042     59210740            0     59211386     12.68332    22.410353    14.188102    19.734405    33.265707    9.5270225    12.612127     22.30075    14.235163 
  792600    244.44603     59210940            0     59211891    12.683332    22.410364    14.188013    19.735679    33.266777    9.5181345    12.612127     22.30075    14.235163 
  792800    254.47105     59211392            0     59212383    12.683325    22.410359    14.188388      19.7349    33.266259    9.5556078    12.612127     22.30075    14.235163 
  793000    213.51843     59210318            0     59211149    12.683316    22.410353    14.188096    19.734007      33.2657    9.5263973    12.612127     22.30075    14.235163 
  793200    53.899023     59210603            0     59210813     12.68331    22.410354    14.188286    19.733441     33.26572     9.545486    12.612127     22.30075    14.235163 
  793400    87.381722     59210602            0     59210942    12.683308    22.410341     14.18825    19.733216     33.26443    9.5418799    12.612127     22.30075    14.235163 
  793600    287.18396     59210699            0     59211817    12.683323    22.410353    14.188181    19.734722    33.265634    9.5349503    12.612127     22.30075    14.235163 
  793800     208.2795     59211827            0     59212638    12.683292    22.410332    14.188239    19.731659    33.263564     9.540713    12.612127     22.30075    14.235163 
  794000    164.63132     59211459            0     59212100    12.683341    22.410339    14.188147    19.736545    33.264241     9.531555    12.612127     22.30075    14.235163 
  794200     132.5067     59211356            0     59211872      12.6833     22.41036    14.188013    19.732443     33.26636    9.5181426    12.612127     22.30075    14.235163 
  794400    97.265784     59210806            0     59211185     12.68328    22.410358    14.188296    19.730431    33.266184    9.5464095    12.612127     22.30075    14.235163 
  794600    154.61634     59211856            0     59212458    12.683349    22.410351    14.187861    19.737301    33.265504    9.5029275    12.612127     22.30075    14.235163 
  794800    169.47617     59210294            0     59210953    12.683335    22.410373    14.188034    19.735984    33.267644    9.5202294    12.612127     22.30075    14.235163 
  795000    198.28844     59211868            0     59212640    12.683319    22.410363    14.187951    19.734331    33.266622    9.5119268    12.612127     22.30075    14.235163 
  795200    270.18126     59211006            0     59212058    12.683354    22.410347    14.188164    19.737816    33.265067    9.5332804    12.612127     22.30075    14.235163 
  795400    96.042778     59211235            0     59211609    12.683344     22.41035    14.188083    19.736826    33.265338    9.5251278    12.612127     22.30075    14.235163 
  795600    204.30244     59209973            0     59210768     12.68331    22.410349     14.18803    19.733414    33.265281    9.5198616    12.612127     22.30075    14.235163 
  795800    239.93969     59211536            0     59212470    12.683316    22.410353    14.188039    19.734014    33.265686    9.5207556    12.612127     22.30075    14.235163 
  796000    260.80507     59211215            0     59212230    12.683314    22.410353     14.18818    19.733812     33.26566    9.5348089    12.612127     22.30075    14.235163 
  796200    213.38937     59211957            0     59212788    12.683314    22.410354    14.187937    19.733884    33.265727    9.5105824    12.612127     22.30075    14.235163 
  796400    267.66345     59209852            0     59210894    12.683311    22.410347    14.188007    19.733587     33.26503    9.5175472    12.612127     22.30075    14.235163 
  796600    150.32181     59211565            0     59212150    12.683316    22.410353    14.187943    19.734015    33.265686    9.5111182    12.612127     22.30075    14.235163 
  796800    161.91378     59211323            0     59211954    12.683304    22.410335    14.187986    19.732828    33.263874    9.5154035    12.612127     22.30075    14.235163 
  797000    301.80628     59211977            0     59213151    12.683322    22.410352    14.188183     19.73465     33.26557    9.5351743    12.612127     22.30075    14.235163 
  797200    204.91873     59211335            0     59212132    12.683276    22.410396    14.188001    19.730069    33.269991    9.5169828    12.612127     22.30075    14.235163 
  797400    208.81403     59210308            0     59211121    12.683334    22.410325    14.188316    19.735858    33.262815    9.5484814    12.612127     22.30075    14.235163 
  797600    242.00369     59210450            0     59211392    12.683331    22.410373    14.188261    19.735551    33.267666    9.5429173    12.612127     22.30075    14.235163 
  797800    485.89123     59211086            0     59212978    12.683301    22.410348    14.188165    19.732497    33.265141    9.5333857    12.612127     22.30075    14.235163 
  798000    42.493181     59210442            0     59210607    12.683277    22.410355    14.188128    19.730099      33.2659    9.5296032    12.612127     22.30075    14.235163 
  798200    261.28789     59211520            0     59212537    12.683348     22.41035    14.188024    19.737231    33.265342    9.5192715    12.612127     22.30075    14.235163 
  798400    192.44489     59211531            0     59212280    12.683299     22.41035     14.18826    19.732322    33.265331    9.5428625    12.612127     22.30075    14.235163 
  798600    235.05288     59210844            0     59211759    12.683321    22.410377     14.18801    19.734578    33.268089    9.5178486    12.612127     22.30075    14.235163 
  798800    143.37051     59211544            0     59212102    12.683316    22.410373    14.188364    19.734006    33.267637    9.5532602    12.612127     22.30075    14.235163 
  799000    235.79557     59210871            0     59211789    12.683322    22.410346    14.188053    19.734685    33.264956    9.5221661    12.612127     22.30075    14.235163 
  799200    222.31174     59211276            0     59212142    12.683328    22.410372    14.188219    19.735254    33.267584    9.5387646    12.612127     22.30075    14.235163 
  799400    227.19754     59210592            0     59211476    12.683303    22.410383    14.188058    19.732767    33.268649    9.5226812    12.612127     22.30075    14.235163 
  799600    273.57891     59210256            0     59211321    12.683319    22.410357    14.188171    19.734305    33.266068    9.5339024    12.612127     22.30075    14.235163 
  799800    286.78814     59210623            0     59211739    12.683339    22.410359    14.188055    19.736396    33.266247    9.5223007    12.612127     22.30075    14.235163 
  800000    181.81252     59210592            0     59211300    12.683312    22.410344    14.187976    19.733652     33.26474    9.5144504    12.612127     22.30075    14.235163 
  800200    206.22986     59210900            0     59211703    12.683316    22.410354    14.188028    19.734071    33.265759    9.5196617    12.612127     22.30075    14.235163 
  800400     136.2765     59210665            0     59211196    12.683326    22.410328    14.188106    19.735009    33.263142    9.5274391    12.612127     22.30075    14.235163 
  800600    76.198653     59210680            0     59210976     12.68332    22.410362    14.188204    19.734459    33.266602    9.5372069    12.612127     22.30075    14.235163 
  800800    302.50143     59210424            0     59211602    12.683329    22.410355    14.188096    19.735375    33.265896    9.5263977    12.612127     22.30075    14.235163 
  801000    170.69471     59211344            0     59212008    12.683276    22.410355    14.188413    19.730094    33.265836    9.5581859    12.612127     22.30075    14.235163 
  801200    207.59801     59210373            0     59211181    12.683315    22.410377    14.188089    19.733935    33.268013    9.5257841    12.612127     22.30075    14.235163 
  801400    267.47957     59210759            0     59211800    12.683314     22.41035    14.188104    19.733823    33.265394     9.527248    12.612127     22.30075    14.235163 
  801600    256.09789     59210452            0     59211449    12.683283    22.410357    14.188254    19.730743    33.266064    9.5422228    12.612127     22.30075    14.235163 
  801800    299.59667     59210437            0     59211603    12.683316    22.410353    14.188263    19.734012    33.265685    9.5431531    12.612127     22.30075    14.235163 
  802000     197.5017     59211344            0     59212112    12.683324    22.410377    14.188197     19.73484    33.268032    9.5365722    12.612127     22.30075    14.235163 
  802200    204.92183     59209969            0     59210767    12.683281    22.410368    14.188068    19.730562    33.267154    9.5236613    12.612127     22.30075    14.235163 
  802400    129.76486     59210995            0     59211500    12.683317    22.410354    14.188213    19.734099    33.265807     9.538142    12.612127     22.30075    14.235163 
  802600    188.05115     59210985            0     59211717    12.683311    22.410337    14.188123    19.733522     33.26405    9.5291735    12.612127     22.30075    14.235163 
  802800    156.88837     59209584            0     59210195     12.68336    22.410362    14.188123    19.738411    33.266544     9.529146    12.612127     22.30075    14.235163 
  803000    103.91186     59211044            0     59211448    12.683316    22.410353    14.188101    19.734014    33.265686    9.5269129    12.612127     22.30075    14.235163 
  803200    215.80063     59210819            0     59211659    12.683298    22.410326    14.188124    19.732226    33.262949    9.5292491    12.612127     22.30075    14.235163 
  803400    73.068093     59211119            0     59211404    12.683313    22.410356    14.188122    19.733756    33.265951    9.5290672    12.612127     22.30075    14.235163 
  803600    218.08587     59211173            0     59212022    12.683316    22.410322     14.18785    19.734073    33.262537     9.501876    12.612127     22.30075    14.235163 
  803800    288.34841     59210912            0     59212035    12.683316    22.410353    14.188232    19.734028    33.265685    9.5400891    12.612127     22.30075    14.235163 
  804000    128.38711     59210588            0     59211087     12.68331    22.410367    14.188203    19.733444    33.267018     9.537191    12.612127     22.30075    14.235163 
  804200     130.2184     59211725            0     59212232    12.683302    22.410343    14.188251    19.732674    33.264684    9.5419786    12.612127     22.30075    14.235163 
  804400    236.00535     59209796            0     59210715    12.683316    22.410353    14.188102    19.734088    33.265662      9.52706    12.612127     22.30075    14.235163 
  804600      251.696     59210320            0     59211300    12.683311    22.410354    14.188154    19.733501    33.265732    9.5322316    12.612127     22.30075    14.235163 
  804800    323.73649     59211312            0     59212573    12.683316    22.410353    14.188069    19.734043    33.265685    9.5237034    12.612127     22.30075    14.235163 
  805000    307.09186     59210874            0     59212069    12.683315    22.410353    14.187951    19.733971    33.265688    9.5119376    12.612127     22.30075    14.235163 
  805200     309.8378     59210857            0     59212063    12.683316    22.410353    14.187978    19.734014    33.265686    9.5146066    12.612127     22.30075    14.235163 
  805400    143.86164     59210588            0     59211148    12.683317    22.410356    14.188123    19.734169    33.265938    9.5291086    12.612127     22.30075    14.235163 
  805600    127.44066     59210519            0     59211015    12.683309    22.410363     14.18808    19.733308    33.266679    9.5248754    12.612127     22.30075    14.235163 
  805800    153.33066     59211652            0     59212249    12.683258    22.410353    14.188143    19.728238    33.265702     9.531117    12.612127     22.30075    14.235163 
  806000    198.69149     59211251            0     59212025     12.68331    22.410354    14.188306    19.733431    33.265718    9.5474222    12.612127     22.30075    14.235163 
  806200     109.7748     59210954            0     59211382    12.683316    22.410353    14.188061    19.734006    33.265681    9.5229014    12.612127     22.30075    14.235163 
  806400    175.85186     59211902            0     59212586    12.683325    22.410328    14.188095    19.734921    33.263125    9.5263238    12.612127     22.30075    14.235163 
  806600    121.06997     59211320            0     59211792    12.683297    22.410341    14.188184    19.732159     33.26443    9.5352953    12.612127     22.30075    14.235163 
  806800    170.55243     59210443            0     59211107    12.683333    22.410355    14.188233    19.735712    33.265809    9.5401685    12.612127     22.30075    14.235163 
  807000    113.21626     59211250            0     59211691    12.683306    22.410346    14.188208    19.733095    33.264919    9.5376501    12.612127     22.30075    14.235163 
  807200    111.51552     59211712            0     59212146    12.683304    22.410337    14.188097    19.732815    33.264099    9.5265713    12.612127     22.30075    14.235163 
  807400    211.77146     59211136            0     59211960    12.683323    22.410363    14.187964    19.734731    33.266678    9.5132171    12.612127     22.30075    14.235163 
  807600    206.87476     59210254            0     59211059    12.683313    22.410353    14.188074     19.73378    33.265687     9.524287    12.612127     22.30075    14.235163 
  807800     250.6146     59210847            0     59211822     12.68331    22.410345    14.188022     19.73347    33.264852    9.5190398    12.612127     22.30075    14.235163 
  808000    161.33873     59210630            0     59211258    12.683323    22.410367    14.188081     19.73473    33.267031    9.5248921    12.612127     22.30075    14.235163 
  808200    129.18468     59211580            0     59212082    12.683326     22.41036    14.188157    19.735004    33.266387    9.5325073    12.612127     22.30075    14.235163 
  808400     156.2359     59211543            0     59212151    12.683306     22.41037    14.188119    19.733002    33.267336    9.5287106    12.612127     22.30075    14.235163 
  808600    81.795844     59211193            0     59211511     12.68332    22.410359    14.188142    19.734403    33.266264    9.5310681    12.612127     22.30075    14.235163 
  808800    166.26844     59210887            0     59211534    12.683325    22.410356    14.188178    19.734965    33.265977    9.5346817    12.612127     22.30075    14.235163 
  809000    198.80776     59211330            0     59212104    12.683317    22.410352    14.188088    19.734102    33.265512    9.5256769    12.612127     22.30075    14.235163 
  809200    131.54507     59210362            0     59210874     12.68334    22.410367    14.188142     19.73646    33.267045    9.5310386    12.612127     22.30075    14.235163 
  809400    205.58567     59210848            0     59211648    12.683338    22.410359    14.188111    19.736222    33.266293    9.5279357    12.612127     22.30075    14.235163 
  809600    136.96246     59210789            0     59211323    12.683316    22.410353    14.188007     19.73403    33.265653    9.5175014    12.612127     22.30075    14.235163 
  809800    275.33636     59210624            0     59211696    12.683315    22.410359    14.188297    19.733938    33.266259    9.5465444    12.612127     22.30075    14.235163 
  810000    155.92631     59211504            0     59212111    12.683316    22.410353    14.188417    19.734013    33.265686    9.5585695    12.612127     22.30075    14.235163 
  810200    223.31659     59210480            0     59211349    12.683315    22.410354    14.188053    19.733979    33.265761    9.5221071    12.612127     22.30075    14.235163 
  810400    134.17956     59211556            0     59212079    12.683327    22.410353    14.188254    19.735126    33.265619    9.5422282    12.612127     22.30075    14.235163 
  810600    239.80673     59210389            0     59211322    12.683288    22.410352    14.188276     19.73126    33.265525    9.5444353    12.612127     22.30075    14.235163 
  810800    221.72391     59211150            0     59212013    12.683323    22.410341    14.188251    19.734796    33.264413    9.5419312    12.612127     22.30075    14.235163 
  811000    296.04011     59210740            0     59211892    12.683315    22.410331    14.188052    19.733968    33.263419     9.522014    12.612127     22.30075    14.235163 
  811200     181.4772     59211471            0     59212177    12.683337     22.41035    14.188138     19.73611    33.265392    9.5306434    12.612127     22.30075    14.235163 
  811400    246.09549     59210935            0     59211893    12.683302    22.410381    14.187987    19.732674    33.268413    9.5155072    12.612127     22.30075    14.235163 
  811600    114.16795     59211656            0     59212101    12.683315    22.410351    14.187961    19.733966    33.265478    9.5129403    12.612127     22.30075    14.235163 
  811800    316.10931     59210681            0     59211912     12.68332    22.410361    14.187957    19.734473    33.266413    9.5125762    12.612127     22.30075    14.235163 
  812000    310.45529     59210064            0     59211273    12.683298    22.410354    14.188115    19.732207    33.265786    9.5283014    12.612127     22.30075    14.235163 
  812200    246.63819     59211756            0     59212716    12.683316    22.410353    14.188251    19.734012    33.265685    9.5419971    12.612127     22.30075    14.235163 
  812400    259.70383     59210989            0     59212000    12.683335    22.410352    14.188366     19.73598    33.265578    9.5534544    12.612127     22.30075    14.235163 
  812600    204.49464     59210663            0     59211459    12.683315    22.410354    14.187997    19.733994    33.265724    9.5165183    12.612127     22.30075    14.235163 
  812800    102.91705     59210602            0     59211002    12.683316    22.410353    14.187908    19.734014    33.265686    9.5076546    12.612127     22.30075    14.235163 
  813000    153.10145     59210486            0     59211082    12.683302    22.410355     14.18811    19.732691     33.26585    9.5278666    12.612127     22.30075    14.235163 
  813200    136.90248     59210715            0     59211248    12.683316    22.410353     14.18791    19.734019    33.265691    9.5078373    12.612127     22.30075    14.235163 
  813400    115.47169     59211554            0     59212003    12.683306    22.410347    14.188226    19.733071    33.265069    9.5394126    12.612127     22.30075    14.235163 
  813600    261.42128     59211280            0     59212298    12.683325    22.410367    14.188211    19.734953    33.267096    9.5379688    12.612127     22.30075    14.235163 
  813800    196.59518     59211195            0     59211960      12.6833    22.410358    14.188112    19.732461    33.266134    9.5280702    12.612127     22.30075    14.235163 
  814000    151.27464     59210959            0     59211548     12.68329    22.410377    14.188103    19.731496    33.268097    9.5271771    12.612127     22.30075    14.235163 
  814200    207.43253     59210507            0     59211314     12.68329     22.41034    14.187959    19.731401    33.264338    9.5127657    12.612127     22.30075    14.235163 
  814400    125.24852     59210223            0     59210710    12.683297    22.410332    14.188125    19.732126    33.263529    9.5293288    12.612127     22.30075    14.235163 
  814600    282.88119     59212247            0     59213349    12.683303    22.410385     14.18809    19.732756    33.268879    9.5258796    12.612127     22.30075    14.235163 
  814800    139.77021     59210969            0     59211513    12.683316    22.410344    14.188318    19.733997    33.264741    9.5486191    12.612127     22.30075    14.235163 
  815000    276.34157     59210854            0     59211930    12.683347    22.410357    14.188007     19.73712     33.26609    9.5174967    12.612127     22.30075    14.235163 
  815200    294.88448     59210835            0     59211983    12.683312    22.410335    14.188107    19.733686     33.26386    9.5275099    12.612127     22.30075    14.235163 
  815400    152.57944     59211534            0     59212128    12.683316    22.410353    14.187982    19.734018    33.265684    9.5150845    12.612127     22.30075    14.235163 
  815600    104.19008     59211231            0     59211637    12.683339    22.410354    14.188001    19.736358    33.265718      9.51696    12.612127     22.30075    14.235163 
  815800    185.03969     59210544            0     59211264    12.683308     22.41036    14.188066    19.733227    33.266341    9.5234186    12.612127     22.30075    14.235163 
  816000    72.180749     59211572            0     59211853     12.68331    22.410344     14.18793     19.73344    33.264761    9.5098607    12.612127     22.30075    14.235163 
  816200    81.686314     59210262            0     59210580    12.683299    22.410366    14.188117    19.732351    33.266941    9.5285609    12.612127     22.30075    14.235163 
  816400    204.14379     59210793            0     59211588    12.683315    22.410354    14.188142    19.733968    33.265792    9.5310903    12.612127     22.30075    14.235163 
  816600    186.69046     59210749            0     59211475    12.683298    22.410391     14.18808    19.732221    33.269433    9.5248696    12.612127     22.30075    14.235163 
  816800    310.08936     59210617            0     59211824    12.683305    22.410353     14.18811     19.73299    33.265708    9.5278646    12.612127     22.30075    14.235163 
  817000    155.25114     59210913            0     59211517    12.683298    22.410326    14.187837    19.732216    33.262934    9.5004951    12.612127     22.30075    14.235163 
  817200    193.79954     59210218            0     59210973    12.683326    22.410349       14.188    19.735065    33.265253    9.5168081    12.612127     22.30075    14.235163 
  817400    154.98858     59210960            0     59211564     12.68331     22.41035    14.188195    19.733415    33.265373    9.5363449    12.612127     22.30075    14.235163 
  817600    246.60653     59211327            0     59212287    12.683329    22.410373    14.188149    19.735335    33.267707    9.5317188    12.612127     22.30075    14.235163 
  817800     144.3274     59211423            0     59211985    12.683321    22.410364    14.188241    19.734555    33.266777    9.5409868    12.612127     22.30075    14.235163 
  818000    111.23342     59210776            0     59211209    12.683347    22.410352    14.188123    19.737141    33.265568    9.5291568    12.612127     22.30075    14.235163 
  818200    130.41311     59210004            0     59210511    12.683321    22.410344    14.188081    19.734498    33.264749    9.5249184    12.612127     22.30075    14.235163 
  818400    178.47197     59210792            0     59211487    12.683312    22.410345    14.187967    19.733669    33.264853    9.5134977    12.612127     22.30075    14.235163 
  818600     201.3843     59210534            0     59211318    12.683321    22.410361    14.188181    19.734499    33.266431    9.5349095    12.612127     22.30075    14.235163 
  818800     66.50095     59210541            0     59210800    12.683327    22.410332    14.188211    19.735115     33.26351    9.5379216    12.612127     22.30075    14.235163 
  819000    241.00229     59210918            0     59211856    12.683324    22.410356    14.188015    19.734836    33.265997    9.5183072    12.612127     22.30075    14.235163 
  819200    113.90795     59211427            0     59211871    12.683318    22.410348    14.188112    19.734288    33.265144    9.5280438    12.612127     22.30075    14.235163 
  819400    149.65151     59211526            0     59212108    12.683316    22.410353    14.187931    19.734024    33.265699    9.5099425    12.612127     22.30075    14.235163 
  819600    144.71872     59210492            0     59211055    12.683319    22.410358    14.188207    19.734312    33.266144    9.5375193    12.612127     22.30075    14.235163 
  819800    129.49938     59211730            0     59212234     12.68333    22.410375    14.188298    19.735448    33.267882    9.5466251    12.612127     22.30075    14.235163 
  820000     264.9825     59210521            0     59211552    12.683335    22.410354    14.188082    19.735921    33.265782    9.5250681    12.612127     22.30075    14.235163 
  820200    142.07948     59211025            0     59211578     12.68329    22.410348    14.187772    19.731413    33.265117    9.4939905    12.612127     22.30075    14.235163 
  820400    215.84942     59210974            0     59211814    12.683316    22.410353    14.188082    19.734017    33.265686    9.5250655    12.612127     22.30075    14.235163 
  820600    113.99486     59211883            0     59212327    12.683301    22.410352    14.188257    19.732549    33.265592    9.5425015    12.612127     22.30075    14.235163 
  820800    112.65816     59212290            0     59212729    12.683325    22.410368    14.188117    19.734965    33.267134     9.528576    12.612127     22.30075    14.235163 
  821000    251.95406     59210657            0     59211638    12.683316    22.410334    14.188205    19.734074    33.263752     9.537316    12.612127     22.30075    14.235163 
  821200    197.60335     59210897            0     59211666    12.683315    22.410353    14.188166    19.733926    33.265691    9.5334131    12.612127     22.30075    14.235163 
  821400    201.49266     59211344            0     59212129    12.683314     22.41036     14.18803    19.733868    33.266336    9.5198358    12.612127     22.30075    14.235163 
  821600    83.035891     59211273            0     59211596    12.683311    22.410346    14.188398    19.733538    33.264959    9.5566446    12.612127     22.30075    14.235163 
  821800    107.51371     59211550            0     59211969    12.683317    22.410355    14.188299     19.73412    33.265857    9.5467053    12.612127     22.30075    14.235163 
  822000    292.33968     59211941            0     59213079    12.683322    22.410366    14.188131    19.734599    33.266961    9.5299878    12.612127     22.30075    14.235163 
  822200    127.60255     59210964            0     59211461    12.683316    22.410353    14.188093    19.734022    33.265686    9.5261907    12.612127     22.30075    14.235163 
  822400    331.23682     59211391            0     59212680    12.683315    22.410356    14.188245    19.733931     33.26598    9.5413962    12.612127     22.30075    14.235163 
  822600    210.17822     59210501            0     59211320    12.683299    22.410361    14.188171    19.732346     33.26643    9.5339122    12.612127     22.30075    14.235163 
  822800    159.73336     59210838            0     59211459    12.683319    22.410355    14.187983     19.73434    33.265832     9.515165    12.612127     22.30075    14.235163 
  823000    318.25984     59210481            0     59211720    12.683323    22.410353    14.188372    19.734743    33.265658     9.554069    12.612127     22.30075    14.235163 
  823200    188.84634     59211482            0     59212217    12.683316    22.410353    14.188038    19.734014    33.265686    9.5206089    12.612127     22.30075    14.235163 
  823400    378.54539     59210453            0     59211926    12.683301    22.410342    14.188172    19.732505    33.264543    9.5340947    12.612127     22.30075    14.235163 
  823600    174.22463     59211067            0     59211746    12.683318    22.410355    14.187951    19.734253    33.265872    9.5119123    12.612127     22.30075    14.235163 
  823800    199.52933     59210848            0     59211625    12.683316    22.410353    14.188322    19.734019    33.265693    9.5490926    12.612127     22.30075    14.235163 
  824000    264.53955     59210732            0     59211762    12.683315    22.410353    14.188189    19.733974     33.26569    9.5357418    12.612127     22.30075    14.235163 
  824200    173.75442     59210711            0     59211388    12.683331    22.410355    14.188123    19.735539    33.265853    9.5290973    12.612127     22.30075    14.235163 
  824400    102.41675     59211124            0     59211523     12.68331    22.410345    14.188096    19.733434     33.26481    9.5264678    12.612127     22.30075    14.235163 
  824600    95.934792     59210550            0     59210923    12.683316    22.410353    14.188166    19.734034    33.265685    9.5334711    12.612127     22.30075    14.235163 
  824800    340.46303     59210115            0     59211440    12.683309    22.410361     14.18815    19.733363    33.266495    9.5318588    12.612127     22.30075    14.235163 
  825000    308.14587     59210993            0     59212193    12.683316    22.410353     14.18794    19.734016    33.265687    9.5108132    12.612127     22.30075    14.235163 
  825200    114.26319     59210174            0     59210619    12.683334    22.410386    14.188126     19.73583    33.268932    9.5294333    12.612127     22.30075    14.235163 
  825400    135.16992     59212064            0     59212590    12.683281    22.410356    14.188048    19.730568    33.265913    9.5215927    12.612127     22.30075    14.235163 
  825600    173.88873     59210068            0     59210744    12.683331    22.410352    14.188215    19.735522    33.265603    9.5383103    12.612127     22.30075    14.235163 
  825800    294.97182     59210365            0     59211513    12.683293    22.410345    14.188148     19.73177     33.26485    9.5316669    12.612127     22.30075    14.235163 
  826000    140.23127     59210198            0     59210744    12.683328    22.410353    14.188168    19.735277    33.265616    9.5336661    12.612127     22.30075    14.235163 
  826200    378.61802     59211454            0     59212928    12.683346    22.410352    14.188139     19.73708    33.265518    9.5307028    12.612127     22.30075    14.235163 
  826400    216.76762     59212127            0     59212971    12.683297    22.410362    14.188201    19.732176    33.266512    9.5369243    12.612127     22.30075    14.235163 
  826600    126.83251     59210487            0     59210981     12.68332    22.410344    14.188364    19.734471    33.264782    9.5532586    12.612127     22.30075    14.235163 
  826800    164.78037     59211309            0     59211951    12.683316    22.410353    14.188058    19.734026    33.265663    9.5226757    12.612127     22.30075    14.235163 
  827000    84.502801     59210821            0     59211150    12.683337    22.410327    14.187955    19.736135    33.263086    9.5123617    12.612127     22.30075    14.235163 
  827200    167.57585     59211427            0     59212080    12.683292    22.410351     14.18814    19.731649    33.265413    9.5308118    12.612127     22.30075    14.235163 
  827400    190.99638     59210709            0     59211452    12.683302    22.410367     14.18837    19.732622    33.267048    9.5538436    12.612127     22.30075    14.235163 
  827600    171.79854     59210515            0     59211184    12.683316    22.410353    14.188248    19.734014    33.265686    9.5416592    12.612127     22.30075    14.235163 
  827800    291.18261     59210349            0     59211482    12.683316    22.410371    14.188199    19.734063    33.267468    9.5367084    12.612127     22.30075    14.235163 
  828000    153.26439     59211860            0     59212456    12.683329    22.410373    14.187795    19.735307    33.267653    9.4963612    12.612127     22.30075    14.235163 
  828200    145.55714     59211399            0     59211965    12.683295    22.410354    14.188158    19.731983     33.26574    9.5326476    12.612127     22.30075    14.235163 
  828400    254.67761     59210514            0     59211506    12.683327    22.410355    14.187968    19.735151    33.265845    9.5136777    12.612127     22.30075    14.235163 
  828600    337.18611     59211537            0     59212849    12.683315     22.41036    14.188268    19.733997    33.266353    9.5436047    12.612127     22.30075    14.235163 
  828800    495.48598     59210488            0     59212417     12.68334    22.410352    14.188124    19.736491     33.26555    9.5292009    12.612127     22.30075    14.235163 
  829000     202.2115     59211480            0     59212267    12.683333    22.410334    14.188342    19.735742    33.263736    9.5510492    12.612127     22.30075    14.235163 
  829200    165.98689     59209985            0     59210631     12.68332    22.410354    14.188164    19.734459    33.265721    9.5332038    12.612127     22.30075    14.235163 
  829400    180.84667     59210743            0     59211447    12.683297    22.410331    14.188097    19.732169    33.263485     9.526502    12.612127     22.30075    14.235163 
  829600    163.70132     59211246            0     59211883    12.683325    22.410354    14.188359    19.734974    33.265719    9.5527111    12.612127     22.30075    14.235163 
  829800     75.45038     59210301            0     59210595    12.683326     22.41037    14.188103    19.735021    33.267326    9.5271357    12.612127     22.30075    14.235163 
  830000    239.24327     59211052            0     59211983    12.683316    22.410353    14.188009     19.73401     33.26568    9.5177025    12.612127     22.30075    14.235163 
  830200    226.43137     59211402            0     59212284    12.683304    22.410361    14.188267    19.732865    33.266474    9.5435669    12.612127     22.30075    14.235163 
  830400    250.70044     59211613            0     59212589    12.683299    22.410382    14.187895    19.732379    33.268573    9.5063651    12.612127     22.30075    14.235163 
  830600    350.44895     59210746            0     59212111    12.683281    22.410338    14.188149    19.730501    33.264116    9.5317825    12.612127     22.30075    14.235163 
  830800    250.89247     59211384            0     59212361    12.683324    22.410339    14.188303    19.734853    33.264271    9.5471053    12.612127     22.30075    14.235163 
  831000    305.65014     59211125            0     59212315    12.683307    22.410343    14.187879    19.733119    33.264679    9.5047548    12.612127     22.30075    14.235163 
  831200     157.4049     59210417            0     59211030    12.683322    22.410327    14.188363    19.734661    33.263026    9.5531805    12.612127     22.30075    14.235163 
  831400    263.89834     59211024            0     59212052    12.683334    22.410359    14.188126    19.735822    33.266219    9.5294507    12.612127     22.30075    14.235163 
  831600    306.81288     59211257            0     59212452    12.683322    22.410373    14.187967    19.734669    33.267692     9.513579    12.612127     22.30075    14.235163 
  831800    172.11515     59211139            0     59211809    12.683316    22.410353    14.188074    19.734015    33.265685    9.5241989    12.612127     22.30075    14.235163 
  832000    176.19738     59210704            0     59211390    12.683324    22.410353    14.188342    19.734829    33.265641    9.5510342    12.612127     22.30075    14.235163 
  832200    243.08412     59210661            0     59211607    12.683304    22.410355    14.188163    19.732802    33.265871    9.5331708    12.612127     22.30075    14.235163 
  832400    146.33449     59211805            0     59212375    12.683306    22.410339    14.188334    19.733089    33.264305    9.5502099    12.612127     22.30075    14.235163 
  832600     235.4408     59211708            0     59212624    12.683315    22.410353    14.188118    19.733952    33.265697    9.5286101    12.612127     22.30075    14.235163 
  832800    184.90111     59210828            0     59211548    12.683315     22.41034    14.188275    19.733908    33.264359    9.5443348    12.612127     22.30075    14.235163 
  833000    187.53439     59210802            0     59211532    12.683314    22.410353    14.188321    19.733847    33.265695    9.5489757    12.612127     22.30075    14.235163 
  833200    281.04095     59210893            0     59211987    12.683315    22.410353    14.188082    19.733982    33.265685    9.5250566    12.612127     22.30075    14.235163 
  833400    137.25139     59209862            0     59210396    12.683316    22.410353    14.188029    19.734014    33.265685    9.5197209    12.612127     22.30075    14.235163 
  833600    129.54128     59212683            0     59213188    12.683305    22.410411    14.188216    19.732924    33.271437    9.5384815    12.612127     22.30075    14.235163 
  833800    165.96812     59212258            0     59212904    12.683308     22.41036    14.187986    19.733202    33.266367    9.5153921    12.612127     22.30075    14.235163 
  834000    203.35128     59210525            0     59211316    12.683314    22.410322    14.187991    19.733859     33.26259    9.5159206    12.612127     22.30075    14.235163 
  834200    157.31121     59211021            0     59211633    12.683316    22.410355    14.188215    19.734095    33.265811    9.5383861    12.612127     22.30075    14.235163 
  834400    149.92354     59210876            0     59211460    12.683319    22.410353    14.188112    19.734393    33.265682    9.5280729    12.612127     22.30075    14.235163 
  834600    255.16523     59211148            0     59212141    12.683316    22.410352    14.188248    19.734018    33.265553    9.5416717    12.612127     22.30075    14.235163 
  834800    337.59971     59211491            0     59212806    12.683333    22.410352     14.18807    19.735765    33.265581    9.5238341    12.612127     22.30075    14.235163 
  835000     219.1596     59211228            0     59212081    12.683336    22.410333    14.188094    19.736002    33.263644    9.5262181    12.612127     22.30075    14.235163 
  835200    166.42722     59210273            0     59210921    12.683318    22.410353    14.187912    19.734225    33.265675    9.5079958    12.612127     22.30075    14.235163 
  835400    90.246003     59210874            0     59211225    12.683316    22.410353    14.188157    19.734015    33.265686    9.5325428    12.612127     22.30075    14.235163 
  835600    206.02178     59210569            0     59211371    12.683332    22.410362    14.188146    19.735617    33.266525    9.5314333    12.612127     22.30075    14.235163 
  835800    360.53896     59211128            0     59212532    12.683302    22.410338    14.188202     19.73269    33.264193    9.5370739    12.612127     22.30075    14.235163 
  836000    213.46194     59211129            0     59211960    12.683312     22.41036    14.188031    19.733654    33.266397    9.5199886    12.612127     22.30075    14.235163 
  836200    37.051916     59211567            0     59211712    12.683315    22.410353    14.187946    19.733972     33.26569    9.5113886    12.612127     22.30075    14.235163 
  836400    228.52765     59210308            0     59211197    12.683306    22.410339    14.187932     19.73309    33.264261     9.510019    12.612127     22.30075    14.235163 
  836600    328.86977     59210788            0     59212069    12.683333    22.410344    14.188258    19.735721     33.26478    9.5426533    12.612127     22.30075    14.235163 
  836800    181.49655     59210827            0     59211533    12.683293    22.410355    14.188214    19.731766    33.265811    9.5382503    12.612127     22.30075    14.235163 
  837000    251.71296     59211532            0     59212512    12.683328    22.410352     14.18811     19.73523    33.265587     9.527831    12.612127     22.30075    14.235163 
  837200    333.74262     59211085            0     59212384    12.683338     22.41038    14.187927    19.736202     33.26838     9.509553    12.612127     22.30075    14.235163 
  837400    225.97791     59209918            0     59210798    12.683316    22.410353    14.188113    19.734015    33.265684     9.528106    12.612127     22.30075    14.235163 
  837600    228.73774     59211274            0     59212165    12.683338    22.410352    14.188082     19.73625    33.265563    9.5250794    12.612127     22.30075    14.235163 
  837800    414.57159     59210659            0     59212273    12.683316    22.410353    14.188086    19.734014    33.265686     9.525443    12.612127     22.30075    14.235163 
  838000     248.3546     59210729            0     59211696     12.68331    22.410364     14.18814    19.733459    33.266781    9.5308457    12.612127     22.30075    14.235163 
  838200    196.88894     59210647            0     59211413    12.683299    22.410354     14.18814    19.732312    33.265781    9.5308286    12.612127     22.30075    14.235163 
  838400    177.24416     59211196            0     59211886    12.683292    22.410358    14.188352    19.731626    33.266159    9.5520817    12.612127     22.30075    14.235163 
  838600    126.83024     59212460            0     59212954    12.683331    22.410353    14.188236    19.735549    33.265694    9.5404792    12.612127     22.30075    14.235163 
  838800    132.20803     59210291            0     59210806    12.683316    22.410355     14.18787    19.734064    33.265849    9.5037887    12.612127     22.30075    14.235163 
  839000    241.32397     59210856            0     59211795     12.68331    22.410375    14.188172    19.733439    33.267835    9.5340885    12.612127     22.30075    14.235163 
  839200    153.56374     59210616            0     59211214    12.683313    22.410356    14.187998    19.733708    33.265943    9.5166747    12.612127     22.30075    14.235163 
  839400    213.99403     59210825            0     59211658    12.683305    22.410356    14.188206    19.732965    33.265936    9.5374267    12.612127     22.30075    14.235163 
  839600    150.89301     59210880            0     59211467    12.683318    22.410357    14.188132     19.73426    33.266071    9.5300687    12.612127     22.30075    14.235163 
  839800    232.37713     59210461            0     59211366    12.683327     22.41034    14.188228    19.735109    33.264326    9.5396105    12.612127     22.30075    14.235163 
  840000    109.85401     59210242            0     59210670    12.683321    22.410353    14.188192     19.73451    33.265654      9.53603    12.612127     22.30075    14.235163 
  840200    160.96102     59210837            0     59211464    12.683304    22.410369    14.188075    19.732865    33.267234    9.5243492    12.612127     22.30075    14.235163 
  840400    259.41079     59210617            0     59211627    12.683291    22.410372    14.188207    19.731589    33.267584    9.5375933    12.612127     22.30075    14.235163 
  840600      79.7526     59211033            0     59211344     12.68332    22.410338    14.188168     19.73441    33.264134    9.5336406    12.612127     22.30075    14.235163 
  840800    359.72556     59210342            0     59211742    12.683315    22.410354     14.18814    19.733972    33.265777    9.5308744    12.612127     22.30075    14.235163 
  841000     303.9888     59210534            0     59211717    12.683326    22.410333     14.18816    19.735052    33.263667    9.5328608    12.612127     22.30075    14.235163 
  841200    164.95875     59210088            0     59210730    12.683359    22.410351    14.188138      19.7383    33.265472    9.5306591    12.612127     22.30075    14.235163 
  841400    226.37263     59210550            0     59211431    12.683312    22.410366    14.188188    19.733634    33.266935    9.5356337    12.612127     22.30075    14.235163 
  841600    174.53137     59210176            0     59210855    12.683316    22.410353     14.18809    19.734014    33.265686    9.5258493    12.612127     22.30075    14.235163 
  841800    186.13654     59210223            0     59210948    12.683327    22.410357    14.188034     19.73518    33.266071    9.5202377    12.612127     22.30075    14.235163 
  842000    128.27945     59209970            0     59210469    12.683312    22.410373    14.188176    19.733636    33.267687    9.5344529    12.612127     22.30075    14.235163 
  842200    389.48123     59210204            0     59211720    12.683316    22.410353    14.188034    19.734014    33.265688     9.520206    12.612127     22.30075    14.235163 
  842400    229.37318     59210498            0     59211391    12.683315    22.410338    14.188078    19.733977    33.264117    9.5246433    12.612127     22.30075    14.235163 
  842600    74.497689     59211263            0     59211553    12.683325    22.410365    14.188114    19.734957    33.266815    9.5281962    12.612127     22.30075    14.235163 
  842800    144.64122     59210760            0     59211323    12.683303    22.410334    14.188378     19.73273    33.263732    9.5547003    12.612127     22.30075    14.235163 
  843000      168.061     59211520            0     59212174     12.68332    22.410344    14.188196    19.734453     33.26474    9.5364662    12.612127     22.30075    14.235163 
  843200    134.76723     59211192            0     59211716    12.683316    22.410354    14.187838    19.734001    33.265763    9.5005996    12.612127     22.30075    14.235163 
  843400    141.51267     59210702            0     59211253    12.683273    22.410356    14.188211    19.729701    33.265942    9.5379776    12.612127     22.30075    14.235163 
  843600    103.45382     59210412            0     59210815    12.683316    22.410353    14.188251    19.734013    33.265687     9.541991    12.612127     22.30075    14.235163 
  843800     351.2945     59211563            0     59212930    12.683312    22.410377    14.188124    19.733625    33.268009    9.5292158    12.612127     22.30075    14.235163 
  844000    177.85936     59211049            0     59211742     12.68331    22.410365    14.188097    19.733429    33.266816    9.5265596    12.612127     22.30075    14.235163 
  844200    286.94747     59211405            0     59212522    12.683343    22.410375    14.188096    19.736715    33.267903    9.5264072    12.612127     22.30075    14.235163 
  844400    161.98085     59211716            0     59212346    12.683316    22.410353    14.188077    19.734014    33.265687    9.5245477    12.612127     22.30075    14.235163 
  844600    170.02204     59211050            0     59211711    12.683308    22.410347    14.188339    19.733211    33.265086    9.5507597    12.612127     22.30075    14.235163 
  844800    270.54806     59211223            0     59212276    12.683315    22.410345    14.188141    19.733976    33.264813     9.530975    12.612127     22.30075    14.235163 
  845000    224.37458     59211790            0     59212664    12.683329    22.410358    14.188012    19.735361    33.266144    9.5180702    12.612127     22.30075    14.235163 
  845200     62.26164     59211428            0     59211670     12.68332    22.410345    14.188034    19.734426    33.264844    9.5202431    12.612127     22.30075    14.235163 
  845400    197.68771     59210685            0     59211455    12.683319    22.410355    14.188067    19.734378    33.265845    9.5235562    12.612127     22.30075    14.235163 
  845600    95.109978     59211616            0     59211986    12.683323    22.410366    14.188144    19.734794    33.266943    9.5312421    12.612127     22.30075    14.235163 
  845800    136.84799     59209767            0     59210300    12.683349    22.410352     14.18798    19.737381    33.265519    9.5148365    12.612127     22.30075    14.235163 
  846000    322.16274     59210783            0     59212037    12.683335    22.410352    14.188077     19.73593    33.265581    9.5245397    12.612127     22.30075    14.235163 
  846200    225.21884     59211623            0     59212500    12.683295     22.41038    14.187936    19.731936    33.268399    9.5104077    12.612127     22.30075    14.235163 
  846400    309.78228     59210883            0     59212089    12.683316    22.410353    14.188027    19.734014    33.265686    9.5195043    12.612127     22.30075    14.235163 
  846600    215.02094     59210347            0     59211184    12.683346    22.410351     14.18806    19.737083     33.26547    9.5228511    12.612127     22.30075    14.235163 
  846800    181.08242     59210596            0     59211301    12.683293    22.410357    14.188065    19.731707    33.266092    9.5233815    12.612127     22.30075    14.235163 
  847000    247.70934     59210946            0     59211911    12.683327    22.410354    14.188055    19.735171    33.265741    9.5223018    12.612127     22.30075    14.235163 
  847200    259.81662     59210580            0     59211591    12.683282     22.41037    14.188001    19.730627    33.267403    9.5169183    12.612127     22.30075    14.235163 
  847400    328.60533     59210697            0     59211977    12.683318    22.410354    14.188139    19.734226     33.26579    9.5307226    12.612127     22.30075    14.235163 
  847600    194.74914     59212856            0     59213614    12.683284    22.410355    14.188095     19.73089    33.265858    9.5263214    12.612127     22.30075    14.235163 
  847800    286.57258     59211197            0     59212313    12.683335    22.410353    14.188128    19.735972    33.265637    9.5296916    12.612127     22.30075    14.235163 
  848000    160.25831     59210807            0     59211431    12.683302    22.410365    14.188084    19.732645    33.266902    9.5252428    12.612127     22.30075    14.235163 
  848200    264.54522     59210746            0     59211776    12.683327    22.410351    14.188382    19.735194    33.265491    9.5550413    12.612127     22.30075    14.235163 
  848400    219.75719     59212160            0     59213015    12.683316    22.410353     14.18791    19.734016    33.265686    9.5078046    12.612127     22.30075    14.235163 
  848600    221.34663     59210495            0     59211357    12.683315    22.410354    14.188113    19.733958    33.265737    9.5281799    12.612127     22.30075    14.235163 
  848800     292.5139     59211146            0     59212285    12.683329    22.410363    14.188017    19.735312    33.266676    9.5185557    12.612127     22.30075    14.235163 
  849000    96.554343     59210745            0     59211120    12.683291    22.410355    14.188126    19.731526    33.265892    9.5294254    12.612127     22.30075    14.235163 
  849200    196.37055     59211289            0     59212054    12.683316    22.410353    14.187903    19.734013    33.265686     9.507143    12.612127     22.30075    14.235163 
  849400    135.72167     59210552            0     59211081    12.683365     22.41034    14.188011    19.738908    33.264406    9.5179578    12.612127     22.30075    14.235163 
  849600    186.72508     59211867            0     59212594    12.683313    22.410356    14.188202    19.733761    33.265973    9.5370903    12.612127     22.30075    14.235163 
  849800    270.66338     59211027            0     59212081    12.683291    22.410368    14.188147    19.731595    33.267151    9.5315934    12.612127     22.30075    14.235163 
  850000    211.66025     59210001            0     59210825    12.683295    22.410367    14.188204    19.731992    33.267029    9.5372771    12.612127     22.30075    14.235163 
  850200    51.367673     59210828            0     59211028    12.683306    22.410369    14.188206    19.733042    33.267298    9.5374715    12.612127     22.30075    14.235163 
  850400    98.739237     59211472            0     59211857    12.683324    22.410349     14.18809    19.734832     33.26526    9.5258274    12.612127     22.30075    14.235163 
  850600    144.40949     59210751            0     59211313    12.683274    22.410369    14.187916    19.729893    33.267266     9.508469    12.612127     22.30075    14.235163 
  850800    133.39986     59211391            0     59211910    12.683318    22.410353    14.188038    19.734214    33.265675    9.5206718    12.612127     22.30075    14.235163 
  851000    224.76575     59210561            0     59211436    12.683313    22.410354    14.188168    19.733789    33.265787    9.5336832    12.612127     22.30075    14.235163 
  851200    141.00117     59210856            0     59211405    12.683337    22.410352    14.188137    19.736176    33.265567    9.5305708    12.612127     22.30075    14.235163 
  851400    145.01701     59211411            0     59211976     12.68331    22.410355     14.18832    19.733486    33.265885    9.5488524    12.612127     22.30075    14.235163 
  851600     171.3597     59210766            0     59211433    12.683316    22.410353    14.188258     19.73404    33.265685    9.5426964    12.612127     22.30075    14.235163 
  851800    204.30381     59211498            0     59212293    12.683341    22.410335    14.187931    19.736535    33.263838    9.5099119    12.612127     22.30075    14.235163 
  852000    100.03867     59211103            0     59211492    12.683306    22.410341    14.188314    19.733088    33.264409    9.5482793    12.612127     22.30075    14.235163 
  852200    220.79674     59211251            0     59212110    12.683314    22.410353    14.188374    19.733815    33.265695    9.5543007    12.612127     22.30075    14.235163 
  852400    250.72916     59211550            0     59212526    12.683312    22.410363     14.18793    19.733605    33.266659    9.5098641    12.612127     22.30075    14.235163 
  852600     233.8617     59210975            0     59211885    12.683316    22.410354    14.188063    19.734088    33.265785    9.5231351    12.612127     22.30075    14.235163 
  852800    162.80681     59211442            0     59212076    12.683293    22.410356    14.187847    19.731701    33.265911    9.5014997    12.612127     22.30075    14.235163 
  853000    132.52414     59212123            0     59212639    12.683323    22.410365    14.188225    19.734795    33.266875    9.5393216    12.612127     22.30075    14.235163 
  853200    197.66732     59210909            0     59211679    12.683289    22.410343    14.187853    19.731313     33.26469    9.5021056    12.612127     22.30075    14.235163 
  853400    196.53529     59210575            0     59211340    12.683302    22.410334    14.188226    19.732631    33.263735    9.5394665    12.612127     22.30075    14.235163 
  853600    188.39606     59210646            0     59211379    12.683315    22.410352    14.188312    19.733923    33.265568    9.5480621    12.612127     22.30075    14.235163 
  853800    334.21496     59210040            0     59211341    12.683316    22.410352    14.188012    19.734064    33.265557    9.5180392    12.612127     22.30075    14.235163 
  854000    121.36981     59210660            0     59211132    12.683318    22.410354    14.187997    19.734291    33.265712    9.5165512    12.612127     22.30075    14.235163 
  854200    157.61395     59211976            0     59212590     12.68331    22.410354    14.188046    19.733486    33.265782    9.5214843    12.612127     22.30075    14.235163 
  854400    287.75439     59210568            0     59211688    12.683317    22.410353    14.188139    19.734099    33.265674    9.5307884    12.612127     22.30075    14.235163 
  854600    183.89866     59211262            0     59211978    12.683315    22.410354    14.187891    19.733989    33.265728    9.5058848    12.612127     22.30075    14.235163 
  854800    257.80924     59210292            0     59211295    12.683319    22.410353    14.188345    19.734328    33.265663    9.5513101    12.612127     22.30075    14.235163 
  855000    162.09544     59210873            0     59211504    12.683319    22.410359     14.18783    19.734333    33.266261    9.4998562    12.612127     22.30075    14.235163 
  855200    225.85952     59210339            0     59211218    12.683316    22.410354    14.188181    19.734042    33.265729    9.5349843    12.612127     22.30075    14.235163 
  855400    236.37414     59210548            0     59211468    12.683316    22.410353    14.188013    19.733999    33.265685    9.5181406    12.612127     22.30075    14.235163 
  855600    453.51464     59211095            0     59212860    12.683316    22.410353    14.188147    19.734013    33.265686    9.5315131    12.612127     22.30075    14.235163 
  855800    257.97235     59210503            0     59211507    12.683318    22.410352    14.188247     19.73421    33.265593    9.5415946    12.612127     22.30075    14.235163 
  856000    138.20325     59210122            0     59210660    12.683388    22.410324    14.188035    19.741258    33.262712     9.520374    12.612127     22.30075    14.235163 
  856200    145.98154     59210984            0     59211553    12.683332    22.410353    14.188186    19.735619     33.26566    9.5354643    12.612127     22.30075    14.235163 
  856400     363.0609     59210616            0     59212030    12.683367    22.410351    14.188394    19.739172    33.265469    9.5562411    12.612127     22.30075    14.235163 
  856600    116.00345     59209650            0     59210102    12.683289    22.410375    14.188042    19.731314    33.267863     9.521074    12.612127     22.30075    14.235163 
  856800    197.34566     59210664            0     59211432    12.683316    22.410353    14.188351    19.734013    33.265686    9.5519602    12.612127     22.30075    14.235163 
  857000    156.37636     59211336            0     59211945    12.683319    22.410343    14.188181    19.734391    33.264659    9.5349226    12.612127     22.30075    14.235163 
  857200    249.83467     59210568            0     59211541    12.683305    22.410375    14.188119    19.732967     33.26782    9.5287474    12.612127     22.30075    14.235163 
  857400    213.47292     59211342            0     59212173    12.683322    22.410353    14.188144    19.734679     33.26565    9.5312364    12.612127     22.30075    14.235163 
  857600    222.35195     59211200            0     59212065    12.683368    22.410377    14.188092    19.739259    33.268039    9.5260631    12.612127     22.30075    14.235163 
  857800    282.14582     59211338            0     59212437    12.683335    22.410348    14.188184    19.735971    33.265147    9.5352783    12.612127     22.30075    14.235163 
  858000    273.06802     59210967            0     59212030    12.683318    22.410349    14.188263    19.734238     33.26524    9.5431315    12.612127     22.30075    14.235163 
  858200    137.85203     59210605            0     59211141    12.683316    22.410353    14.188034    19.734014    33.265686    9.5202711    12.612127     22.30075    14.235163 
  858400    197.33069     59210603            0     59211371    12.683329    22.410385    14.188248    19.735392    33.268841    9.5416181    12.612127     22.30075    14.235163 
  858600    145.22298     59210932            0     59211497    12.683341    22.410368     14.18815    19.736556    33.267157    9.5318023    12.612127     22.30075    14.235163 
  858800    119.50808     59210920            0     59211386    12.683318    22.410357    14.187939    19.734227    33.266039    9.5107293    12.612127     22.30075    14.235163 
  859000    365.11232     59211301            0     59212723     12.68331    22.410364     14.18796    19.733461    33.266779    9.5128517    12.612127     22.30075    14.235163 
  859200    68.935157     59210745            0     59211013    12.683324    22.410337    14.188113    19.734835     33.26406    9.5281301    12.612127     22.30075    14.235163 
  859400    207.66668     59211264            0     59212073     12.68334     22.41036    14.187874    19.736449    33.266375    9.5041942    12.612127     22.30075    14.235163 
  859600    84.704781     59209862            0     59210192    12.683343    22.410325    14.188199    19.736707    33.262815    9.5367876    12.612127     22.30075    14.235163 
  859800    239.75911     59210635            0     59211568    12.683323    22.410338    14.188114    19.734782    33.264169    9.5282155    12.612127     22.30075    14.235163 
  860000     161.3026     59211941            0     59212569    12.683316    22.410353    14.187827     19.73401    33.265688    9.4995744    12.612127     22.30075    14.235163 
  860200    181.38714     59210913            0     59211619     12.68329    22.410355    14.188069    19.731466    33.265835    9.5237833    12.612127     22.30075    14.235163 
  860400    275.59625     59210545            0     59211618    12.683312    22.410334    14.188198    19.733599    33.263747    9.5366811    12.612127     22.30075    14.235163 
  860600    185.73167     59210202            0     59210925    12.683316    22.410353    14.187905     19.73407    33.265683    9.5073211    12.612127     22.30075    14.235163 
  860800      263.544     59210348            0     59211374    12.683303    22.410377    14.188123    19.732786    33.268064    9.5291479    12.612127     22.30075    14.235163 
  861000    252.89358     59210712            0     59211696    12.683342    22.410367    14.188184    19.736611    33.267017    9.5352441    12.612127     22.30075    14.235163 
  861200    215.59058     59211685            0     59212524    12.683315    22.410353    14.188237     19.73397    33.265685    9.5405004    12.612127     22.30075    14.235163 
  861400    170.39745     59210883            0     59211547    12.683316    22.410353    14.188125       19.734    33.265705    9.5293533    12.612127     22.30075    14.235163 
  861600    206.82131     59210838            0     59211643    12.683318    22.410355    14.188213    19.734288    33.265864    9.5381703    12.612127     22.30075    14.235163 
  861800    202.94494     59210870            0     59211660    12.683343    22.410346    14.188054      19.7367    33.264961    9.5221993    12.612127     22.30075    14.235163 
  862000    269.45795     59210253            0     59211302    12.683314    22.410353    14.188234    19.733859     33.26564    9.5402298    12.612127     22.30075    14.235163 
  862200    137.62159     59210954            0     59211490    12.683291     22.41035    14.188175    19.731545    33.265401    9.5343588    12.612127     22.30075    14.235163 
  862400    235.47978     59210958            0     59211874    12.683315    22.410353    14.188231    19.733964    33.265686    9.5399321    12.612127     22.30075    14.235163 
  862600     273.4428     59210706            0     59211771    12.683304     22.41038    14.188127    19.732867    33.268407    9.5295859    12.612127     22.30075    14.235163 
  862800    332.67683     59209858            0     59211153    12.683312    22.410353    14.188174    19.733666    33.265704    9.5342177    12.612127     22.30075    14.235163 
  863000    269.55343     59210974            0     59212024    12.683315    22.410355    14.188269    19.733905      33.2659     9.543719    12.612127     22.30075    14.235163 
  863200    185.47378     59210123            0     59210845    12.683318    22.410363    14.187982    19.734296    33.266611    9.5150317    12.612127     22.30075    14.235163 
  863400    270.66034     59211322            0     59212376    12.683347     22.41035    14.188195    19.737144    33.265401    9.5363966    12.612127     22.30075    14.235163 
  863600    252.06835     59210194            0     59211175    12.683323    22.410364    14.188147    19.734752    33.266801    9.5315051    12.612127     22.30075    14.235163 
  863800    249.60528     59211894            0     59212866    12.683316    22.410353    14.188215    19.734014    33.265694    9.5383904    12.612127     22.30075    14.235163 
  864000    168.43549     59210602            0     59211258    12.683325    22.410367    14.188079    19.734938    33.267099    9.5247478    12.612127     22.30075    14.235163 
  864200    59.674469     59210562            0     59210794    12.683284    22.410364    14.188096    19.730884    33.266712    9.5264291    12.612127     22.30075    14.235163 
  864400    208.57216     59210230            0     59211042    12.683321    22.410345     14.18819    19.734516    33.264899    9.5358589    12.612127     22.30075    14.235163 
  864600    345.28046     59211045            0     59212389    12.683317    22.410355    14.188208    19.734115     33.26584    9.5376908    12.612127     22.30075    14.235163 
  864800    174.85127     59210925            0     59211606    12.683311    22.410347    14.188381    19.733576    33.265098    9.5549847    12.612127     22.30075    14.235163 
  865000    222.94275     59210767            0     59211635    12.683327    22.410353    14.188108    19.735101    33.265639    9.5276036    12.612127     22.30075    14.235163 
  865200    108.84308     59211967            0     59212391    12.683335    22.410354    14.188119    19.735911     33.26576    9.5287207    12.612127     22.30075    14.235163 
  865400    112.43488     59210975            0     59211413    12.683312    22.410331     14.18809    19.733619    33.263437     9.525865    12.612127     22.30075    14.235163 
  865600     284.9473     59210333            0     59211442    12.683345    22.410369    14.188062    19.736932    33.267226    9.5230781    12.612127     22.30075    14.235163 
  865800    57.016393     59210402            0     59210624    12.683324    22.410338     14.18796    19.734803     33.26418    9.5128349    12.612127     22.30075    14.235163 
  866000    223.66763     59210484            0     59211355    12.683338    22.410352    14.188127    19.736297    33.265596    9.5295174    12.612127     22.30075    14.235163 
  866200    106.33151     59211233            0     59211647    12.683301    22.410332     14.18802    19.732498    33.263531    9.5188241    12.612127     22.30075    14.235163 
  866400    244.80925     59211075            0     59212028    12.683355     22.41033    14.187888    19.737957     33.26334    9.5056216    12.612127     22.30075    14.235163 
  866600    268.86116     59210133            0     59211180    12.683325    22.410334    14.187931    19.734934    33.263789    9.5099595    12.612127     22.30075    14.235163 
  866800    141.55714     59211666            0     59212217     12.68331    22.410329    14.188043    19.733407    33.263231    9.5210975    12.612127     22.30075    14.235163 
  867000    224.42819     59212057            0     59212930    12.683323    22.410366    14.188335    19.734788    33.266928     9.550393    12.612127     22.30075    14.235163 
  867200    374.36294     59210277            0     59211734    12.683343    22.410356    14.188027     19.73676    33.265989    9.5195165    12.612127     22.30075    14.235163 
  867400    209.04546     59211170            0     59211983     12.68333    22.410367    14.188363    19.735468    33.267042    9.5531483    12.612127     22.30075    14.235163 
  867600    224.68938     59210655            0     59211530    12.683314    22.410357    14.188055    19.733829    33.266022     9.522387    12.612127     22.30075    14.235163 
  867800    149.64416     59211011            0     59211594    12.683327    22.410335    14.188104    19.735156    33.263853    9.5272123    12.612127     22.30075    14.235163 
  868000    296.52076     59210877            0     59212032    12.683316    22.410354    14.188011    19.734046    33.265741    9.5179158    12.612127     22.30075    14.235163 
  868200    123.73927     59210922            0     59211404    12.683316    22.410353    14.188192    19.734014    33.265685    9.5360042    12.612127     22.30075    14.235163 
  868400    203.78001     59210200            0     59210993    12.683308    22.410356    14.188019    19.733219    33.265923    9.5187365    12.612127     22.30075    14.235163 
  868600    153.61056     59211489            0     59212087    12.683288    22.410388    14.188059    19.731217    33.269198    9.5227365    12.612127     22.30075    14.235163 
  868800    173.85952     59211171            0     59211848    12.683302    22.410369    14.188159    19.732648     33.26729    9.5327655    12.612127     22.30075    14.235163 
  869000    329.93272     59210556            0     59211840    12.683316    22.410353    14.187994    19.734032    33.265689     9.516222    12.612127     22.30075    14.235163 
  869200    307.77584     59211506            0     59212705    12.683314     22.41035    14.188179    19.733805    33.265329    9.5347142    12.612127     22.30075    14.235163 
  869400    234.42982     59210783            0     59211695      12.6833    22.410338    14.188193    19.732445    33.264204    9.5361714    12.612127     22.30075    14.235163 
  869600    231.68029     59210664            0     59211566    12.683316    22.410353    14.188018    19.734014    33.265686    9.5186077    12.612127     22.30075    14.235163 
  869800    336.13002     59210417            0     59211726    12.683328    22.410323    14.187998    19.735199     33.26263    9.5166666    12.612127     22.30075    14.235163 
  870000    256.31986     59211514            0     59212511    12.683316    22.410359    14.188139    19.734004    33.266285    9.5307565    12.612127     22.30075    14.235163 
  870200    190.99641     59210999            0     59211743    12.683319    22.410359    14.187915    19.734383    33.266216    9.5083756    12.612127     22.30075    14.235163 
  870400    237.72279     59210683            0     59211608    12.683323     22.41032    14.188192    19.734754    33.262379    9.5360484    12.612127     22.30075    14.235163 
  870600    282.99354     59211024            0     59212125    12.683315    22.410353    14.188273    19.733939    33.265693    9.5441103    12.612127     22.30075    14.235163 
  870800    163.50957     59211619            0     59212255    12.683292    22.410354    14.187998    19.731631     33.26576    9.5165952    12.612127     22.30075    14.235163 
  871000    134.62827     59211149            0     59211673    12.683321    22.410362     14.18816    19.734554     33.26657    9.5328128    12.612127     22.30075    14.235163 
  871200    91.879704     59210595            0     59210952    12.683329    22.410377    14.187997     19.73531    33.268103    9.5165525    12.612127     22.30075    14.235163 
  871400    217.62025     59210144            0     59210991    12.683312    22.410361    14.188159    19.733617    33.266471    9.5327713    12.612127     22.30075    14.235163 
  871600    233.44601     59210392            0     59211301    12.683316    22.410353    14.188252    19.734014    33.265686    9.5420587    12.612127     22.30075    14.235163 
  871800    140.03606     59211640            0     59212185    12.683336    22.410333    14.188083    19.736041     33.26365    9.5251841    12.612127     22.30075    14.235163 
  872000    247.56119     59210019            0     59210983    12.683316    22.410381    14.188172    19.734084    33.268449    9.5340343    12.612127     22.30075    14.235163 
  872200    330.25613     59210305            0     59211590    12.683318    22.410353    14.188214    19.734295    33.265683    9.5382779    12.612127     22.30075    14.235163 
  872400    181.61455     59211122            0     59211829    12.683311    22.410335    14.187979    19.733523     33.26389    9.5146899    12.612127     22.30075    14.235163 
  872600      252.144     59210467            0     59211448     12.68333    22.410367    14.188053    19.735475    33.267092    9.5221041    12.612127     22.30075    14.235163 
  872800    208.92179     59210031            0     59210844    12.683316    22.410352    14.187999    19.734084    33.265549     9.516727    12.612127     22.30075    14.235163 
  873000    227.64831     59210572            0     59211458    12.683306    22.410367    14.188307    19.733019    33.267086     9.547514    12.612127     22.30075    14.235163 
  873200    114.42513     59210933            0     59211379    12.683358    22.410336    14.188091    19.738271    33.263971    9.5259257    12.612127     22.30075    14.235163 
  873400    270.18179     59211344            0     59212396    12.683322    22.410351    14.188158     19.73462    33.265504    9.5326601    12.612127     22.30075    14.235163 
  873600    135.32352     59210902            0     59211429    12.683333    22.410324    14.187975    19.735729    33.262761    9.5143651    12.612127     22.30075    14.235163 
  873800    226.41619     59211273            0     59212154    12.683302    22.410353    14.187936    19.732635     33.26566    9.5104408    12.612127     22.30075    14.235163 
  874000    170.13057     59210601            0     59211263    12.683335    22.410387    14.188085    19.735921    33.269027     9.525335    12.612127     22.30075    14.235163 
  874200    141.03437     59210708            0     59211257    12.683316    22.410353    14.188181     19.73401    33.265693    9.5349848    12.612127     22.30075    14.235163 
  874400    124.97187     59210471            0     59210958    12.683328    22.410373    14.188104    19.735276    33.267614    9.5271949    12.612127     22.30075    14.235163 
  874600    113.87257     59211370            0     59211813    12.683323    22.410334    14.188269    19.734754    33.263722    9.5437307    12.612127     22.30075    14.235163 
  874800    154.09384     59211534            0     59212134    12.683276    22.410355    14.188069    19.730056    33.265842     9.523753    12.612127     22.30075    14.235163 
  875000    98.544362     59211410            0     59211794    12.683292    22.410355    14.188125     19.73166    33.265819    9.5293627    12.612127     22.30075    14.235163 
  875200    190.17065     59210897            0     59211638    12.683304    22.410342    14.188021    19.732829    33.264582    9.5189395    12.612127     22.30075    14.235163 
  875400    129.21617     59211149            0     59211652      12.6833    22.410397    14.187832     19.73242    33.270028    9.5000423    12.612127     22.30075    14.235163 
  875600    273.83849     59211028            0     59212094    12.683333    22.410333    14.188405    19.735709    33.263619    9.5573257    12.612127     22.30075    14.235163 
  875800    151.69947     59211676            0     59212266    12.683295    22.410344    14.188041    19.731967    33.264724    9.5209117    12.612127     22.30075    14.235163 
  876000    148.74422     59210736            0     59211315    12.683312    22.410347    14.188369    19.733657    33.265011    9.5537557    12.612127     22.30075    14.235163 
  876200     367.1513     59211787            0     59213217    12.683338    22.410352    14.188189    19.736258    33.265563    9.5357011    12.612127     22.30075    14.235163 
  876400    300.27857     59210993            0     59212162    12.683277    22.410357    14.187966    19.730184    33.266094    9.5134406    12.612127     22.30075    14.235163 
  876600    167.00157     59212225            0     59212875    12.683304    22.410335    14.188185    19.732828    33.263881    9.5353372    12.612127     22.30075    14.235163 
  876800    176.23041     59211630            0     59212316    12.683304    22.410335    14.187949    19.732842    33.263875    9.5117153    12.612127     22.30075    14.235163 
  877000    148.82368     59212232            0     59212811     12.68332    22.410371    14.188077    19.734439    33.267432    9.5245432    12.612127     22.30075    14.235163 
  877200    290.99253     59210740            0     59211873    12.683316    22.410353    14.188093    19.734014    33.265686    9.5261022    12.612127     22.30075    14.235163 
  877400     113.6317     59210579            0     59211022    12.683316    22.410353    14.188114    19.734015    33.265683    9.5282603    12.612127     22.30075    14.235163 
  877600    262.72547     59210650            0     59211672    12.683313    22.410357      14.1879    19.733732    33.266099     9.506834    12.612127     22.30075    14.235163 
  877800    174.82608     59210705            0     59211386    12.683321    22.410352    14.188187    19.734573    33.265591    9.5355319    12.612127     22.30075    14.235163 
  878000     198.9914     59210288            0     59211063     12.68329    22.410349    14.188027    19.731462    33.265249    9.5195826    12.612127     22.30075    14.235163 
  878200    249.36864     59211050            0     59212020    12.683316    22.410353    14.188028    19.734013    33.265686    9.5196121    12.612127     22.30075    14.235163 
  878400    257.49176     59211141            0     59212143    12.683353    22.410374     14.18821    19.737749    33.267787    9.5378966    12.612127     22.30075    14.235163 
  878600    355.11639     59209941            0     59211323    12.683314    22.410359    14.188027    19.733848    33.266231     9.519561    12.612127     22.30075    14.235163 
  878800    176.39167     59211317            0     59212003     12.68333    22.410324      14.1879    19.735414    33.262708    9.5068559    12.612127     22.30075    14.235163 
  879000    259.86297     59209969            0     59210980    12.683347    22.410391    14.188054    19.737191    33.269478    9.5222771    12.612127     22.30075    14.235163 
  879200    215.10977     59211068            0     59211906    12.683319     22.41037    14.188008    19.734345    33.267338    9.5176035    12.612127     22.30075    14.235163 
  879400     265.9151     59210263            0     59211298    12.683289     22.41033    14.188123    19.731309    33.263396    9.5291741    12.612127     22.30075    14.235163 
  879600    206.41301     59211156            0     59211960    12.683306    22.410333    14.188101    19.733016    33.263612    9.5269063    12.612127     22.30075    14.235163 
  879800    68.668228     59211970            0     59212237    12.683314    22.410351    14.188175    19.733837    33.265423    9.5343658    12.612127     22.30075    14.235163 
  880000    289.64025     59210907            0     59212035    12.683329    22.410353    14.188042    19.735395     33.26561    9.5210888    12.612127     22.30075    14.235163 
  880200    324.19982     59211033            0     59212295    12.683316    22.410354    14.188121    19.734067    33.265715    9.5288987    12.612127     22.30075    14.235163 
  880400    143.67304     59211112            0     59211671    12.683355     22.41036    14.188075    19.737925    33.266309    9.5243015    12.612127     22.30075    14.235163 
  880600    334.30236     59210336            0     59211637    12.683316    22.410353    14.188207    19.734028    33.265656    9.5375201    12.612127     22.30075    14.235163 
  880800    263.09178     59210435            0     59211459    12.683319    22.410351    14.188058    19.734319    33.265473    9.5225934    12.612127     22.30075    14.235163 
  881000    179.53097     59210715            0     59211414    12.683328    22.410368    14.188041    19.735206    33.267204    9.5208996    12.612127     22.30075    14.235163 
  881200    87.956637     59211181            0     59211524    12.683314    22.410354    14.188238    19.733852    33.265712    9.5406535    12.612127     22.30075    14.235163 
  881400    176.58351     59210459            0     59211147    12.683314    22.410353    14.188124    19.733823    33.265697    9.5292733    12.612127     22.30075    14.235163 
  881600    203.70056     59210438            0     59211231    12.683348    22.410352    14.188024    19.737235    33.265542    9.5192412    12.612127     22.30075    14.235163 
  881800    97.562139     59211833            0     59212212    12.683301    22.410343    14.188073    19.732589    33.264626     9.524175    12.612127     22.30075    14.235163 
  882000    109.27899     59210558            0     59210984    12.683289     22.41033    14.188036    19.731388    33.263387     9.520403    12.612127     22.30075    14.235163 
  882200    249.11956     59211419            0     59212389    12.683312    22.410352    14.188032    19.733599     33.26558    9.5199985    12.612127     22.30075    14.235163 
  882400    143.71586     59210245            0     59210805    12.683316    22.410353    14.188203    19.734092    33.265621    9.5371844    12.612127     22.30075    14.235163 
  882600    307.43603     59211289            0     59212485    12.683307    22.410361    14.188353    19.733138    33.266432    9.5521658    12.612127     22.30075    14.235163 
  882800    215.77937     59210397            0     59211237    12.683315     22.41035    14.188093    19.733957    33.265406    9.5261049    12.612127     22.30075    14.235163 
  883000    234.72124     59212032            0     59212946    12.683348     22.41035    14.187889    19.737225    33.265408    9.5057818    12.612127     22.30075    14.235163 
  883200    131.25199     59211939            0     59212450    12.683318     22.41036    14.188158    19.734222    33.266347    9.5326823    12.612127     22.30075    14.235163 
  883400    230.94148     59210869            0     59211768    12.683305    22.410334    14.188211    19.732933    33.263775    9.5379969    12.612127     22.30075    14.235163 
  883600    196.64073     59211372            0     59212137    12.683329     22.41039    14.188069     19.73534    33.269383    9.5237709    12.612127     22.30075    14.235163 
  883800    407.34395     59210837            0     59212423    12.683316    22.410354     14.18805    19.734038    33.265709    9.5218461    12.612127     22.30075    14.235163 
  884000    313.41987     59210597            0     59211817    12.683295    22.410391    14.188107    19.731978    33.269465     9.527515    12.612127     22.30075    14.235163 
  884200    203.77516     59211441            0     59212235    12.683301     22.41031    14.188106    19.732568    33.261335    9.5274637    12.612127     22.30075    14.235163 
  884400    123.89527     59210892            0     59211374    12.683313    22.410359    14.187924     19.73372     33.26623    9.5092061    12.612127     22.30075    14.235163 
  884600    225.67281     59210743            0     59211621    12.683296    22.410358    14.188011    19.732009    33.266168    9.5179152    12.612127     22.30075    14.235163 
  884800    111.68744     59211127            0     59211561    12.683327    22.410327    14.188019    19.735105    33.263045    9.5187458    12.612127     22.30075    14.235163 
  885000     154.5101     59210617            0     59211218    12.683307    22.410343    14.188051    19.733148    33.264698    9.5219347    12.612127     22.30075    14.235163 
  885200    291.93957     59210774            0     59211910    12.683316    22.410357      14.1882    19.734004    33.266074    9.5368029    12.612127     22.30075    14.235163 
  885400    106.11707     59210640            0     59211053     12.68333    22.410343    14.188208    19.735453    33.264707    9.5376451    12.612127     22.30075    14.235163 
  885600    263.02418     59211755            0     59212779    12.683327    22.410393    14.188103    19.735161    33.269621    9.5271023    12.612127     22.30075    14.235163 
  885800    218.77351     59211215            0     59212067    12.683326    22.410333    14.188211    19.735076    33.263647     9.537973    12.612127     22.30075    14.235163 
  886000    153.22564     59211705            0     59212301    12.683309    22.410353    14.188069     19.73335    33.265704     9.523728    12.612127     22.30075    14.235163 
  886200    130.64144     59211064            0     59211572    12.683321    22.410362    14.188048    19.734591     33.26658    9.5216782    12.612127     22.30075    14.235163 
  886400    138.75304     59211039            0     59211579    12.683284    22.410393    14.188192     19.73085    33.269699    9.5360267    12.612127     22.30075    14.235163 
  886600    52.109133     59210594            0     59210796    12.683344    22.410392    14.188237    19.736801    33.269584    9.5405933    12.612127     22.30075    14.235163 
  886800     185.9574     59211280            0     59212003    12.683316    22.410353    14.188156    19.734013    33.265685    9.5324492    12.612127     22.30075    14.235163 
  887000     225.0998     59210429            0     59211306    12.683282    22.410364    14.188132    19.730639    33.266763     9.530068    12.612127     22.30075    14.235163 
  887200    152.41867     59211161            0     59211754    12.683369    22.410342    14.188067    19.739379    33.264534    9.5235474    12.612127     22.30075    14.235163 
  887400    254.57392     59210321            0     59211312    12.683315    22.410361    14.188184    19.733992    33.266439    9.5352084    12.612127     22.30075    14.235163 
  887600    166.10634     59211033            0     59211679    12.683318    22.410384    14.188287     19.73425    33.268738    9.5455995    12.612127     22.30075    14.235163 
  887800    124.77455     59210606            0     59211092    12.683314    22.410351    14.188266    19.733844    33.265409    9.5434701    12.612127     22.30075    14.235163 
  888000    246.25431     59210882            0     59211841    12.683313    22.410338    14.187957    19.733709    33.264148    9.5125631    12.612127     22.30075    14.235163 
  888200    139.01702     59211142            0     59211684    12.683316    22.410353    14.188261     19.73402    33.265682    9.5429853    12.612127     22.30075    14.235163 
  888400    183.10425     59211627            0     59212340    12.683311    22.410367    14.187936    19.733552    33.267045    9.5104061    12.612127     22.30075    14.235163 
  888600    206.80644     59211277            0     59212082    12.683316    22.410353    14.187915    19.734015    33.265685    9.5083002    12.612127     22.30075    14.235163 
  888800    164.87904     59210763            0     59211404    12.683307    22.410354    14.187934    19.733146     33.26577    9.5102161    12.612127     22.30075    14.235163 
  889000    295.62566     59211811            0     59212962    12.683313    22.410349    14.188144     19.73373    33.265252    9.5312098    12.612127     22.30075    14.235163 
  889200    191.86161     59211273            0     59212020    12.683315    22.410355    14.188278    19.733906    33.265895    9.5446988    12.612127     22.30075    14.235163 
  889400    189.36596     59211286            0     59212023     12.68331    22.410358    14.188088    19.733473     33.26619    9.5256768    12.612127     22.30075    14.235163 
  889600    197.75376     59210373            0     59211143    12.683311    22.410354    14.188164    19.733563    33.265714    9.5332921    12.612127     22.30075    14.235163 
  889800    117.92166     59210485            0     59210944    12.683314    22.410353    14.188182    19.733845    33.265694    9.5350499    12.612127     22.30075    14.235163 
  890000    133.54525     59211748            0     59212268    12.683316    22.410347    14.188258    19.734045    33.265053     9.542634    12.612127     22.30075    14.235163 
  890200    155.07154     59211507            0     59212111    12.683312    22.410341    14.188432    19.733643    33.264436    9.5600537    12.612127     22.30075    14.235163 
  890400    250.85223     59210224            0     59211201    12.683321    22.410349    14.188239    19.734518     33.26528    9.5407151    12.612127     22.30075    14.235163 
  890600    203.08144     59211259            0     59212049    12.683301    22.410348    14.187912    19.732506    33.265142    9.5080439    12.612127     22.30075    14.235163 
  890800    280.08738     59211148            0     59212238    12.683316    22.410352    14.188346    19.734066    33.265582    9.5515001    12.612127     22.30075    14.235163 
  891000    196.64399     59210595            0     59211360    12.683309    22.410351    14.187977    19.733324     33.26542    9.5145498    12.612127     22.30075    14.235163 
  891200     342.3498     59210633            0     59211965    12.683324    22.410353    14.188212    19.734894    33.265638    9.5380535    12.612127     22.30075    14.235163 
  891400    92.367565     59210699            0     59211059    12.683333    22.410352    14.188182    19.735719    33.265525    9.5350822    12.612127     22.30075    14.235163 
  891600    294.39154     59211595            0     59212741    12.683316    22.410354    14.188242     19.73402    33.265719    9.5410656    12.612127     22.30075    14.235163 
  891800     151.6799     59210837            0     59211428    12.683302    22.410376    14.188156    19.732659    33.267946    9.5324802    12.612127     22.30075    14.235163 
  892000     180.4783     59210932            0     59211634    12.683303    22.410333    14.187974    19.732718    33.263706    9.5142819    12.612127     22.30075    14.235163 
  892200    220.22611     59211341            0     59212198    12.683337    22.410371    14.188174    19.736194    33.267454    9.5341995    12.612127     22.30075    14.235163 
  892400    120.95129     59211001            0     59211471    12.683308    22.410366    14.188049    19.733242    33.266928    9.5217628    12.612127     22.30075    14.235163 
  892600     176.1602     59210060            0     59210746    12.683315    22.410329    14.188167     19.73394    33.263221    9.5335025    12.612127     22.30075    14.235163 
  892800     186.1497     59211527            0     59212252      12.6833     22.41039    14.187925    19.732403    33.269394    9.5093645    12.612127     22.30075    14.235163 
  893000    165.78139     59211510            0     59212156    12.683316    22.410353    14.188053    19.734007    33.265682    9.5220967    12.612127     22.30075    14.235163 
  893200    158.18556     59210080            0     59210696    12.683318    22.410369    14.188081    19.734261    33.267274    9.5249754    12.612127     22.30075    14.235163 
  893400    202.86602     59211349            0     59212139    12.683329     22.41037    14.188014    19.735312    33.267323    9.5182685    12.612127     22.30075    14.235163 
  893600    178.12404     59211034            0     59211727    12.683317    22.410355    14.188068    19.734138     33.26588    9.5236643    12.612127     22.30075    14.235163 
  893800    246.96241     59211270            0     59212231    12.683349    22.410377    14.188284    19.737307    33.268059    9.5452363    12.612127     22.30075    14.235163 
  894000    156.46799     59210911            0     59211520    12.683316    22.410353    14.187996    19.734015    33.265685    9.5164881    12.612127     22.30075    14.235163 
  894200    130.46934     59211106            0     59211614    12.683316    22.410353    14.188151    19.734014    33.265686    9.5319927    12.612127     22.30075    14.235163 
  894400    222.56843     59211399            0     59212266    12.683316    22.410354    14.188008    19.734054    33.265718     9.517642    12.612127     22.30075    14.235163 
  894600    104.97289     59211165            0     59211573    12.683321    22.410354    14.188094    19.734505    33.265803    9.5261974    12.612127     22.30075    14.235163 
  894800    162.37062     59211264            0     59211896    12.683305    22.410373    14.188195    19.732994    33.267703    9.5363741    12.612127     22.30075    14.235163 
  895000     138.9164     59211720            0     59212260    12.683316    22.410353    14.188358    19.734014    33.265686    9.5526805    12.612127     22.30075    14.235163 
  895200    241.81034     59210733            0     59211675    12.683302    22.410356     14.18791    19.732689    33.265998    9.5078656    12.612127     22.30075    14.235163 
  895400    286.19694     59211331            0     59212445    12.683315    22.410354    14.187995    19.733996    33.265712    9.5163664    12.612127     22.30075    14.235163 
  895600    270.85627     59211758            0     59212813    12.683338    22.410316    14.187886    19.736198    33.261918    9.5054586    12.612127     22.30075    14.235163 
  895800    224.27591     59210445            0     59211318    12.683316    22.410353    14.188118    19.734014    33.265686    9.5286898    12.612127     22.30075    14.235163 
  896000    179.05388     59210375            0     59211072    12.683318    22.410349    14.188147    19.734212    33.265294    9.5315849    12.612127     22.30075    14.235163 
  896200    161.75107     59210902            0     59211531    12.683316    22.410353    14.188049    19.734016    33.265688    9.5217673    12.612127     22.30075    14.235163 
  896400    408.78012     59210748            0     59212339    12.683316    22.410355    14.188154    19.734022    33.265822    9.5322777    12.612127     22.30075    14.235163 
  896600    126.89452     59210520            0     59211014    12.683319    22.410365    14.188227    19.734384      33.2669       9.5395    12.612127     22.30075    14.235163 
  896800    266.68929     59211491            0     59212529     12.68331    22.410354    14.188226    19.733416    33.265719    9.5394211    12.612127     22.30075    14.235163 
  897000    301.11945     59210298            0     59211470    12.683317    22.410363    14.188131    19.734102    33.266617    9.5299145    12.612127     22.30075    14.235163 
  897200    307.05752     59211280            0     59212475    12.683314    22.410351    14.188038    19.733838    33.265417    9.5206284    12.612127     22.30075    14.235163 
  897400    109.04637     59211464            0     59211888    12.683346    22.410353    14.188154    19.737069    33.265707    9.5322906    12.612127     22.30075    14.235163 
  897600    148.04823     59211072            0     59211648    12.683316    22.410353    14.188227     19.73402    33.265696    9.5395394    12.612127     22.30075    14.235163 
  897800    165.55973     59211152            0     59211797    12.683315    22.410353    14.188071    19.733929    33.265691    9.5239738    12.612127     22.30075    14.235163 
  898000    380.58691     59210624            0     59212105    12.683335    22.410349    14.188182     19.73592    33.265267    9.5350756    12.612127     22.30075    14.235163 
  898200    154.22783     59210723            0     59211324    12.683315    22.410353    14.188041     19.73395    33.265705    9.5209571    12.612127     22.30075    14.235163 
  898400    130.08768     59210412            0     59210919    12.683313    22.410359    14.188132    19.733713    33.266279    9.5300126    12.612127     22.30075    14.235163 
  898600    164.48313     59210268            0     59210908    12.683316    22.410352    14.188073    19.734089    33.265538    9.5241747    12.612127     22.30075    14.235163 
  898800    136.76733     59211156            0     59211688    12.683312    22.410348    14.188209    19.733645    33.265123     9.537757    12.612127     22.30075    14.235163 
  899000    97.962853     59210554            0     59210936    12.683294    22.410354    14.188201     19.73181    33.265808    9.5369776    12.612127     22.30075    14.235163 
  899200    187.66926     59211043            0     59211774    12.683304    22.410352    14.188232    19.732803    33.265538    9.5400119    12.612127     22.30075    14.235163 
  899400    136.11979     59211488            0     59212018    12.683312    22.410353    14.188048    19.733621    33.265708    9.5216441    12.612127     22.30075    14.235163 
  899600    168.35938     59211351            0     59212006    12.683299    22.410354    14.188196    19.732354    33.265776    9.5363989    12.612127     22.30075    14.235163 
  899800    205.93602     59210527            0     59211329    12.683306    22.410362    14.188094    19.733084    33.266535    9.5262619    12.612127     22.30075    14.235163 
  900000    231.83539     59211395            0     59212298    12.683318    22.410355    14.188317    19.734285    33.265815    9.5485791    12.612127     22.30075    14.235163 
  900200    221.65663     59210673            0     59211536    12.683327    22.410328    14.188044     19.73513    33.263201      9.52126    12.612127     22.30075    14.235163 
  900400    139.21666     59210215            0     59210757    12.683329    22.410367    14.188106     19.73537    33.267075    9.5274588    12.612127     22.30075    14.235163 
  900600    179.54214     59210792            0     59211491    12.683314    22.410344     14.18821    19.733826    33.264795    9.5378777    12.612127     22.30075    14.235163 
  900800    199.55924     59210337            0     59211114    12.683315    22.410365    14.188195    19.733958    33.266885    9.5363413    12.612127     22.30075    14.235163 
  901000    126.24669     59210636            0     59211127    12.683365    22.410351    14.188135    19.738992    33.265453    9.5303443    12.612127     22.30075    14.235163 
  901200    199.75861     59211868            0     59212646    12.683283    22.410354    14.188015    19.730744    33.265751    9.5183838    12.612127     22.30075    14.235163 
  901400    211.79958     59210089            0     59210913    12.683325    22.410356    14.188113    19.734954    33.265959    9.5281769    12.612127     22.30075    14.235163 
  901600     199.3229     59210610            0     59211386    12.683301     22.41033    14.188191    19.732539    33.263373    9.5359519    12.612127     22.30075    14.235163 
  901800    126.85628     59211004            0     59211498    12.683337    22.410365    14.188058    19.736141    33.266845    9.5226168    12.612127     22.30075    14.235163 
  902000    388.26696     59211635            0     59213147    12.683316    22.410353    14.188494    19.734086    33.265682    9.5662115    12.612127     22.30075    14.235163 
  902200    203.27525     59210969            0     59211760     12.68332    22.410326    14.188048    19.734418    33.262996    9.5216177    12.612127     22.30075    14.235163 
  902400    228.53442     59210427            0     59211317    12.683335    22.410353    14.188075     19.73594    33.265613    9.5243292    12.612127     22.30075    14.235163 
  902600    158.65668     59210792            0     59211410    12.683302    22.410332    14.187984    19.732654    33.263604    9.5152107    12.612127     22.30075    14.235163 
  902800    252.89444     59212111            0     59213096    12.683318     22.41035    14.187963    19.734287    33.265354    9.5130913    12.612127     22.30075    14.235163 
  903000    263.89478     59211254            0     59212281    12.683316    22.410353    14.188161    19.734014    33.265685    9.5329908    12.612127     22.30075    14.235163 
  903200    204.30236     59211686            0     59212482    12.683315    22.410335    14.187982    19.733937    33.263865      9.51506    12.612127     22.30075    14.235163 
  903400    172.33755     59210791            0     59211462    12.683304    22.410352    14.188099    19.732826    33.265535     9.526787    12.612127     22.30075    14.235163 
  903600    318.76038     59210665            0     59211906    12.683315    22.410353    14.188273    19.733962    33.265654    9.5441607    12.612127     22.30075    14.235163 
  903800    259.26108     59210190            0     59211199     12.68334    22.410347    14.188073    19.736445    33.265052    9.5241052    12.612127     22.30075    14.235163 
  904000     100.2668     59210371            0     59210761    12.683316    22.410353    14.188146    19.734008    33.265699    9.5314164    12.612127     22.30075    14.235163 
  904200    211.60012     59211167            0     59211991    12.683316    22.410353     14.18828    19.734018     33.26568    9.5448849    12.612127     22.30075    14.235163 
  904400    204.39857     59211428            0     59212224    12.683329    22.410374    14.188129    19.735397    33.267794    9.5297377    12.612127     22.30075    14.235163 
  904600    173.57983     59210312            0     59210987    12.683308    22.410366    14.188032    19.733207    33.266975    9.5200317    12.612127     22.30075    14.235163 
  904800    164.11971     59211668            0     59212307    12.683297    22.410325    14.188239     19.73214    33.262821    9.5407693    12.612127     22.30075    14.235163 
  905000    222.51761     59210523            0     59211390    12.683338    22.410337    14.187901    19.736236    33.264106    9.5069443    12.612127     22.30075    14.235163 
  905200    238.23962     59210803            0     59211731    12.683315    22.410353    14.188272    19.733923    33.265692    9.5440048    12.612127     22.30075    14.235163 
  905400    201.67117     59209641            0     59210426     12.68328    22.410356    14.188091     19.73047    33.265931    9.5259198    12.612127     22.30075    14.235163 
  905600    186.77967     59210872            0     59211599    12.683271    22.410349    14.188156    19.729544    33.265259    9.5323958    12.612127     22.30075    14.235163 
  905800    220.44098     59210935            0     59211794    12.683324    22.410327    14.188003    19.734887    33.263104    9.5171121    12.612127     22.30075    14.235163 
  906000    112.48564     59211145            0     59211583    12.683311    22.410348    14.187967    19.733582    33.265155    9.5135189    12.612127     22.30075    14.235163 
  906200    190.05047     59210339            0     59211079    12.683339     22.41035    14.188053    19.736382    33.265344    9.5221421    12.612127     22.30075    14.235163 
  906400    238.95654     59210334            0     59211265    12.683352    22.410329    14.188125    19.737676    33.263295    9.5293333    12.612127     22.30075    14.235163 
  906600    125.70396     59211215            0     59211705    12.683319    22.410349    14.188282    19.734343    33.265215    9.5450089    12.612127     22.30075    14.235163 
  906800    125.70221     59211467            0     59211957    12.683316    22.410353    14.188384    19.734013    33.265686    9.5552559    12.612127     22.30075    14.235163 
  907000    189.12448     59211291            0     59212027    12.683326    22.410333    14.188159    19.735073    33.263693    9.5327537    12.612127     22.30075    14.235163 
  907200     332.6784     59210945            0     59212240    12.683316    22.410353    14.188145    19.734014    33.265686    9.5313934    12.612127     22.30075    14.235163 
  907400    192.66931     59210877            0     59211627     12.68327    22.410356    14.188156    19.729473    33.265909    9.5324265    12.612127     22.30075    14.235163 
  907600    193.01033     59211287            0     59212039     12.68333    22.410315     14.18814    19.735468     33.26182    9.5308524    12.612127     22.30075    14.235163 
  907800    145.42287     59211741            0     59212307    12.683304    22.410377    14.187814    19.732841    33.268013    9.4982032    12.612127     22.30075    14.235163 
  908000    295.67222     59210520            0     59211671    12.683329    22.410353    14.188215    19.735347    33.265703    9.5383237    12.612127     22.30075    14.235163 
  908200    152.59045     59211072            0     59211666    12.683352     22.41035    14.187899    19.737661    33.265333    9.5067186    12.612127     22.30075    14.235163 
  908400    209.41338     59210520            0     59211336    12.683325     22.41037    14.187979    19.734982    33.267319    9.5147341    12.612127     22.30075    14.235163 
  908600    229.28651     59211060            0     59211952    12.683314    22.410333    14.188044    19.733894    33.263667    9.5211984    12.612127     22.30075    14.235163 
  908800    286.14975     59210392            0     59211506     12.68335    22.410368    14.188097    19.737455    33.267143    9.5265835    12.612127     22.30075    14.235163 
  909000    64.494786     59211221            0     59211472    12.683305    22.410337    14.188373    19.732961    33.264076    9.5541539    12.612127     22.30075    14.235163 
  909200    138.66594     59211243            0     59211783    12.683331    22.410376    14.188308    19.735502    33.267939    9.5476462    12.612127     22.30075    14.235163 
  909400    127.16215     59210472            0     59210967    12.683316    22.410353    14.188078     19.73401    33.265688    9.5246315    12.612127     22.30075    14.235163 
  909600    191.29965     59210279            0     59211024    12.683338    22.410328    14.188077    19.736223     33.26312     9.524542    12.612127     22.30075    14.235163 
  909800    215.71646     59210607            0     59211447    12.683333    22.410381    14.188055    19.735729    33.268461    9.5223337    12.612127     22.30075    14.235163 
  910000    117.19545     59210384            0     59210840    12.683316    22.410353    14.188178    19.734014    33.265687    9.5346817    12.612127     22.30075    14.235163 
  910200    224.36511     59210768            0     59211641    12.683292    22.410371    14.187912    19.731677    33.267445    9.5080268    12.612127     22.30075    14.235163 
  910400    157.79708     59210996            0     59211611    12.683291     22.41033    14.188032     19.73152    33.263353    9.5200179    12.612127     22.30075    14.235163 
  910600    231.57764     59211552            0     59212453    12.683296    22.410342    14.188418    19.732078    33.264529    9.5586852    12.612127     22.30075    14.235163 
  910800    156.54289     59210948            0     59211557    12.683327    22.410353    14.188225     19.73512    33.265641    9.5393146    12.612127     22.30075    14.235163 
  911000    73.114199     59210763            0     59211048    12.683286    22.410355    14.188023    19.730999    33.265852    9.5191315    12.612127     22.30075    14.235163 
  911200    251.29454     59210763            0     59211742    12.683316    22.410354    14.188214    19.734019    33.265721    9.5382287    12.612127     22.30075    14.235163 
  911400     178.7534     59209816            0     59210511     12.68332     22.41036    14.188211    19.734423     33.26632    9.5379424    12.612127     22.30075    14.235163 
  911600    163.21063     59210022            0     59210657     12.68331    22.410385    14.188175     19.73341    33.268841     9.534326    12.612127     22.30075    14.235163 
  911800    145.85036     59210133            0     59210701    12.683321    22.410368    14.188195     19.73456    33.267142    9.5363478    12.612127     22.30075    14.235163 
  912000    180.49598     59210846            0     59211548    12.683345     22.41035    14.188024    19.736974    33.265396    9.5192874    12.612127     22.30075    14.235163 
  912200    110.87942     59210663            0     59211095    12.683281    22.410387    14.188199    19.730593    33.269059    9.5367932    12.612127     22.30075    14.235163 
  912400    242.18522     59210317            0     59211259    12.683329    22.410352      14.1881     19.73537     33.26558    9.5268101    12.612127     22.30075    14.235163 
  912600    126.48706     59211092            0     59211585    12.683308    22.410342    14.188094    19.733281    33.264562    9.5262833    12.612127     22.30075    14.235163 
  912800    236.09615     59210669            0     59211588    12.683316    22.410353    14.188139    19.734048    33.265684    9.5306994    12.612127     22.30075    14.235163 
  913000    52.484091     59210632            0     59210836    12.683308    22.410338     14.18818     19.73321    33.264113    9.5348896    12.612127     22.30075    14.235163 
  913200    181.64796     59210667            0     59211374    12.683298    22.410347     14.18812    19.732286    33.265052    9.5288376    12.612127     22.30075    14.235163 
  913400    190.87347     59211704            0     59212447    12.683299     22.41036    14.187897    19.732377    33.266395    9.5065053    12.612127     22.30075    14.235163 
  913600    209.61535     59212121            0     59212937    12.683316    22.410353    14.187918    19.734018    33.265686    9.5086655    12.612127     22.30075    14.235163 
  913800    227.98668     59211339            0     59212227      12.6833    22.410384     14.18813    19.732444    33.268786    9.5298228    12.612127     22.30075    14.235163 
  914000    381.42975     59211205            0     59212690    12.683316    22.410353    14.188343    19.734011    33.265692    9.5511105    12.612127     22.30075    14.235163 
  914200    110.07844     59211236            0     59211664    12.683327    22.410372    14.188234    19.735194    33.267543    9.5402618    12.612127     22.30075    14.235163 
  914400    192.83486     59210683            0     59211433    12.683316    22.410353    14.188209    19.734014    33.265688    9.5377141    12.612127     22.30075    14.235163 
  914600    154.05803     59211118            0     59211718    12.683314    22.410326     14.18805    19.733801    33.262988    9.5218404    12.612127     22.30075    14.235163 
  914800    136.69914     59210896            0     59211428    12.683286    22.410313    14.188239    19.731013    33.261681    9.5407476    12.612127     22.30075    14.235163 
  915000    177.18394     59211212            0     59211902    12.683316    22.410356    14.188098    19.734057    33.265924    9.5266432    12.612127     22.30075    14.235163 
  915200    193.68729     59210736            0     59211490    12.683316    22.410353    14.188152    19.734013    33.265686    9.5320812    12.612127     22.30075    14.235163 
  915400    144.39563     59211225            0     59211787    12.683317    22.410351    14.188189    19.734171    33.265507    9.5357703    12.612127     22.30075    14.235163 
  915600    246.60201     59211542            0     59212502    12.683316    22.410353    14.188197    19.734014    33.265686     9.536504    12.612127     22.30075    14.235163 
  915800    144.80747     59211223            0     59211787    12.683315    22.410353    14.188148    19.733965    33.265696    9.5316293    12.612127     22.30075    14.235163 
  916000    219.45104     59210740            0     59211594    12.683323    22.410364    14.188357      19.7347    33.266738    9.5525759    12.612127     22.30075    14.235163 
  916200    238.21396     59210799            0     59211726    12.683303    22.410358    14.188127     19.73278    33.266156    9.5294993    12.612127     22.30075    14.235163 
  916400    104.29236     59211492            0     59211898    12.683326    22.410337    14.188087    19.735092    33.264095    9.5255802    12.612127     22.30075    14.235163 
  916600    173.88771     59211217            0     59211894    12.683318    22.410348     14.18822    19.734281    33.265201    9.5388189    12.612127     22.30075    14.235163 
  916800     182.8946     59210012            0     59210724    12.683311    22.410347    14.188236    19.733583    33.265016    9.5404465    12.612127     22.30075    14.235163 
  917000    470.86872     59210571            0     59212404    12.683319    22.410345    14.188299    19.734325    33.264811    9.5467301    12.612127     22.30075    14.235163 
  917200    92.490946     59210282            0     59210642    12.683312    22.410348    14.188242    19.733693    33.265179    9.5410123    12.612127     22.30075    14.235163 
  917400    116.64763     59212228            0     59212682    12.683303    22.410321    14.188128     19.73272    33.262427    9.5295948    12.612127     22.30075    14.235163 
  917600    223.07805     59210430            0     59211299    12.683314     22.41035    14.188009    19.733879    33.265407    9.5176921    12.612127     22.30075    14.235163 
  917800    246.28344     59210547            0     59211506    12.683281    22.410336    14.188021    19.730518    33.263956    9.5189024    12.612127     22.30075    14.235163 
  918000    173.19769     59210555            0     59211230    12.683315    22.410353    14.188005    19.733995    33.265686    9.5173233    12.612127     22.30075    14.235163 
  918200    369.11037     59210537            0     59211973    12.683316    22.410353    14.188214    19.734014    33.265685    9.5382798    12.612127     22.30075    14.235163 
  918400     94.11752     59211311            0     59211678    12.683331    22.410379    14.188129    19.735526     33.26821    9.5297641    12.612127     22.30075    14.235163 
  918600    171.76889     59210459            0     59211128    12.683316    22.410353     14.18814    19.734073    33.265634    9.5308334    12.612127     22.30075    14.235163 
  918800    203.59405     59211368            0     59212160    12.683308    22.410332    14.188134    19.733241    33.263553    9.5302702    12.612127     22.30075    14.235163 
  919000    143.01446     59211568            0     59212125    12.683316    22.410353     14.18782    19.734058    33.265634    9.4988444    12.612127     22.30075    14.235163 
  919200    192.86859     59211177            0     59211928    12.683319    22.410356      14.1881    19.734322    33.265929    9.5268186    12.612127     22.30075    14.235163 
  919400     271.7117     59209720            0     59210778    12.683319    22.410349    14.188061    19.734307    33.265226    9.5229657    12.612127     22.30075    14.235163 
  919600     156.8578     59211177            0     59211788    12.683317    22.410314    14.188127     19.73414    33.261749    9.5295773    12.612127     22.30075    14.235163 
  919800    256.28078     59210500            0     59211498    12.683322    22.410363    14.188192    19.734624    33.266621    9.5360491    12.612127     22.30075    14.235163 
  920000     134.3624     59211674            0     59212197    12.683318    22.410353     14.18813    19.734266    33.265668    9.5298911    12.612127     22.30075    14.235163 
  920200    209.54734     59210669            0     59211485    12.683357    22.410387    14.188216    19.738103    33.269065    9.5384255    12.612127     22.30075    14.235163 
  920400    130.90397     59211331            0     59211841    12.683315    22.410353    14.188221     19.73399    33.265691     9.538942    12.612127     22.30075    14.235163 
  920600    270.11093     59210870            0     59211922     12.68332    22.410353    14.188191    19.734418    33.265662    9.5359188    12.612127     22.30075    14.235163 
  920800     213.6214     59210175            0     59211006    12.683348    22.410347    14.188155    19.737269     33.26503    9.5323162    12.612127     22.30075    14.235163 
  921000    155.04456     59211752            0     59212355    12.683356    22.410393    14.188174    19.738096    33.269683    9.5342912    12.612127     22.30075    14.235163 
  921200      153.771     59210638            0     59211237    12.683322    22.410325    14.188037    19.734613    33.262877    9.5205538    12.612127     22.30075    14.235163 
  921400    287.59457     59210325            0     59211445    12.683293    22.410369    14.188062    19.731789    33.267246    9.5229924    12.612127     22.30075    14.235163 
  921600    181.57008     59211792            0     59212499    12.683299    22.410383    14.187816    19.732302     33.26861    9.4984558    12.612127     22.30075    14.235163 
  921800    254.08248     59210669            0     59211659    12.683322    22.410353    14.188053     19.73461    33.265637    9.5221244    12.612127     22.30075    14.235163 
  922000    216.06035     59211324            0     59212165    12.683299    22.410338    14.188264    19.732396    33.264185    9.5432918    12.612127     22.30075    14.235163 
  922200    214.47995     59211170            0     59212005    12.683317     22.41036    14.188185    19.734134    33.266354    9.5353396    12.612127     22.30075    14.235163 
  922400    150.27254     59211042            0     59211627    12.683286    22.410365     14.18799    19.731065    33.266879    9.5158588    12.612127     22.30075    14.235163 
  922600    267.46438     59210369            0     59211410    12.683324    22.410367    14.188251    19.734876    33.267075    9.5419197    12.612127     22.30075    14.235163 
  922800    237.46568     59210024            0     59210948    12.683316    22.410354    14.188037    19.734017    33.265776    9.5205845    12.612127     22.30075    14.235163 
  923000    173.92022     59210653            0     59211330    12.683305    22.410368    14.188112    19.732909    33.267206    9.5279948    12.612127     22.30075    14.235163 
  923200     235.5815     59210844            0     59211761    12.683285    22.410359    14.188003     19.73098    33.266245    9.5171734    12.612127     22.30075    14.235163 
  923400    241.53711     59210546            0     59211486    12.683303    22.410371    14.188093    19.732702    33.267483    9.5261586    12.612127     22.30075    14.235163 
  923600    308.09097     59211347            0     59212547    12.683293    22.410352    14.188029    19.731741    33.265587    9.5197622    12.612127     22.30075    14.235163 
  923800    167.13929     59210378            0     59211029    12.683318    22.410341    14.188203    19.734297    33.264504    9.5371105    12.612127     22.30075    14.235163 
  924000    137.56486     59210637            0     59211173    12.683321    22.410331    14.188258    19.734539    33.263453    9.5426171    12.612127     22.30075    14.235163 
  924200    148.88642     59210176            0     59210756    12.683314    22.410342    14.188105    19.733866     33.26459    9.5273315    12.612127     22.30075    14.235163 
  924400    168.52452     59210407            0     59211063    12.683307     22.41037    14.188171    19.733098    33.267397    9.5339451    12.612127     22.30075    14.235163 
  924600    187.14373     59209926            0     59210654    12.683334    22.410352    14.188198    19.735839    33.265539    9.5366189    12.612127     22.30075    14.235163 
  924800    160.78784     59210905            0     59211530    12.683291    22.410359     14.18826    19.731563     33.26621    9.5428155    12.612127     22.30075    14.235163 
  925000    127.87628     59211171            0     59211669    12.683313    22.410352    14.188196    19.733744    33.265585    9.5364389    12.612127     22.30075    14.235163 
  925200    292.79481     59211372            0     59212512    12.683308    22.410354    14.188088    19.733293    33.265792    9.5256272    12.612127     22.30075    14.235163 
  925400    229.10383     59210670            0     59211562    12.683276    22.410375    14.188003    19.730071    33.267882    9.5170901    12.612127     22.30075    14.235163 
  925600      389.127     59211278            0     59212793    12.683306    22.410354    14.188012    19.733014    33.265738    9.5180053    12.612127     22.30075    14.235163 
  925800    159.59123     59210670            0     59211291    12.683285    22.410369     14.18807    19.730901    33.267267    9.5238637    12.612127     22.30075    14.235163 
  926000    99.282251     59211762            0     59212149    12.683315    22.410349    14.188158    19.733953    33.265291    9.5326521    12.612127     22.30075    14.235163 
  926200    93.682053     59210794            0     59211159     12.68331    22.410354    14.188022    19.733407     33.26572    9.5190111    12.612127     22.30075    14.235163 
  926400    144.71227     59211513            0     59212076    12.683316    22.410353    14.188247    19.734042    33.265699    9.5415926    12.612127     22.30075    14.235163 
  926600    292.84931     59210177            0     59211317    12.683304     22.41033    14.188165    19.732844    33.263315    9.5333353    12.612127     22.30075    14.235163 
  926800    124.78217     59209964            0     59210450    12.683323    22.410353    14.188054    19.734785    33.265638    9.5222763    12.612127     22.30075    14.235163 
  927000      296.279     59211157            0     59212310    12.683321    22.410337    14.188348    19.734522    33.264068    9.5516072    12.612127     22.30075    14.235163 
  927200    313.99765     59210447            0     59211669    12.683337     22.41035    14.188133    19.736128    33.265366    9.5301695    12.612127     22.30075    14.235163 
  927400    195.14848     59210719            0     59211479    12.683315    22.410353    14.188181    19.733971    33.265692    9.5349144    12.612127     22.30075    14.235163 
  927600    176.83742     59211040            0     59211728    12.683257    22.410375    14.188058    19.728114    33.267825    9.5226792    12.612127     22.30075    14.235163 
  927800    210.27635     59209828            0     59210647     12.68333    22.410341    14.188036    19.735472     33.26442    9.5203917    12.612127     22.30075    14.235163 
  928000    153.61445     59210751            0     59211349    12.683327    22.410346    14.188161    19.735184    33.264984    9.5329372    12.612127     22.30075    14.235163 
  928200    290.81107     59210818            0     59211950    12.683322    22.410362    14.187968     19.73462    33.266562    9.5136331    12.612127     22.30075    14.235163 
  928400    198.34421     59211477            0     59212249    12.683322    22.410346    14.188089    19.734631    33.264915     9.525774    12.612127     22.30075    14.235163 
  928600    292.47135     59210633            0     59211771    12.683316    22.410353    14.188143    19.734018    33.265705    9.5311725    12.612127     22.30075    14.235163 
  928800    178.38196     59210468            0     59211163    12.683329    22.410362    14.187994    19.735315    33.266564    9.5161932    12.612127     22.30075    14.235163 
  929000    167.33315     59211166            0     59211817    12.683307    22.410345    14.188302    19.733161    33.264864    9.5470462    12.612127     22.30075    14.235163 
  929200     273.4923     59211729            0     59212794    12.683299    22.410354    14.188161    19.732333     33.26575    9.5328983    12.612127     22.30075    14.235163 
  929400    272.71471     59211389            0     59212451    12.683332     22.41034    14.187865    19.735679     33.26439    9.5033069    12.612127     22.30075    14.235163 
  929600    133.92382     59211083            0     59211604    12.683301    22.410372    14.188008    19.732519    33.267527    9.5176487    12.612127     22.30075    14.235163 
  929800    160.16556     59210733            0     59211356    12.683289    22.410361    14.188041    19.731305    33.266425    9.5208981    12.612127     22.30075    14.235163 
  930000    209.11842     59210438            0     59211252    12.683313    22.410354    14.188106    19.733711    33.265757    9.5274765    12.612127     22.30075    14.235163 
  930200    223.88812     59210750            0     59211621    12.683315    22.410354    14.188082    19.733924    33.265791    9.5250313    12.612127     22.30075    14.235163 
  930400    120.32527     59211319            0     59211787    12.683307    22.410352    14.187945    19.733163    33.265542     9.511345    12.612127     22.30075    14.235163 
  930600    132.69897     59210443            0     59210960    12.683316    22.410353    14.188322     19.73402    33.265684     9.549014    12.612127     22.30075    14.235163 
  930800     199.8276     59210287            0     59211065    12.683316    22.410353    14.188365    19.734013    33.265686    9.5533224    12.612127     22.30075    14.235163 
  931000    285.34527     59210532            0     59211643    12.683301    22.410355    14.188214    19.732518    33.265828    9.5382577    12.612127     22.30075    14.235163 
  931200    161.85287     59210361            0     59210991    12.683334    22.410345    14.188193     19.73586    33.264884    9.5361204    12.612127     22.30075    14.235163 
  931400    344.78032     59211233            0     59212575    12.683286    22.410326    14.188191    19.731059    33.262969    9.5359824    12.612127     22.30075    14.235163 
  931600    145.67002     59211479            0     59212046     12.68332    22.410374     14.18814     19.73447    33.267799    9.5307983    12.612127     22.30075    14.235163 
  931800    182.03602     59210908            0     59211617    12.683309    22.410344    14.188142    19.733316    33.264751    9.5310868    12.612127     22.30075    14.235163 
  932000    222.41022     59211475            0     59212341    12.683344    22.410351    14.188165     19.73686    33.265497    9.5333586    12.612127     22.30075    14.235163 
  932200     504.5798     59210943            0     59212907    12.683317    22.410334    14.187886    19.734176    33.263758    9.5054493    12.612127     22.30075    14.235163 
  932400    148.51135     59210967            0     59211545    12.683295    22.410321    14.188129    19.731925    33.262491    9.5297554    12.612127     22.30075    14.235163 
  932600    139.02202     59211368            0     59211909    12.683336    22.410375    14.188008    19.736095    33.267871    9.5176818    12.612127     22.30075    14.235163 
  932800    254.82534     59211395            0     59212387    12.683316    22.410352    14.188134    19.734009    33.265566    9.5302927    12.612127     22.30075    14.235163 
  933000    253.61366     59211161            0     59212148    12.683316    22.410305    14.188293    19.734027    33.260827    9.5461151    12.612127     22.30075    14.235163 
  933200    209.74547     59211122            0     59211939    12.683331    22.410393    14.188117    19.735547    33.269616    9.5285077    12.612127     22.30075    14.235163 
  933400    206.78598     59210390            0     59211195    12.683303    22.410356    14.188058    19.732744    33.265943    9.5226855    12.612127     22.30075    14.235163 
  933600    196.46659     59211217            0     59211982    12.683316    22.410353    14.188218    19.734008    33.265689    9.5386671    12.612127     22.30075    14.235163 
  933800     196.6049     59211062            0     59211827    12.683332    22.410352    14.188217    19.735626     33.26552    9.5385609    12.612127     22.30075    14.235163 
  934000    290.39576     59210668            0     59211798    12.683329    22.410352    14.188135    19.735397    33.265602    9.5303767    12.612127     22.30075    14.235163 
  934200    253.64672     59211339            0     59212327    12.683318    22.410353    14.188246    19.734244    33.265636    9.5414228    12.612127     22.30075    14.235163 
  934400    205.03024     59211058            0     59211857    12.683319    22.410353    14.188071    19.734335    33.265666    9.5239464    12.612127     22.30075    14.235163 
  934600    144.63337     59210395            0     59210958    12.683324    22.410391    14.188166    19.734886    33.269424    9.5334467    12.612127     22.30075    14.235163 
  934800    208.30786     59210883            0     59211694     12.68333    22.410376    14.187906    19.735479    33.267916    9.5074408    12.612127     22.30075    14.235163 
  935000    255.58213     59210038            0     59211033     12.68332    22.410353     14.18817     19.73444    33.265663    9.5337971    12.612127     22.30075    14.235163 
  935200    236.10188     59210722            0     59211642    12.683318    22.410355    14.188372    19.734211    33.265896    9.5540311    12.612127     22.30075    14.235163 
  935400    311.55439     59211214            0     59212427    12.683315    22.410353    14.188104    19.733952    33.265689     9.527194    12.612127     22.30075    14.235163 
  935600    109.42377     59211710            0     59212136     12.68331    22.410345    14.188242    19.733474    33.264854    9.5410048    12.612127     22.30075    14.235163 
  935800    170.11084     59211128            0     59211790    12.683326    22.410333    14.188277    19.735033    33.263673    9.5445477    12.612127     22.30075    14.235163 
  936000    247.99827     59211335            0     59212301    12.683264    22.410356    14.188134     19.72889    33.265968    9.5302752    12.612127     22.30075    14.235163 
  936200    179.98013     59210840            0     59211540    12.683317    22.410356    14.188284    19.734098    33.266008     9.545265    12.612127     22.30075    14.235163 
  936400    175.10029     59210882            0     59211564      12.6833    22.410364    14.188062    19.732447    33.266796    9.5229958    12.612127     22.30075    14.235163 
  936600    321.56888     59210665            0     59211917    12.683326    22.410353    14.188127    19.735016    33.265628    9.5295523    12.612127     22.30075    14.235163 
  936800    209.19512     59210420            0     59211235    12.683302    22.410338    14.187964    19.732601    33.264195    9.5132795    12.612127     22.30075    14.235163 
  937000    293.80054     59210752            0     59211896    12.683329    22.410353    14.188207    19.735378    33.265611    9.5375696    12.612127     22.30075    14.235163 
  937200    127.91544     59211055            0     59211553    12.683322    22.410354    14.187937    19.734651    33.265762    9.5105134    12.612127     22.30075    14.235163 
  937400    181.12064     59212114            0     59212819    12.683315    22.410354    14.188099    19.733992     33.26573    9.5267548    12.612127     22.30075    14.235163 
  937600    258.65681     59211095            0     59212102    12.683315    22.410354    14.187995    19.733994     33.26573    9.5163278    12.612127     22.30075    14.235163 
  937800    239.74703     59211861            0     59212794    12.683316    22.410352     14.18822    19.734059    33.265598     9.538856    12.612127     22.30075    14.235163 
  938000    153.16234     59210801            0     59211398    12.683311    22.410351    14.188008    19.733555     33.26545    9.5176344    12.612127     22.30075    14.235163 
  938200    210.78235     59210927            0     59211748    12.683325    22.410353    14.188255    19.734968    33.265633    9.5423452    12.612127     22.30075    14.235163 
  938400    191.55004     59210942            0     59211688    12.683325    22.410344    14.188009    19.734975    33.264727    9.5177569    12.612127     22.30075    14.235163 
  938600    270.42741     59210649            0     59211702     12.68332     22.41035    14.188236    19.734477    33.265372    9.5404827    12.612127     22.30075    14.235163 
  938800    286.27448     59210277            0     59211392    12.683309    22.410357     14.18815    19.733364    33.266102    9.5318853    12.612127     22.30075    14.235163 
  939000    194.09247     59210543            0     59211299      12.6833    22.410354     14.18821    19.732398    33.265776     9.537839    12.612127     22.30075    14.235163 
  939200    110.22019     59210965            0     59211394    12.683322    22.410353    14.188015    19.734693    33.265666    9.5183106    12.612127     22.30075    14.235163 
  939400    106.46542     59210896            0     59211311    12.683326    22.410351    14.188173    19.735036    33.265416    9.5341663    12.612127     22.30075    14.235163 
  939600    154.46082     59211703            0     59212304    12.683316    22.410353    14.187822    19.734015    33.265687    9.4990661    12.612127     22.30075    14.235163 
  939800    123.56942     59210996            0     59211478    12.683318    22.410349    14.188134    19.734252    33.265215     9.530218    12.612127     22.30075    14.235163 
  940000    196.09256     59210475            0     59211239    12.683308    22.410347    14.188136    19.733277     33.26507     9.530419    12.612127     22.30075    14.235163 
  940200    89.240703     59211614            0     59211961    12.683344    22.410352    14.188054     19.73689    33.265527    9.5222468    12.612127     22.30075    14.235163 
  940400    170.81833     59211544            0     59212209    12.683322     22.41034    14.187853    19.734672    33.264386    9.5021259    12.612127     22.30075    14.235163 
  940600    50.982854     59210461            0     59210660    12.683344    22.410352    14.188068    19.736861    33.265529    9.5236225    12.612127     22.30075    14.235163 
  940800    153.98832     59211086            0     59211685    12.683293    22.410373    14.188224    19.731723    33.267642    9.5392787    12.612127     22.30075    14.235163 
  941000     305.2393     59210234            0     59211422    12.683352    22.410312    14.188029     19.73767    33.261573    9.5197304    12.612127     22.30075    14.235163 
  941200    96.564611     59211746            0     59212122    12.683315    22.410354    14.188222    19.733909    33.265775    9.5390013    12.612127     22.30075    14.235163 
  941400    372.86837     59210973            0     59212425    12.683316    22.410353    14.187921    19.734028    33.265687     9.508892    12.612127     22.30075    14.235163 
  941600    253.57391     59211006            0     59211993    12.683309    22.410355    14.188085    19.733368     33.26584    9.5252935    12.612127     22.30075    14.235163 
  941800    166.04156     59210142            0     59210789    12.683286    22.410366    14.188067    19.731022    33.266997    9.5235386    12.612127     22.30075    14.235163 
  942000    261.70629     59211006            0     59212025    12.683316    22.410353    14.188226    19.734034    33.265675    9.5394592    12.612127     22.30075    14.235163 
  942200    137.27198     59210942            0     59211476    12.683313     22.41034     14.18793    19.733766    33.264345    9.5098375    12.612127     22.30075    14.235163 
  942400     113.2411     59210897            0     59211338    12.683316    22.410353    14.188065     19.73409    33.265689    9.5233105    12.612127     22.30075    14.235163 
  942600    121.98726     59211093            0     59211568    12.683308    22.410373    14.188198    19.733237    33.267645    9.5366646    12.612127     22.30075    14.235163 
  942800    139.65473     59210988            0     59211532    12.683346    22.410355    14.188038     19.73704    33.265843    9.5206393    12.612127     22.30075    14.235163 
  943000    327.53618     59210573            0     59211848    12.683312    22.410347    14.188232    19.733623     33.26509    9.5400484    12.612127     22.30075    14.235163 
  943200    253.11778     59211085            0     59212071    12.683312    22.410341    14.188107    19.733662     33.26447    9.5275717    12.612127     22.30075    14.235163 
  943400    186.75531     59211829            0     59212556    12.683336    22.410346     14.18822    19.736043    33.264915    9.5388322    12.612127     22.30075    14.235163 
  943600     289.3836     59210840            0     59211967    12.683327     22.41033    14.188163    19.735165    33.263347    9.5331013    12.612127     22.30075    14.235163 
  943800    235.93094     59209956            0     59210874    12.683328    22.410353    14.188112    19.735216     33.26562    9.5280343    12.612127     22.30075    14.235163 
  944000    136.17027     59210768            0     59211298    12.683304    22.410342    14.188125    19.732819    33.264576    9.5293144    12.612127     22.30075    14.235163 
  944200     229.7409     59212195            0     59213089    12.683305    22.410361    14.188065    19.732989     33.26643     9.523384    12.612127     22.30075    14.235163 
  944400    118.61505     59210775            0     59211237    12.683329    22.410356    14.188107    19.735339    33.265949    9.5275113    12.612127     22.30075    14.235163 
  944600    431.12608     59211616            0     59213294    12.683318     22.41035    14.188187    19.734285    33.265391    9.5355217    12.612127     22.30075    14.235163 
  944800    361.88605     59210575            0     59211984    12.683316    22.410354    14.188261    19.734044    33.265733    9.5429242    12.612127     22.30075    14.235163 
  945000    148.66694     59210950            0     59211529    12.683317    22.410351    14.187988    19.734146     33.26542    9.5156249    12.612127     22.30075    14.235163 
  945200    212.22191     59211045            0     59211872    12.683315    22.410356    14.187893    19.733916    33.265956    9.5061692    12.612127     22.30075    14.235163 
  945400    242.26414     59210947            0     59211890    12.683326    22.410352    14.188001    19.735041    33.265605    9.5169786    12.612127     22.30075    14.235163 
  945600    215.44622     59210529            0     59211367    12.683308    22.410359    14.188184    19.733209    33.266257    9.5352684    12.612127     22.30075    14.235163 
  945800    195.72647     59210664            0     59211426    12.683296    22.410338    14.188031    19.732002    33.264159    9.5198931    12.612127     22.30075    14.235163 
  946000    178.57919     59210738            0     59211433    12.683316    22.410353    14.188198    19.734013    33.265686    9.5366534    12.612127     22.30075    14.235163 
  946200    216.35294     59211663            0     59212506    12.683325    22.410333     14.18826    19.734981     33.26362     9.542885    12.612127     22.30075    14.235163 
  946400    231.26948     59211575            0     59212475    12.683316    22.410353    14.188022    19.734015    33.265687    9.5190625    12.612127     22.30075    14.235163 
  946600    133.62798     59210523            0     59211043    12.683299    22.410387    14.188014    19.732374    33.269017     9.518232    12.612127     22.30075    14.235163 
  946800    317.57921     59210788            0     59212024    12.683316    22.410353    14.188257    19.734014    33.265687     9.542573    12.612127     22.30075    14.235163 
  947000    300.37897     59210844            0     59212013     12.68331    22.410369     14.18805     19.73344    33.267252    9.5218872    12.612127     22.30075    14.235163 
  947200    132.19522     59209944            0     59210459    12.683317     22.41035    14.188151    19.734187    33.265372    9.5319014    12.612127     22.30075    14.235163 
  947400    200.47996     59211012            0     59211792    12.683318    22.410349     14.18832     19.73421    33.265245    9.5488445    12.612127     22.30075    14.235163 
  947600    106.95176     59211466            0     59211882    12.683319     22.41037    14.188134      19.7343    33.267369    9.5302136    12.612127     22.30075    14.235163 
  947800    160.76827     59211100            0     59211725    12.683354    22.410376    14.188206     19.73786    33.267931    9.5374438    12.612127     22.30075    14.235163 
  948000    271.03276     59210560            0     59211615    12.683316    22.410353    14.188098    19.734014    33.265686    9.5266576    12.612127     22.30075    14.235163 
  948200    145.89114     59210971            0     59211539      12.6833    22.410366    14.187999    19.732469    33.266972    9.5166945    12.612127     22.30075    14.235163 
  948400    261.01752     59210542            0     59211558    12.683317     22.41035     14.18813    19.734173     33.26537    9.5298427    12.612127     22.30075    14.235163 
  948600    193.85693     59210826            0     59211581    12.683315    22.410353    14.188124    19.733907    33.265692    9.5292241    12.612127     22.30075    14.235163 
  948800    96.797325     59211121            0     59211498    12.683329    22.410354    14.188139    19.735384    33.265732    9.5307911    12.612127     22.30075    14.235163 
  949000    218.29379     59210519            0     59211369    12.683278    22.410355    14.188222    19.730238    33.265894    9.5390097    12.612127     22.30075    14.235163 
  949200    134.24482     59211413            0     59211936    12.683316    22.410353     14.18816    19.734015    33.265686    9.5328148    12.612127     22.30075    14.235163 
  949400    231.25482     59210958            0     59211859      12.6833    22.410351    14.188257    19.732463    33.265419    9.5425163    12.612127     22.30075    14.235163 
  949600    119.90025     59210135            0     59210602    12.683331    22.410337    14.188199     19.73553    33.264104    9.5367779    12.612127     22.30075    14.235163 
  949800    234.58499     59211176            0     59212089    12.683308    22.410368    14.187979    19.733255    33.267147    9.5147566    12.612127     22.30075    14.235163 
  950000    115.66208     59210970            0     59211420    12.683325    22.410373    14.187974    19.734914     33.26764    9.5142354    12.612127     22.30075    14.235163 
  950200    142.58503     59211630            0     59212185     12.68332    22.410344    14.188348     19.73446     33.26478    9.5516197    12.612127     22.30075    14.235163 
  950400    156.93928     59210272            0     59210883    12.683301    22.410358    14.188173    19.732519    33.266153    9.5341584    12.612127     22.30075    14.235163 
  950600    136.20389     59211322            0     59211852    12.683308    22.410367     14.18813    19.733205    33.267095    9.5298339    12.612127     22.30075    14.235163 
  950800    143.06713     59211488            0     59212045     12.68332    22.410349    14.187891    19.734469    33.265302    9.5059139    12.612127     22.30075    14.235163 
  951000    126.32521     59210093            0     59210585    12.683326    22.410351    14.188044    19.735097     33.26543    9.5212858    12.612127     22.30075    14.235163 
  951200    148.53654     59210556            0     59211135    12.683313    22.410349    14.187959    19.733721    33.265229    9.5126946    12.612127     22.30075    14.235163 
  951400    192.52637     59210585            0     59211335    12.683325    22.410373    14.187972    19.734964    33.267692     9.514022    12.612127     22.30075    14.235163 
  951600    245.66857     59211273            0     59212229    12.683318    22.410336    14.188272    19.734204    33.263922     9.544014    12.612127     22.30075    14.235163 
  951800    317.37275     59210528            0     59211764    12.683316    22.410353    14.187939    19.734014    33.265687    9.5106944    12.612127     22.30075    14.235163 
  952000    161.29574     59210580            0     59211208     12.68332    22.410352     14.18817    19.734429    33.265544    9.5338065    12.612127     22.30075    14.235163 
  952200    98.583024     59210458            0     59210841    12.683293    22.410367    14.188083    19.731747    33.267034    9.5251117    12.612127     22.30075    14.235163 
  952400    132.85681     59211126            0     59211643    12.683299    22.410354    14.188018    19.732362    33.265778    9.5186768    12.612127     22.30075    14.235163 
  952600    232.81606     59211150            0     59212056    12.683317    22.410364    14.188155    19.734126    33.266746    9.5323891    12.612127     22.30075    14.235163 
  952800    245.24968     59211394            0     59212348    12.683268    22.410319    14.188203    19.729288    33.262254    9.5371688    12.612127     22.30075    14.235163 
  953000     264.2748     59210863            0     59211892    12.683315    22.410348    14.188155    19.733922    33.265175    9.5323365    12.612127     22.30075    14.235163 
  953200    328.73696     59211136            0     59212416    12.683332    22.410321    14.187951    19.735622    33.262496    9.5119679    12.612127     22.30075    14.235163 
  953400    192.89983     59211614            0     59212365    12.683307    22.410335    14.188236    19.733101    33.263894    9.5404976    12.612127     22.30075    14.235163 
  953600    143.15446     59210377            0     59210934    12.683308    22.410368    14.188006    19.733253      33.2672    9.5174174    12.612127     22.30075    14.235163 
  953800    141.10822     59210739            0     59211288    12.683316    22.410361    14.188036    19.734072     33.26643    9.5204622    12.612127     22.30075    14.235163 
  954000     101.8331     59210602            0     59210998    12.683323    22.410366    14.188085    19.734743    33.266934    9.5253241    12.612127     22.30075    14.235163 
  954200    162.29917     59210901            0     59211533    12.683333    22.410352    14.188133     19.73577     33.26559     9.530179    12.612127     22.30075    14.235163 
  954400    332.06307     59210675            0     59211968    12.683316    22.410353    14.188021    19.734028      33.2657    9.5189535    12.612127     22.30075    14.235163 
  954600    215.07372     59210653            0     59211490    12.683277    22.410333    14.188168    19.730111     33.26369     9.533669    12.612127     22.30075    14.235163 
  954800      218.819     59211179            0     59212031    12.683333    22.410331    14.187953    19.735754    33.263491    9.5121315    12.612127     22.30075    14.235163 
  955000    82.765584     59210373            0     59210695    12.683288    22.410335    14.188121    19.731237    33.263849    9.5289562    12.612127     22.30075    14.235163 
  955200    213.70575     59211193            0     59212025    12.683352    22.410366    14.188159    19.737635    33.266918    9.5327397    12.612127     22.30075    14.235163 
  955400    98.689402     59210449            0     59210833    12.683305    22.410338    14.188188    19.732991    33.264123    9.5356517    12.612127     22.30075    14.235163 
  955600     256.9754     59210599            0     59211600    12.683305    22.410352    14.188114    19.732986    33.265596    9.5282786    12.612127     22.30075    14.235163 
  955800    145.29167     59212045            0     59212611    12.683342    22.410377    14.188203    19.736634    33.268077    9.5371497    12.612127     22.30075    14.235163 
  956000    82.241723     59210445            0     59210765    12.683319    22.410375    14.188044    19.734356    33.267884    9.5212434    12.612127     22.30075    14.235163 
  956200    248.80611     59211873            0     59212841     12.68334    22.410323    14.188308    19.736426    33.262653    9.5476939    12.612127     22.30075    14.235163 
  956400    169.54014     59210677            0     59211337    12.683327    22.410353    14.188304    19.735116    33.265636    9.5472919    12.612127     22.30075    14.235163 
  956600    156.58159     59210588            0     59211198    12.683279    22.410365    14.188139    19.730374    33.266847    9.5307787    12.612127     22.30075    14.235163 
  956800    291.27335     59210012            0     59211146    12.683344    22.410338     14.18822    19.736843    33.264185    9.5388088    12.612127     22.30075    14.235163 
  957000     80.07677     59211128            0     59211440    12.683345    22.410375    14.188196    19.736912    33.267908      9.53647    12.612127     22.30075    14.235163 
  957200    150.20409     59210452            0     59211037    12.683306    22.410325    14.187984    19.733009    33.262878    9.5152625    12.612127     22.30075    14.235163 
  957400    264.73423     59210361            0     59211391    12.683315    22.410354    14.188135     19.73397    33.265717    9.5302991    12.612127     22.30075    14.235163 
  957600    173.08739     59210897            0     59211570    12.683309    22.410366    14.188031    19.733313    33.266973    9.5199745    12.612127     22.30075    14.235163 
  957800    125.27464     59210182            0     59210669    12.683317    22.410353    14.188051    19.734105    33.265681    9.5219577    12.612127     22.30075    14.235163 
  958000    223.51589     59211174            0     59212044    12.683323    22.410343    14.188068    19.734752    33.264633    9.5236221    12.612127     22.30075    14.235163 
  958200    283.69719     59210661            0     59211766    12.683351    22.410351    14.188279    19.737549    33.265492    9.5447521    12.612127     22.30075    14.235163 
  958400    111.39222     59210567            0     59211001    12.683288    22.410383    14.188226    19.731252    33.268688    9.5394267    12.612127     22.30075    14.235163 
  958600     346.4286     59209571            0     59210920    12.683314    22.410356    14.188151     19.73386    33.265981    9.5319555    12.612127     22.30075    14.235163 
  958800    236.95827     59211431            0     59212353    12.683318    22.410374    14.188001    19.734233    33.267727    9.5169018    12.612127     22.30075    14.235163 
  959000      265.355     59211374            0     59212407    12.683317    22.410351    14.188247    19.734157    33.265434    9.5415664    12.612127     22.30075    14.235163 
  959200    192.37913     59210459            0     59211208    12.683314    22.410353    14.188227    19.733859    33.265692    9.5395753    12.612127     22.30075    14.235163 
  959400    102.80803     59211586            0     59211986    12.683316    22.410353    14.187934    19.734014    33.265686    9.5102633    12.612127     22.30075    14.235163 
  959600    242.73689     59209673            0     59210618    12.683319    22.410344    14.188089    19.734315    33.264807    9.5257718    12.612127     22.30075    14.235163 
  959800    250.87782     59211548            0     59212524    12.683316    22.410353    14.188046    19.734014    33.265686    9.5213962    12.612127     22.30075    14.235163 
  960000    96.517157     59210326            0     59210702    12.683316    22.410353    14.188183    19.734013    33.265688    9.5351263    12.612127     22.30075    14.235163 
  960200    308.20861     59210179            0     59211378    12.683323    22.410364    14.188052    19.734723    33.266766    9.5219935    12.612127     22.30075    14.235163 
  960400    228.66413     59211033            0     59211923    12.683305    22.410375    14.188301    19.732949    33.267816    9.5469331    12.612127     22.30075    14.235163 
  960600    198.21533     59210628            0     59211399    12.683315    22.410353    14.188148     19.73395    33.265697    9.5316858    12.612127     22.30075    14.235163 
  960800    161.69819     59210677            0     59211306    12.683314    22.410361    14.188272    19.733866     33.26643    9.5440232    12.612127     22.30075    14.235163 
  961000    192.39637     59210306            0     59211055    12.683304     22.41033    14.187945    19.732817    33.263329    9.5112987    12.612127     22.30075    14.235163 
  961200    197.88342     59210832            0     59211602    12.683331    22.410353     14.18823    19.735502    33.265689    9.5398441    12.612127     22.30075    14.235163 
  961400    389.55528     59211098            0     59212615    12.683315    22.410354    14.188295    19.733984    33.265747    9.5463975    12.612127     22.30075    14.235163 
  961600    211.19002     59210936            0     59211759     12.68332    22.410347    14.187894    19.734494     33.26505    9.5062148    12.612127     22.30075    14.235163 
  961800    260.30261     59209619            0     59210632    12.683316    22.410353    14.188046    19.734018    33.265694    9.5214072    12.612127     22.30075    14.235163 
  962000    281.40474     59210744            0     59211840    12.683301    22.410354    14.188106    19.732594    33.265766    9.5274733    12.612127     22.30075    14.235163 
  962200     229.0577     59210991            0     59211883    12.683328    22.410353    14.188096    19.735211    33.265622    9.5264305    12.612127     22.30075    14.235163 
  962400    220.01077     59211128            0     59211985     12.68332    22.410376    14.188016    19.734427    33.267986    9.5184387    12.612127     22.30075    14.235163 
  962600    238.29675     59210509            0     59211436    12.683326    22.410333    14.188201    19.735016    33.263702    9.5369083    12.612127     22.30075    14.235163 
  962800    200.00479     59211500            0     59212278     12.68332    22.410353    14.188099    19.734495    33.265659    9.5267309    12.612127     22.30075    14.235163 
  963000     181.7737     59209932            0     59210640    12.683325    22.410388    14.188137    19.734962    33.269166    9.5305099    12.612127     22.30075    14.235163 
  963200    141.68514     59211264            0     59211816    12.683316    22.410353    14.188032    19.734013    33.265686    9.5200266    12.612127     22.30075    14.235163 
  963400    141.62578     59211549            0     59212101    12.683316    22.410353    14.188179    19.734014    33.265687    9.5347675    12.612127     22.30075    14.235163 
  963600    165.61321     59211246            0     59211890    12.683303    22.410334    14.188325    19.732775     33.26379    9.5493384    12.612127     22.30075    14.235163 
  963800     268.1742     59210819            0     59211863    12.683338    22.410328    14.188006    19.736211    33.263186    9.5174382    12.612127     22.30075    14.235163 
  964000      188.059     59210259            0     59210991    12.683291    22.410355    14.188155    19.731569    33.265818    9.5323556    12.612127     22.30075    14.235163 
  964200    135.17923     59211134            0     59211660    12.683265    22.410324    14.188184    19.728939    33.262727    9.5352844    12.612127     22.30075    14.235163 
  964400    144.97928     59210820            0     59211384     12.68329    22.410336    14.188104    19.731433    33.263909    9.5272371    12.612127     22.30075    14.235163 
  964600    210.06876     59210802            0     59211620     12.68329    22.410327    14.188021    19.731487    33.263089    9.5189832    12.612127     22.30075    14.235163 
  964800    219.46932     59211466            0     59212321    12.683338    22.410361    14.188179    19.736212    33.266479    9.5347005    12.612127     22.30075    14.235163 
  965000    369.48118     59209857            0     59211295    12.683316    22.410353    14.187987     19.73404     33.26562    9.5155483    12.612127     22.30075    14.235163 
  965200    129.66039     59212243            0     59212748    12.683278    22.410351    14.188006    19.730247    33.265421    9.5174483    12.612127     22.30075    14.235163 
  965400    180.73085     59210634            0     59211338    12.683315    22.410353    14.188182    19.733996    33.265658    9.5350778    12.612127     22.30075    14.235163 
  965600    207.56358     59210431            0     59211239    12.683329    22.410342    14.188167    19.735344    33.264567    9.5335659    12.612127     22.30075    14.235163 
  965800    318.45644     59211018            0     59212258    12.683316    22.410349    14.188254    19.734078    33.265247    9.5422387    12.612127     22.30075    14.235163 
  966000    230.10743     59211061            0     59211957    12.683332    22.410343    14.188107    19.735695     33.26469    9.5275272    12.612127     22.30075    14.235163 
  966200    107.16564     59210674            0     59211091    12.683328    22.410348    14.188325    19.735277    33.265152    9.5493447    12.612127     22.30075    14.235163 
  966400    148.43133     59211007            0     59211585    12.683337    22.410352    14.188239    19.736155    33.265574    9.5407518    12.612127     22.30075    14.235163 
  966600    320.05846     59210862            0     59212108    12.683342    22.410352     14.18843    19.736607    33.265532    9.5598864    12.612127     22.30075    14.235163 
  966800    296.93607     59211509            0     59212665    12.683271     22.41039     14.18825    19.729545    33.269367    9.5418312    12.612127     22.30075    14.235163 
  967000    211.53642     59210763            0     59211586    12.683333    22.410379    14.188067    19.735743    33.268307    9.5235649    12.612127     22.30075    14.235163 
  967200    164.58295     59211216            0     59211856    12.683315    22.410352    14.188021    19.733921    33.265575    9.5189794    12.612127     22.30075    14.235163 
  967400    148.96525     59210606            0     59211186    12.683309    22.410402    14.188081    19.733357    33.270561    9.5248934    12.612127     22.30075    14.235163 
  967600    131.90961     59210864            0     59211377    12.683316    22.410357    14.188309    19.734095    33.266082    9.5477696    12.612127     22.30075    14.235163 
  967800    189.46765     59210751            0     59211488    12.683316    22.410356     14.18791    19.734044    33.265959    9.5078031    12.612127     22.30075    14.235163 
  968000    169.91102     59211200            0     59211862    12.683307    22.410354    14.187931    19.733103    33.265737    9.5098953    12.612127     22.30075    14.235163 
  968200     270.1094     59210933            0     59211984    12.683322    22.410353    14.188042    19.734615    33.265651    9.5210511    12.612127     22.30075    14.235163 
  968400    279.54893     59210444            0     59211533    12.683295    22.410334    14.188282    19.731932    33.263767    9.5450737    12.612127     22.30075    14.235163 
  968600    197.01378     59211502            0     59212269    12.683316    22.410353    14.188019    19.734014    33.265686    9.5187734    12.612127     22.30075    14.235163 
  968800    94.166457     59211950            0     59212317    12.683316    22.410353    14.188151    19.734016    33.265687    9.5319333    12.612127     22.30075    14.235163 
  969000    302.60023     59210663            0     59211841    12.683289     22.41038    14.187927    19.731309    33.268384    9.5095617    12.612127     22.30075    14.235163 
  969200    290.90979     59211089            0     59212221    12.683323    22.410353    14.188046    19.734734    33.265642     9.521421    12.612127     22.30075    14.235163 
  969400    120.28069     59211602            0     59212070    12.683315    22.410352     14.18814    19.733991    33.265576    9.5308409    12.612127     22.30075    14.235163 
  969600    251.10827     59210648            0     59211626    12.683316    22.410353    14.187971    19.734018    33.265679    9.5139786    12.612127     22.30075    14.235163 
  969800    175.61013     59211335            0     59212019    12.683296    22.410364    14.188217    19.732089    33.266798    9.5385818    12.612127     22.30075    14.235163 
  970000    121.24272     59211367            0     59211839     12.68331    22.410356     14.18791    19.733447    33.265932    9.5078318    12.612127     22.30075    14.235163 
  970200    128.93873     59211709            0     59212211    12.683308    22.410368    14.187996    19.733236     33.26717    9.5164622    12.612127     22.30075    14.235163 
  970400    253.55915     59211790            0     59212778    12.683296    22.410352    14.188119    19.732045    33.265603    9.5287471    12.612127     22.30075    14.235163 
  970600    103.07555     59211483            0     59211884    12.683297    22.410352     14.18839    19.732131    33.265578    9.5558765    12.612127     22.30075    14.235163 
  970800    221.09807     59211130            0     59211991    12.683316    22.410353    14.188133    19.734081    33.265693    9.5301113    12.612127     22.30075    14.235163 
  971000    57.793062     59211862            0     59212087    12.683331    22.410314    14.188445    19.735558    33.261765    9.5613236    12.612127     22.30075    14.235163 
  971200    66.446211     59210142            0     59210401    12.683309    22.410345    14.187996    19.733312    33.264819    9.5164494    12.612127     22.30075    14.235163 
  971400    234.29423     59210587            0     59211499    12.683318    22.410379    14.188176    19.734251    33.268241     9.534425    12.612127     22.30075    14.235163 
  971600    294.47098     59210973            0     59212120    12.683316    22.410353    14.188115    19.734017    33.265688    9.5283462    12.612127     22.30075    14.235163 
  971800    65.150169     59211293            0     59211547    12.683323    22.410338    14.188317    19.734795    33.264141    9.5485225    12.612127     22.30075    14.235163 
  972000    178.28908     59211864            0     59212559    12.683304    22.410345    14.187958    19.732866    33.264861     9.512611    12.612127     22.30075    14.235163 
  972200    125.13913     59212247            0     59212735    12.683369     22.41035    14.187982    19.739346    33.265389    9.5150766    12.612127     22.30075    14.235163 
  972400    214.88946     59211236            0     59212072    12.683326    22.410385    14.188259    19.735034    33.268832    9.5427203    12.612127     22.30075    14.235163 
  972600    202.81175     59209840            0     59210630    12.683316    22.410353     14.18814    19.734067    33.265675    9.5308824    12.612127     22.30075    14.235163 
  972800     177.3921     59211058            0     59211748    12.683315    22.410336    14.188123    19.733969    33.263993     9.529105    12.612127     22.30075    14.235163 
  973000    228.49993     59212039            0     59212928    12.683302    22.410344    14.188023    19.732661    33.264728    9.5191331    12.612127     22.30075    14.235163 
  973200     176.4251     59210195            0     59210882    12.683316    22.410353    14.188267    19.734013    33.265686    9.5435598    12.612127     22.30075    14.235163 
  973400    133.24466     59210285            0     59210804    12.683332    22.410352    14.188138    19.735606    33.265558    9.5306805    12.612127     22.30075    14.235163 
  973600    325.66349     59210797            0     59212065    12.683316    22.410353    14.188147    19.734076    33.265683    9.5315442    12.612127     22.30075    14.235163 
  973800    175.93362     59211454            0     59212138    12.683334    22.410368    14.188014    19.735837    33.267208    9.5182007    12.612127     22.30075    14.235163 
  974000    100.68652     59211756            0     59212148    12.683279    22.410382    14.187828    19.730378    33.268562    9.4996249    12.612127     22.30075    14.235163 
  974200    208.90446     59210336            0     59211149    12.683302     22.41038    14.187999    19.732632    33.268376     9.516747    12.612127     22.30075    14.235163 
  974400    400.79202     59210916            0     59212476    12.683344    22.410326    14.188291    19.736879    33.262923    9.5459718    12.612127     22.30075    14.235163 
  974600    197.02633     59210382            0     59211149    12.683345    22.410351    14.188149    19.736997    33.265506    9.5317693    12.612127     22.30075    14.235163 
  974800    206.60195     59212269            0     59213073    12.683316    22.410353     14.18814    19.734004    33.265705    9.5308217    12.612127     22.30075    14.235163 
  975000    240.66934     59210853            0     59211790    12.683304    22.410357    14.188192     19.73289    33.266029    9.5360798    12.612127     22.30075    14.235163 
  975200    149.50783     59210349            0     59210931    12.683299    22.410354       14.188    19.732344    33.265752    9.5168685    12.612127     22.30075    14.235163 
  975400    191.55974     59210759            0     59211505    12.683315    22.410353    14.188037    19.733984     33.26563    9.5205575    12.612127     22.30075    14.235163 
  975600    145.27189     59211944            0     59212509    12.683302    22.410342     14.18808    19.732679    33.264563     9.524836    12.612127     22.30075    14.235163 
  975800    136.37883     59211040            0     59211571    12.683316    22.410353    14.188315     19.73402    33.265687    9.5483075    12.612127     22.30075    14.235163 
  976000    89.141248     59210519            0     59210866    12.683307    22.410323     14.18807     19.73313      33.2627    9.5238364    12.612127     22.30075    14.235163 
  976200    312.70445     59211722            0     59212939    12.683309     22.41033    14.188168    19.733395    33.263356    9.5336459    12.612127     22.30075    14.235163 
  976400    263.73863     59210606            0     59211633    12.683326    22.410353     14.18822    19.735022     33.26562    9.5388166    12.612127     22.30075    14.235163 
  976600    117.18616     59210071            0     59210527    12.683326    22.410367    14.188261       19.735    33.267045    9.5429098    12.612127     22.30075    14.235163 
  976800    293.36258     59209977            0     59211119    12.683311    22.410382    14.188154    19.733528    33.268525    9.5322343    12.612127     22.30075    14.235163 
  977000    118.03808     59210900            0     59211360    12.683334    22.410347    14.188013    19.735862    33.265077    9.5181511    12.612127     22.30075    14.235163 
  977200    122.55006     59210443            0     59210920    12.683331    22.410351    14.188101    19.735506    33.265493    9.5269921    12.612127     22.30075    14.235163 
  977400    427.18866     59210466            0     59212129    12.683329    22.410327    14.188176    19.735387    33.263016    9.5344913    12.612127     22.30075    14.235163 
  977600    182.96209     59210800            0     59211513     12.68331    22.410347    14.188151    19.733476    33.265088    9.5319208    12.612127     22.30075    14.235163 
  977800    166.12446     59211372            0     59212019    12.683324    22.410337    14.188134    19.734841    33.264059    9.5302479    12.612127     22.30075    14.235163 
  978000    153.36857     59210629            0     59211226    12.683313    22.410359    14.188085    19.733769     33.26622    9.5253221    12.612127     22.30075    14.235163 
  978200    102.13692     59210792            0     59211190    12.683312    22.410349    14.188043    19.733694    33.265208    9.5211198    12.612127     22.30075    14.235163 
  978400     253.3837     59211585            0     59212572    12.683327    22.410353    14.188271     19.73514    33.265634    9.5439769    12.612127     22.30075    14.235163 
  978600    196.93517     59210651            0     59211417    12.683314    22.410356    14.188184    19.733856    33.265956    9.5352649    12.612127     22.30075    14.235163 
  978800     389.7595     59211570            0     59213088    12.683325    22.410362    14.188291    19.734941    33.266558     9.545903    12.612127     22.30075    14.235163 
  979000    248.88109     59210759            0     59211728    12.683365    22.410339    14.188128    19.738941    33.264291    9.5296788    12.612127     22.30075    14.235163 
  979200    112.07779     59211303            0     59211739    12.683323    22.410364    14.188258    19.734719     33.26672     9.542632    12.612127     22.30075    14.235163 
  979400     169.8493     59210272            0     59210934    12.683298    22.410333    14.187997    19.732236    33.263671    9.5165318    12.612127     22.30075    14.235163 
  979600    84.526439     59210393            0     59210722     12.68335     22.41035      14.1883     19.73745    33.265374     9.546826    12.612127     22.30075    14.235163 
  979800    236.07604     59210815            0     59211734    12.683308    22.410369    14.188078    19.733227    33.267241    9.5246043    12.612127     22.30075    14.235163 
  980000    108.78384     59211491            0     59211915    12.683315    22.410338    14.188201    19.733912    33.264203    9.5369545    12.612127     22.30075    14.235163 
  980200    139.17585     59211269            0     59211811    12.683346    22.410385    14.188044     19.73708    33.268844    9.5212813    12.612127     22.30075    14.235163 
  980400    358.09164     59210786            0     59212181     12.68331    22.410352    14.188097     19.73344    33.265576    9.5265048    12.612127     22.30075    14.235163 
  980600    197.18359     59210430            0     59211197    12.683325    22.410345    14.188191    19.734927    33.264858    9.5359221    12.612127     22.30075    14.235163 
  980800    87.805205     59211102            0     59211444    12.683343     22.41029    14.188141    19.736732    33.259335    9.5309065    12.612127     22.30075    14.235163 
  981000    353.74351     59211545            0     59212922    12.683316    22.410353    14.188201    19.734007    33.265654    9.5369631    12.612127     22.30075    14.235163 
  981200      320.212     59209638            0     59210884    12.683336    22.410378    14.188133    19.736066    33.268197    9.5301142    12.612127     22.30075    14.235163 
  981400    246.47695     59210210            0     59211170    12.683327    22.410338     14.18829    19.735112    33.264133    9.5458223    12.612127     22.30075    14.235163 
  981600    182.26758     59211541            0     59212251    12.683315    22.410362    14.188089    19.733987    33.266552    9.5257527    12.612127     22.30075    14.235163 
  981800     94.06795     59210606            0     59210973    12.683304    22.410363    14.187956    19.732821    33.266625    9.5124177    12.612127     22.30075    14.235163 
  982000    173.70892     59210186            0     59210862    12.683327    22.410354    14.188099    19.735103    33.265798    9.5267131    12.612127     22.30075    14.235163 
  982200    181.49284     59211031            0     59211737    12.683332    22.410378    14.188261    19.735655    33.268198     9.542993    12.612127     22.30075    14.235163 
  982400    226.55624     59211662            0     59212544     12.68332     22.41035    14.188345    19.734439    33.265355     9.551342    12.612127     22.30075    14.235163 
  982600    213.66701     59210561            0     59211392    12.683334    22.410381    14.188256     19.73581    33.268426    9.5424518    12.612127     22.30075    14.235163 
  982800    120.25518     59210766            0     59211235     12.68332    22.410353    14.188357    19.734426    33.265639    9.5525509    12.612127     22.30075    14.235163 
  983000    146.91471     59210451            0     59211023    12.683331    22.410352    14.188266    19.735512    33.265604    9.5434485    12.612127     22.30075    14.235163 
  983200    238.45057     59210605            0     59211533    12.683318    22.410349    14.188229    19.734257    33.265269    9.5397371    12.612127     22.30075    14.235163 
  983400    385.02652     59209950            0     59211449    12.683332    22.410348    14.188004    19.735632    33.265129    9.5172423    12.612127     22.30075    14.235163 
  983600    138.85794     59210964            0     59211504    12.683339    22.410353    14.188038    19.736327    33.265648    9.5206304    12.612127     22.30075    14.235163 
  983800    121.29527     59212754            0     59213226    12.683303    22.410358     14.18817    19.732768      33.2662    9.5338842    12.612127     22.30075    14.235163 
  984000    258.15519     59210704            0     59211709    12.683329    22.410392    14.188159    19.735352    33.269609    9.5327208    12.612127     22.30075    14.235163 
  984200     253.7889     59210340            0     59211328    12.683328    22.410353    14.188236    19.735236    33.265629    9.5403995    12.612127     22.30075    14.235163 
  984400    186.81634     59211084            0     59211811    12.683319    22.410362     14.18835    19.734349    33.266583    9.5518081    12.612127     22.30075    14.235163 
  984600    224.60294     59211350            0     59212225    12.683323     22.41034    14.188113    19.734738     33.26439    9.5281504    12.612127     22.30075    14.235163 
  984800    211.91955     59211174            0     59211999    12.683335    22.410367    14.188323    19.735974     33.26704    9.5491899    12.612127     22.30075    14.235163 
  985000    82.245658     59210416            0     59210736    12.683308    22.410367    14.188169    19.733237    33.267045    9.5337181    12.612127     22.30075    14.235163 
  985200    239.48026     59211428            0     59212360    12.683312    22.410361    14.188132    19.733658    33.266468     9.530071    12.612127     22.30075    14.235163 
  985400     245.6834     59211104            0     59212060    12.683316    22.410353    14.188099    19.734016    33.265686    9.5267611    12.612127     22.30075    14.235163 
  985600    119.75824     59210686            0     59211152    12.683342    22.410352    14.188329    19.736629    33.265542    9.5497887    12.612127     22.30075    14.235163 
  985800    179.78752     59210086            0     59210786    12.683316    22.410353    14.187948    19.734014    33.265686    9.5116254    12.612127     22.30075    14.235163 
  986000    175.52605     59209964            0     59210647    12.683302    22.410327    14.187981    19.732647    33.263065    9.5148972    12.612127     22.30075    14.235163 
  986200     339.9091     59211829            0     59213152    12.683264    22.410333    14.188241    19.728847     33.26363    9.5409249    12.612127     22.30075    14.235163 
  986400    160.45131     59210796            0     59211421    12.683297    22.410336    14.187889    19.732129    33.263938    9.5057468    12.612127     22.30075    14.235163 
  986600    186.23813     59211313            0     59212038    12.683297    22.410335    14.188216    19.732138    33.263873    9.5384183    12.612127     22.30075    14.235163 
  986800    230.79195     59211082            0     59211981    12.683313    22.410359    14.188146     19.73372    33.266267    9.5314921    12.612127     22.30075    14.235163 
  987000    119.11709     59210915            0     59211379    12.683316    22.410353    14.188193    19.734014    33.265686    9.5361925    12.612127     22.30075    14.235163 
  987200    183.84097     59210469            0     59211185    12.683317    22.410362    14.188132    19.734129    33.266592    9.5300341    12.612127     22.30075    14.235163 
  987400    228.31107     59210147            0     59211036     12.68333    22.410324    14.188193    19.735477    33.262793    9.5361384    12.612127     22.30075    14.235163 
  987600    312.98168     59210833            0     59212051    12.683316    22.410354    14.188188    19.734047    33.265737    9.5356798    12.612127     22.30075    14.235163 
  987800    136.29866     59211030            0     59211561    12.683307    22.410348    14.188418    19.733149    33.265117    9.5586107    12.612127     22.30075    14.235163 
  988000    226.25068     59211204            0     59212085    12.683315    22.410352    14.187935    19.733936    33.265566    9.5102911    12.612127     22.30075    14.235163 
  988200    135.11125     59210583            0     59211109    12.683305    22.410343    14.188135    19.732977     33.26469    9.5303779    12.612127     22.30075    14.235163 
  988400    299.90215     59210244            0     59211411    12.683309    22.410351     14.18809    19.733348    33.265432    9.5258827    12.612127     22.30075    14.235163 
  988600    127.36294     59210944            0     59211439    12.683312    22.410353    14.188204    19.733665     33.26563    9.5372462    12.612127     22.30075    14.235163 
  988800    97.909186     59211439            0     59211820    12.683316    22.410353    14.187933    19.734089    33.265665    9.5101395    12.612127     22.30075    14.235163 
  989000    103.89157     59210775            0     59211179    12.683283    22.410388    14.188111    19.730785    33.269177    9.5279253    12.612127     22.30075    14.235163 
  989200    488.21089     59210921            0     59212822    12.683301    22.410354    14.188063    19.732518    33.265777    9.5231122    12.612127     22.30075    14.235163 
  989400    108.04268     59211101            0     59211522    12.683314    22.410346    14.187843      19.7338    33.264959    9.5011317    12.612127     22.30075    14.235163 
  989600    199.44768     59210617            0     59211394    12.683297    22.410355    14.188244    19.732152    33.265818    9.5412396    12.612127     22.30075    14.235163 
  989800    112.24176     59211271            0     59211707    12.683353    22.410351    14.187872    19.737738    33.265479    9.5040268    12.612127     22.30075    14.235163 
  990000    178.39959     59210767            0     59211461    12.683325    22.410376    14.187925    19.734971     33.26799    9.5093483    12.612127     22.30075    14.235163 
  990200    93.369011     59210476            0     59210840    12.683314    22.410353    14.188223    19.733847    33.265682    9.5391205    12.612127     22.30075    14.235163 
  990400    164.35274     59211504            0     59212143    12.683325    22.410368    14.187995    19.734981    33.267166    9.5163698    12.612127     22.30075    14.235163 
  990600    86.339559     59210677            0     59211013     12.68333    22.410341    14.188154    19.735449    33.264469     9.532263    12.612127     22.30075    14.235163 
  990800    314.70309     59210940            0     59212165    12.683334    22.410353    14.188235    19.735863    33.265678     9.540313    12.612127     22.30075    14.235163 
  991000    147.59039     59210942            0     59211517    12.683334    22.410333    14.188092      19.7358    33.263684    9.5260519    12.612127     22.30075    14.235163 
  991200    97.457086     59210048            0     59210427    12.683274     22.41032    14.188017    19.729815    33.262378    9.5185865    12.612127     22.30075    14.235163 
  991400    244.44978     59210122            0     59211074    12.683321    22.410359     14.18822    19.734525    33.266246    9.5388135    12.612127     22.30075    14.235163 
  991600    128.16446     59210443            0     59210942    12.683326    22.410352    14.188109     19.73507    33.265552    9.5277508    12.612127     22.30075    14.235163 
  991800    147.44143     59211750            0     59212324    12.683327    22.410366    14.188266    19.735099    33.267008    9.5434567    12.612127     22.30075    14.235163 
  992000    158.15833     59211113            0     59211728    12.683345    22.410368     14.18829    19.736917    33.267194     9.545809    12.612127     22.30075    14.235163 
  992200    208.70978     59211217            0     59212030    12.683316    22.410353    14.188056    19.734022    33.265686    9.5224406    12.612127     22.30075    14.235163 
  992400    289.30456     59209867            0     59210993    12.683293    22.410354    14.188239    19.731754    33.265763    9.5407638    12.612127     22.30075    14.235163 
  992600    206.40413     59211461            0     59212264    12.683312    22.410344    14.188082    19.733649     33.26471    9.5250112    12.612127     22.30075    14.235163 
  992800    107.61064     59210778            0     59211197    12.683321    22.410339    14.187973    19.734584    33.264244    9.5141536    12.612127     22.30075    14.235163 
  993000    275.35483     59210053            0     59211125    12.683316    22.410353    14.188111    19.734014    33.265686    9.5279204    12.612127     22.30075    14.235163 
  993200    135.52927     59210307            0     59210835    12.683341    22.410367    14.188221    19.736593    33.267088     9.538961    12.612127     22.30075    14.235163 
  993400    118.75056     59210507            0     59210969    12.683343     22.41035    14.188148    19.736705    33.265346    9.5316869    12.612127     22.30075    14.235163 
  993600    154.19348     59210434            0     59211034    12.683316    22.410351    14.188138    19.734001     33.26549    9.5306736    12.612127     22.30075    14.235163 
  993800    197.06493     59210921            0     59211688    12.683301    22.410382    14.188154    19.732564    33.268546    9.5322103    12.612127     22.30075    14.235163 
  994000    145.49875     59210403            0     59210969    12.683328    22.410353    14.188099    19.735249    33.265618    9.5267894    12.612127     22.30075    14.235163 
  994200     243.9346     59211621            0     59212570    12.683319    22.410353    14.188175    19.734385    33.265618    9.5343947    12.612127     22.30075    14.235163 
  994400    189.92627     59211098            0     59211837    12.683283     22.41033    14.188078    19.730705    33.263325    9.5246082    12.612127     22.30075    14.235163 
  994600    156.14773     59210485            0     59211092    12.683376    22.410353    14.188242        19.74    33.265687    9.5410004    12.612127     22.30075    14.235163 
  994800    214.41588     59210572            0     59211407    12.683335    22.410348    14.188311    19.735938    33.265163    9.5479328    12.612127     22.30075    14.235163 
  995000    135.05306     59210408            0     59210934    12.683371    22.410374    14.188206     19.73955    33.267758     9.537445    12.612127     22.30075    14.235163 
  995200    271.10066     59210819            0     59211874    12.683315    22.410352    14.188049    19.733925    33.265547    9.5217567    12.612127     22.30075    14.235163 
  995400    110.44764     59211580            0     59212010    12.683305    22.410373    14.188179     19.73299    33.267696    9.5347866    12.612127     22.30075    14.235163 
  995600    357.89489     59210282            0     59211675    12.683332    22.410345    14.188066    19.735613    33.264836     9.523425    12.612127     22.30075    14.235163 
  995800    200.42936     59210578            0     59211358    12.683331    22.410343    14.188131    19.735574    33.264618    9.5299088    12.612127     22.30075    14.235163 
  996000    198.03853     59210416            0     59211187    12.683316    22.410344    14.188223    19.734068    33.264806    9.5391121    12.612127     22.30075    14.235163 
  996200     151.8561     59210842            0     59211433    12.683328    22.410321    14.188267    19.735206    33.262465    9.5435234    12.612127     22.30075    14.235163 
  996400    173.92263     59210621            0     59211298    12.683339    22.410349    14.188082    19.736378     33.26529    9.5250506    12.612127     22.30075    14.235163 
  996600    243.69512     59211648            0     59212596    12.683317    22.410353    14.188256     19.73419    33.265677    9.5423992    12.612127     22.30075    14.235163 
  996800    212.61679     59211420            0     59212248    12.683303     22.41036    14.188012    19.732792    33.266312    9.5179921    12.612127     22.30075    14.235163 
  997000    187.03925     59210863            0     59211591    12.683316    22.410372    14.188185    19.734063    33.267528    9.5353056    12.612127     22.30075    14.235163 
  997200    427.56896     59209556            0     59211220    12.683335    22.410355    14.188115    19.735922    33.265904    9.5282943    12.612127     22.30075    14.235163 
  997400    154.86938     59210510            0     59211113    12.683313    22.410354    14.187897    19.733732    33.265743    9.5065261    12.612127     22.30075    14.235163 
  997600    158.50197     59210776            0     59211393    12.683316    22.410353    14.188405    19.734013    33.265686    9.5573198    12.612127     22.30075    14.235163 
  997800    180.12529     59210246            0     59210947    12.683328    22.410359    14.188253    19.735289    33.266293    9.5421627    12.612127     22.30075    14.235163 
  998000    167.48629     59211020            0     59211672     12.68334    22.410352    14.188126    19.736484    33.265551    9.5294817    12.612127     22.30075    14.235163 
  998200    180.72571     59210110            0     59210813    12.683317    22.410353    14.188164    19.734152    33.265678     9.533206    12.612127     22.30075    14.235163 
  998400    248.33475     59211081            0     59212047    12.683341     22.41033    14.188232    19.736593    33.263344    9.5400892    12.612127     22.30075    14.235163 
  998600    142.02887     59210920            0     59211473    12.683309    22.410345    14.188243    19.733335    33.264861    9.5411885    12.612127     22.30075    14.235163 
  998800    292.53948     59211485            0     59212624    12.683316    22.410353     14.18796    19.734012    33.265682    9.5128324    12.612127     22.30075    14.235163 
  999000    167.56036     59211000            0     59211652    12.683315    22.410353    14.188137    19.733992    33.265687    9.5305185    12.612127     22.30075    14.235163 
  999200    236.58049     59210216            0     59211137    12.683328    22.410346    14.188079    19.735241    33.264919    9.5247694    12.612127     22.30075    14.235163 
  999400    180.43456     59210903            0     59211606    12.683338    22.410352    14.188242    19.736238    33.265596    9.5410599    12.612127     22.30075    14.235163 
  999600    214.04104     59209807            0     59210640     12.68331    22.410345    14.188093     19.73346    33.264829    9.5261114    12.612127     22.30075    14.235163 
  999800    258.29244     59210534            0     59211540    12.683315    22.410354    14.188151    19.733928     33.26576    9.5319835    12.612127     22.30075    14.235163 
 1000000    211.49504     59210538            0     59211362    12.683273     22.41036    14.188103     19.72974    33.266309     9.527166    12.612127     22.30075    14.235163 
 1000200    225.88361     59210993            0     59211873    12.683316    22.410354    14.188106     19.73403     33.26571    9.5274838    12.612127     22.30075    14.235163 
 1000400    257.17156     59210727            0     59211729    12.683331    22.410346    14.188116    19.735523    33.264992     9.528414    12.612127     22.30075    14.235163 
 1000600    146.10086     59211175            0     59211744    12.683316    22.410353     14.18797    19.734028    33.265685    9.5138268    12.612127     22.30075    14.235163 
 1000800    155.25121     59211574            0     59212178    12.683328     22.41033    14.188117    19.735211    33.263326    9.5285899    12.612127     22.30075    14.235163 
 1001000    150.87289     59212293            0     59212881    12.683337    22.410352    14.188203    19.736121    33.265565     9.537104    12.612127     22.30075    14.235163 
 1001200    294.37235     59211000            0     59212146    12.683337    22.410329    14.188375    19.736191    33.263287    9.5543257    12.612127     22.30075    14.235163 
 1001400    268.06298     59210632            0     59211675    12.683294    22.410354    14.188264    19.731808    33.265808    9.5432226    12.612127     22.30075    14.235163 
 1001600    305.03801     59210665            0     59211853    12.683316    22.410353    14.188033    19.734012    33.265687    9.5201096    12.612127     22.30075    14.235163 
 1001800    295.80244     59211067            0     59212219     12.68329    22.410386    14.188266    19.731441    33.268955    9.5434428    12.612127     22.30075    14.235163 
 1002000    268.41316     59210250            0     59211295    12.683316    22.410353    14.188127    19.734027    33.265693    9.5295361    12.612127     22.30075    14.235163 
 1002200    187.06721     59211034            0     59211762    12.683302    22.410355     14.18834    19.732654    33.265825    9.5508494    12.612127     22.30075    14.235163 
 1002400    103.96256     59209735            0     59210139     12.68332    22.410344    14.188192    19.734479    33.264766    9.5360883    12.612127     22.30075    14.235163 
 1002600    163.11531     59209890            0     59210525    12.683308    22.410354    14.188065    19.733213    33.265721    9.5233087    12.612127     22.30075    14.235163 
 1002800    273.46054     59210215            0     59211280    12.683293     22.41036    14.188031    19.731753    33.266365    9.5199835    12.612127     22.30075    14.235163 
 1003000    200.29209     59211357            0     59212137    12.683319    22.410339    14.188165    19.734299     33.26426    9.5333935    12.612127     22.30075    14.235163 
 1003200    128.78557     59211336            0     59211837    12.683335    22.410352    14.188007    19.735939    33.265582    9.5175376    12.612127     22.30075    14.235163 
 1003400    192.71797     59211825            0     59212575    12.683316    22.410353    14.187878    19.734015    33.265684    9.5046205    12.612127     22.30075    14.235163 
 1003600    250.15993     59211313            0     59212287    12.683322    22.410363    14.188113    19.734647    33.266614    9.5280942    12.612127     22.30075    14.235163 
 1003800    138.68722     59211889            0     59212429    12.683316    22.410353    14.188323    19.734016    33.265694    9.5491738    12.612127     22.30075    14.235163 
 1004000    206.08621     59211203            0     59212005    12.683377    22.410347    14.188102    19.740162    33.265103    9.5270777    12.612127     22.30075    14.235163 
 1004200    177.91045     59211116            0     59211809    12.683318    22.410353    14.188013    19.734265    33.265656    9.5181882    12.612127     22.30075    14.235163 
 1004400    169.50354     59211617            0     59212277    12.683309    22.410376    14.187917    19.733383    33.267979     9.508561    12.612127     22.30075    14.235163 
 1004600    142.20791     59210529            0     59211083    12.683307    22.410359    14.188034    19.733174     33.26621    9.5202285    12.612127     22.30075    14.235163 
 1004800    171.29308     59210340            0     59211007    12.683323    22.410339    14.187937    19.734744    33.264218    9.5105327    12.612127     22.30075    14.235163 
 1005000    219.24631     59211608            0     59212461    12.683316    22.410353    14.188051    19.734012    33.265685    9.5219052    12.612127     22.30075    14.235163 
 1005200    231.18462     59210754            0     59211654    12.683304    22.410367    14.188079     19.73289    33.267043     9.524742    12.612127     22.30075    14.235163 
 1005400    193.50954     59210658            0     59211412     12.68331    22.410344    14.188144    19.733409    33.264724    9.5312303    12.612127     22.30075    14.235163 
 1005600    208.09184     59211142            0     59211952    12.683316    22.410352    14.188277    19.734069    33.265578    9.5445018    12.612127     22.30075    14.235163 
 1005800    245.15046     59211113            0     59212067    12.683316    22.410353    14.187996    19.734035    33.265667    9.5164597    12.612127     22.30075    14.235163 
 1006000    292.05191     59210266            0     59211403    12.683327    22.410321     14.18804    19.735131    33.262506    9.5207935    12.612127     22.30075    14.235163 
 1006200    242.88027     59210901            0     59211847    12.683287    22.410337    14.188023    19.731125    33.264035    9.5190949    12.612127     22.30075    14.235163 
 1006400    165.15205     59210485            0     59211128      12.6833    22.410338    14.188113    19.732443    33.264137    9.5281777    12.612127     22.30075    14.235163 
 1006600    128.59525     59211180            0     59211680    12.683319    22.410347    14.188271    19.734339    33.265035    9.5439202    12.612127     22.30075    14.235163 
 1006800    140.10097     59211195            0     59211740    12.683314    22.410352    14.188228    19.733875    33.265526    9.5396932    12.612127     22.30075    14.235163 
 1007000    159.07064     59211743            0     59212362    12.683354    22.410351    14.187964    19.737821    33.265489    9.5132076    12.612127     22.30075    14.235163 
 1007200    165.54134     59210926            0     59211570    12.683316    22.410353    14.188253    19.734031    33.265653    9.5421007    12.612127     22.30075    14.235163 
 1007400    190.55765     59210835            0     59211577    12.683346    22.410348    14.188128    19.737038    33.265199    9.5296456    12.612127     22.30075    14.235163 
 1007600    156.40161     59211276            0     59211885    12.683324    22.410348    14.188088    19.734835    33.265167    9.5256537    12.612127     22.30075    14.235163 
 1007800    184.82745     59211347            0     59212066    12.683316    22.410353     14.18806    19.734011    33.265683    9.5228487    12.612127     22.30075    14.235163 
 1008000    357.78863     59211241            0     59212634    12.683311    22.410352    14.187842    19.733576    33.265545    9.5009988    12.612127     22.30075    14.235163 
 1008200    229.91837     59211161            0     59212056    12.683313    22.410352    14.188312    19.733729    33.265573    9.5480628    12.612127     22.30075    14.235163 
 1008400    183.30245     59210915            0     59211628    12.683314    22.410357    14.188041    19.733805    33.266097    9.5209778    12.612127     22.30075    14.235163 
 1008600    161.55205     59210859            0     59211488    12.683322     22.41031    14.188237    19.734615    33.261399    9.5405323    12.612127     22.30075    14.235163 
 1008800    118.92315     59209734            0     59210197    12.683316    22.410353    14.188098    19.734013    33.265686    9.5266266    12.612127     22.30075    14.235163 
 1009000    173.18387     59210662            0     59211337    12.683316    22.410353      14.1882    19.734013    33.265686    9.5368211    12.612127     22.30075    14.235163 
 1009200    126.40125     59210707            0     59211199    12.683312    22.410347    14.188267    19.733605     33.26506    9.5435606    12.612127     22.30075    14.235163 
 1009400    295.28546     59210378            0     59211527    12.683299    22.410355    14.188211    19.732382    33.265861    9.5379413    12.612127     22.30075    14.235163 
 1009600    152.64937     59210774            0     59211368    12.683303    22.410354    14.188066    19.732729    33.265738    9.5234431    12.612127     22.30075    14.235163 
 1009800    177.27921     59210894            0     59211584     12.68332    22.410356    14.188125    19.734404    33.265991    9.5292998    12.612127     22.30075    14.235163 
 1010000    137.67937     59211024            0     59211560     12.68332    22.410354    14.188039    19.734467    33.265799     9.520693    12.612127     22.30075    14.235163 
 1010200    124.58166     59210901            0     59211386    12.683306     22.41035    14.187974     19.73302     33.26539    9.5142004    12.612127     22.30075    14.235163 
 1010400    171.28622     59211075            0     59211742    12.683302    22.410368    14.188018    19.732634    33.267123    9.5186409    12.612127     22.30075    14.235163 
 1010600    178.93836     59211834            0     59212531    12.683317    22.410353    14.187991    19.734193    33.265672    9.5159119    12.612127     22.30075    14.235163 
 1010800    174.50145     59211033            0     59211712    12.683324    22.410354    14.188225    19.734798    33.265718    9.5393511    12.612127     22.30075    14.235163 
 1011000     272.7783     59211692            0     59212754    12.683319    22.410354    14.188363    19.734397    33.265762    9.5531214    12.612127     22.30075    14.235163 
 1011200    156.88988     59209287            0     59209897    12.683325    22.410353    14.188035    19.734931    33.265633    9.5203524    12.612127     22.30075    14.235163 
 1011400    255.74794     59211015            0     59212010    12.683337    22.410366     14.18808    19.736148     33.26692    9.5248321    12.612127     22.30075    14.235163 
 1011600    129.44036     59211595            0     59212099    12.683316    22.410353    14.188091    19.734014    33.265686    9.5259869    12.612127     22.30075    14.235163 
 1011800    300.19642     59210145            0     59211313    12.683295    22.410321    14.188104    19.731915    33.262496    9.5272297    12.612127     22.30075    14.235163 
 1012000    282.81274     59211556            0     59212657    12.683308    22.410379    14.188125    19.733228    33.268262      9.52937    12.612127     22.30075    14.235163 
 1012200    138.42702     59209722            0     59210261    12.683316    22.410353    14.188112     19.73401    33.265678    9.5280071    12.612127     22.30075    14.235163 
 1012400    224.53275     59210769            0     59211643    12.683316    22.410352    14.188075    19.734094    33.265527    9.5243635    12.612127     22.30075    14.235163 
 1012600    281.51339     59210582            0     59211678    12.683317    22.410353     14.18802    19.734192    33.265676    9.5188374    12.612127     22.30075    14.235163 
 1012800    142.02665     59212272            0     59212825    12.683316    22.410353    14.188109    19.734005    33.265674    9.5277056    12.612127     22.30075    14.235163 
 1013000    295.01741     59211851            0     59212999     12.68331     22.41035    14.188228    19.733491    33.265368    9.5396717    12.612127     22.30075    14.235163 
 1013200    268.20603     59211181            0     59212225    12.683316    22.410353    14.187981    19.734012    33.265683    9.5149603    12.612127     22.30075    14.235163 
 1013400    288.69231     59210658            0     59211782    12.683319    22.410357    14.187951    19.734373    33.266018    9.5119249    12.612127     22.30075    14.235163 
 1013600    220.45093     59211032            0     59211891    12.683336    22.410334    14.188033    19.736087    33.263752    9.5201324    12.612127     22.30075    14.235163 
 1013800    175.91726     59210939            0     59211623    12.683329    22.410345    14.188078    19.735345    33.264863    9.5246084    12.612127     22.30075    14.235163 
 1014000    242.49913     59211854            0     59212798    12.683317    22.410353    14.188159    19.734174    33.265676    9.5327249    12.612127     22.30075    14.235163 
 1014200    186.80691     59210654            0     59211381    12.683317    22.410353    14.188022    19.734176    33.265657    9.5190695    12.612127     22.30075    14.235163 
 1014400     148.7321     59210465            0     59211044    12.683331    22.410327    14.188086    19.735578    33.263089    9.5254785    12.612127     22.30075    14.235163 
 1014600    252.32179     59211549            0     59212532    12.683309    22.410354    14.188165    19.733322    33.265725    9.5332988    12.612127     22.30075    14.235163 
 1014800    94.011035     59209728            0     59210094     12.68332    22.410352    14.188036    19.734449    33.265539    9.5204498    12.612127     22.30075    14.235163 
 1015000    297.26974     59211262            0     59212419    12.683329    22.410363    14.188251    19.735397     33.26662    9.5419093    12.612127     22.30075    14.235163 
 1015200     222.2455     59211765            0     59212630    12.683325     22.41036    14.188008    19.734975    33.266351    9.5176232    12.612127     22.30075    14.235163 
 1015400    308.31294     59210783            0     59211983    12.683316    22.410353    14.187995    19.734014    33.265687    9.5163095    12.612127     22.30075    14.235163 
 1015600    192.32109     59210737            0     59211486    12.683316    22.410353     14.18833    19.734012    33.265686    9.5498449    12.612127     22.30075    14.235163 
 1015800    255.14698     59211225            0     59212218    12.683315    22.410349    14.188213    19.733983    33.265208    9.5381038    12.612127     22.30075    14.235163 
 1016000    155.74147     59210490            0     59211096    12.683318    22.410349    14.188083    19.734246    33.265268    9.5250937    12.612127     22.30075    14.235163 
 1016200    105.80608     59210209            0     59210621    12.683312    22.410348    14.188191    19.733666    33.265152     9.535974    12.612127     22.30075    14.235163 
 1016400    274.71037     59210394            0     59211464    12.683305    22.410371    14.188113    19.732944    33.267442    9.5281278    12.612127     22.30075    14.235163 
 1016600    77.222231     59212208            0     59212508     12.68332    22.410351    14.188107      19.7344    33.265473    9.5275605    12.612127     22.30075    14.235163 
 1016800     282.8351     59210356            0     59211457    12.683316    22.410353    14.188237    19.734013    33.265687    9.5405466    12.612127     22.30075    14.235163 
 1017000    104.57523     59210882            0     59211289    12.683325    22.410369     14.18811    19.734967    33.267279    9.5278843    12.612127     22.30075    14.235163 
 1017200    195.66746     59210340            0     59211102    12.683316    22.410353    14.188196    19.734022    33.265692    9.5364271    12.612127     22.30075    14.235163 
 1017400    154.29844     59210188            0     59210788     12.68331    22.410344    14.188182     19.73341     33.26476    9.5350245    12.612127     22.30075    14.235163 
 1017600    199.99691     59210530            0     59211309    12.683304    22.410363    14.188079    19.732832    33.266629    9.5247239    12.612127     22.30075    14.235163 
 1017800    162.16335     59211690            0     59212322    12.683315    22.410354    14.188096    19.733933    33.265761    9.5264146    12.612127     22.30075    14.235163 
 1018000    230.33957     59211124            0     59212020    12.683324    22.410353    14.188103    19.734862    33.265639    9.5271193    12.612127     22.30075    14.235163 
 1018200    192.24443     59211157            0     59211906    12.683327     22.41034    14.188178    19.735111    33.264373    9.5346874    12.612127     22.30075    14.235163 
 1018400    234.80113     59211317            0     59212231    12.683323    22.410337    14.188018    19.734791    33.264058    9.5186644    12.612127     22.30075    14.235163 
 1018600    290.91718     59210904            0     59212036    12.683316    22.410353    14.188143    19.734012    33.265683    9.5311739    12.612127     22.30075    14.235163 
 1018800    137.34171     59210785            0     59211320      12.6833    22.410356    14.188215    19.732411    33.265932    9.5383117    12.612127     22.30075    14.235163 
 1019000     154.2721     59210924            0     59211524    12.683333    22.410324    14.188089    19.735794    33.262767    9.5257395    12.612127     22.30075    14.235163 
 1019200    141.10635     59209986            0     59210535    12.683322    22.410353    14.188137     19.73463    33.265652    9.5305483    12.612127     22.30075    14.235163 
 1019400    314.51252     59210600            0     59211825    12.683356    22.410368     14.18818    19.738048     33.26717     9.534826    12.612127     22.30075    14.235163 
 1019600    126.51614     59211118            0     59211611    12.683322    22.410353    14.187955     19.73461    33.265633     9.512293    12.612127     22.30075    14.235163 
 1019800    241.25119     59210875            0     59211815    12.683304    22.410355    14.188204    19.732843    33.265835    9.5371989    12.612127     22.30075    14.235163 
 1020000    286.00283     59211761            0     59212875    12.683325    22.410354    14.188207     19.73492    33.265754    9.5375085    12.612127     22.30075    14.235163 
 1020200     127.6048     59210157            0     59210653    12.683327     22.41037    14.188101    19.735117    33.267369    9.5269912    12.612127     22.30075    14.235163 
 1020400    230.98641     59210613            0     59211513    12.683316    22.410353    14.188232    19.734019    33.265686    9.5400896    12.612127     22.30075    14.235163 
 1020600    203.70031     59211321            0     59212114    12.683331    22.410355    14.188003    19.735536    33.265849    9.5171336    12.612127     22.30075    14.235163 
 1020800     163.6699     59211592            0     59212229    12.683316    22.410353    14.188228    19.734013    33.265686    9.5396469    12.612127     22.30075    14.235163 
 1021000    269.35322     59210756            0     59211805    12.683313    22.410353    14.188235     19.73375    33.265648    9.5403474    12.612127     22.30075    14.235163 
 1021200    166.96257     59210190            0     59210840    12.683308    22.410368    14.188128    19.733283    33.267141    9.5296135    12.612127     22.30075    14.235163 
 1021400    282.23589     59210761            0     59211860    12.683313    22.410371    14.188276    19.733713    33.267446    9.5444637    12.612127     22.30075    14.235163 
 1021600    261.91539     59210146            0     59211166    12.683316    22.410353    14.188165    19.734011    33.265684    9.5333456    12.612127     22.30075    14.235163 
 1021800    191.06401     59211171            0     59211915    12.683322    22.410313    14.188277    19.734683    33.261613    9.5445373    12.612127     22.30075    14.235163 
 1022000    156.81771     59210645            0     59211255    12.683294    22.410361    14.188201      19.7318    33.266469    9.5369717    12.612127     22.30075    14.235163 
 1022200     204.6093     59210981            0     59211778    12.683316    22.410349    14.187982     19.73407    33.265282    9.5150764    12.612127     22.30075    14.235163 
 1022400    226.88185     59210687            0     59211570    12.683318    22.410348    14.188087    19.734288    33.265171    9.5255104    12.612127     22.30075    14.235163 
 1022600    221.54666     59211406            0     59212269    12.683316    22.410353    14.188049    19.734029    33.265695    9.5217039    12.612127     22.30075    14.235163 
 1022800    183.26418     59211398            0     59212112    12.683317    22.410354    14.188378    19.734139    33.265726     9.554704    12.612127     22.30075    14.235163 
 1023000    181.05956     59209899            0     59210604    12.683321    22.410361    14.188093    19.734573    33.266459    9.5261222    12.612127     22.30075    14.235163 
 1023200    125.20311     59211498            0     59211986    12.683326    22.410333    14.188337    19.735049     33.26368    9.5506002    12.612127     22.30075    14.235163 
 1023400    231.46988     59210889            0     59211790    12.683326     22.41035    14.188234    19.735027    33.265386    9.5402664    12.612127     22.30075    14.235163 
 1023600    202.11556     59210583            0     59211370    12.683296     22.41033    14.188111    19.732083    33.263354    9.5279265    12.612127     22.30075    14.235163 
 1023800    145.90672     59209942            0     59210510    12.683322    22.410353    14.188038    19.734641    33.265657    9.5206061    12.612127     22.30075    14.235163 
 1024000    252.80512     59211190            0     59212174    12.683317    22.410353    14.188131    19.734119    33.265691    9.5298977    12.612127     22.30075    14.235163 
 1024200    225.53675     59210515            0     59211393    12.683331    22.410353    14.188009    19.735525    33.265679    9.5177217    12.612127     22.30075    14.235163 
 1024400    222.21324     59210792            0     59211657    12.683335    22.410354    14.188113    19.735936    33.265717    9.5280947    12.612127     22.30075    14.235163 
 1024600    203.99931     59211703            0     59212497    12.683288    22.410383    14.187917    19.731273    33.268646    9.5085708    12.612127     22.30075    14.235163 
 1024800    237.07024     59210511            0     59211434    12.683315    22.410318    14.188131    19.733955    33.262191    9.5299593    12.612127     22.30075    14.235163 
 1025000    290.00622     59210017            0     59211146    12.683315    22.410352    14.188169    19.733916    33.265539    9.5337321    12.612127     22.30075    14.235163 
 1025200    232.22802     59210645            0     59211549    12.683316    22.410349    14.187985    19.734059    33.265281    9.5153153    12.612127     22.30075    14.235163 
 1025400    208.61094     59211507            0     59212319    12.683333    22.410352    14.188164    19.735706    33.265593    9.5332513    12.612127     22.30075    14.235163 
 1025600    121.39891     59210409            0     59210882    12.683315    22.410354    14.188105    19.733994    33.265725    9.5273576    12.612127     22.30075    14.235163 
 1025800    183.04855     59210384            0     59211096     12.68333    22.410353    14.188072     19.73545    33.265624     9.524011    12.612127     22.30075    14.235163 
 1026000    173.38265     59211214            0     59211889    12.683315    22.410353    14.188337    19.733903    33.265699    9.5505619    12.612127     22.30075    14.235163 
 1026200    127.67686     59210680            0     59211177    12.683288    22.410355    14.188144    19.731262    33.265838    9.5312289    12.612127     22.30075    14.235163 
 1026400    129.03618     59210247            0     59210750    12.683322    22.410342    14.188092    19.734692    33.264519    9.5260319    12.612127     22.30075    14.235163 
 1026600    205.56096     59210251            0     59211052    12.683301    22.410354    14.188297    19.732528    33.265808    9.5465997    12.612127     22.30075    14.235163 
 1026800    345.48591     59211268            0     59212613    12.683316    22.410353    14.188002    19.734008    33.265687    9.5170315    12.612127     22.30075    14.235163 
 1027000    230.61593     59211548            0     59212446    12.683308    22.410369    14.188286    19.733261    33.267248    9.5454662    12.612127     22.30075    14.235163 
 1027200    139.88106     59211863            0     59212408    12.683332    22.410352    14.188255    19.735612    33.265535    9.5423438    12.612127     22.30075    14.235163 
 1027400     78.40675     59210122            0     59210427    12.683329    22.410327    14.188074    19.735333    33.263088    9.5242805    12.612127     22.30075    14.235163 
 1027600    412.13434     59210727            0     59212332    12.683311    22.410368    14.188052    19.733567    33.267174    9.5220767    12.612127     22.30075    14.235163 
 1027800     208.0374     59210810            0     59211620    12.683327     22.41033    14.188135    19.735178    33.263385    9.5302972    12.612127     22.30075    14.235163 
 1028000    169.91467     59210918            0     59211579    12.683312    22.410348    14.188062    19.733687    33.265181    9.5230445    12.612127     22.30075    14.235163 
 1028200    342.29085     59210432            0     59211765    12.683316    22.410354    14.188075    19.734058    33.265755    9.5243742    12.612127     22.30075    14.235163 
 1028400    306.66161     59210260            0     59211454    12.683319    22.410346    14.188286    19.734392    33.264988     9.545482    12.612127     22.30075    14.235163 
 1028600    171.87391     59211261            0     59211931    12.683325    22.410348    14.188091    19.734954    33.265136    9.5259287    12.612127     22.30075    14.235163 
 1028800    263.27236     59210222            0     59211247    12.683313    22.410359    14.188071    19.733719    33.266255    9.5239911    12.612127     22.30075    14.235163 
 1029000     145.0894     59209423            0     59209988    12.683315    22.410338    14.188095    19.733914     33.26416    9.5263451    12.612127     22.30075    14.235163 
 1029200    74.207032     59211017            0     59211306    12.683328    22.410373    14.188213    19.735254    33.267617    9.5381786    12.612127     22.30075    14.235163 
 1029400    205.23099     59211158            0     59211957    12.683314    22.410339    14.188163    19.733799    33.264278    9.5331014    12.612127     22.30075    14.235163 
 1029600    185.52711     59211818            0     59212540    12.683321    22.410362    14.188311    19.734569    33.266595     9.547994    12.612127     22.30075    14.235163 
 1029800    249.91813     59210945            0     59211917    12.683302    22.410381    14.188113    19.732688    33.268423    9.5281481    12.612127     22.30075    14.235163 
 1030000    117.48662     59210213            0     59210670    12.683304    22.410374    14.188114    19.732841    33.267744    9.5282245    12.612127     22.30075    14.235163 
 1030200    318.41331     59211216            0     59212455    12.683318    22.410358    14.188191    19.734237    33.266168      9.53595    12.612127     22.30075    14.235163 
 1030400    131.10883     59211356            0     59211866    12.683337    22.410369    14.187993     19.73617    33.267292    9.5161585    12.612127     22.30075    14.235163 
 1030600    325.36179     59210844            0     59212110    12.683289    22.410341    14.188115    19.731335    33.264412    9.5283908    12.612127     22.30075    14.235163 
 1030800    151.17906     59211502            0     59212090    12.683316    22.410353    14.188082    19.734021    33.265673    9.5250533    12.612127     22.30075    14.235163 
 1031000     112.2271     59212091            0     59212527    12.683316    22.410352    14.188032    19.734091    33.265521    9.5199941    12.612127     22.30075    14.235163 
 1031200    161.16009     59212318            0     59212945    12.683326    22.410355    14.187804    19.735017    33.265812    9.4972058    12.612127     22.30075    14.235163 
 1031400    252.10974     59210931            0     59211912    12.683337    22.410349    14.188306    19.736126    33.265293    9.5474828    12.612127     22.30075    14.235163 
 1031600    223.07483     59211133            0     59212001    12.683296    22.410355    14.188183     19.73203    33.265825    9.5351687    12.612127     22.30075    14.235163 
 1031800    172.87773     59211237            0     59211910    12.683316    22.410353    14.188019    19.734014    33.265686    9.5187019    12.612127     22.30075    14.235163 
 1032000    299.57569     59211814            0     59212980    12.683339    22.410341    14.187818    19.736348    33.264472     9.498655    12.612127     22.30075    14.235163 
 1032200    283.75766     59210989            0     59212094    12.683318    22.410322    14.188307    19.734202    33.262557    9.5475856    12.612127     22.30075    14.235163 
 1032400     139.2493     59211192            0     59211734    12.683309    22.410354    14.188169     19.73331    33.265776    9.5337254    12.612127     22.30075    14.235163 
 1032600     153.2962     59210028            0     59210625    12.683316    22.410352    14.188031    19.734072    33.265575    9.5199038    12.612127     22.30075    14.235163 
 1032800    180.19467     59210881            0     59211583    12.683333    22.410363    14.187978    19.735727    33.266644    9.5145954    12.612127     22.30075    14.235163 
 1033000    178.44511     59211855            0     59212550    12.683315    22.410354    14.188292    19.733979    33.265753    9.5460668    12.612127     22.30075    14.235163 
 1033200    228.50875     59211069            0     59211959    12.683294    22.410355    14.188176    19.731822    33.265903    9.5344678    12.612127     22.30075    14.235163 
 1033400    118.72946     59211544            0     59212007    12.683316    22.410358    14.188138    19.734089     33.26616     9.530622    12.612127     22.30075    14.235163 
 1033600    148.32506     59211614            0     59212191    12.683323    22.410364    14.188007    19.734743    33.266752      9.51757    12.612127     22.30075    14.235163 
 1033800    118.99728     59211277            0     59211740    12.683303    22.410339    14.188378    19.732762    33.264239    9.5546647    12.612127     22.30075    14.235163 
 1034000    336.14199     59210783            0     59212091    12.683298    22.410339     14.18819    19.732198    33.264223    9.5358039    12.612127     22.30075    14.235163 
 1034200    216.93875     59211206            0     59212051    12.683324    22.410365     14.18821    19.734811    33.266906    9.5378306    12.612127     22.30075    14.235163 
 1034400    217.08224     59210129            0     59210974    12.683305    22.410358    14.188232     19.73292    33.266165    9.5400594    12.612127     22.30075    14.235163 
 1034600     206.5517     59210085            0     59210889    12.683321    22.410354    14.188191    19.734501    33.265757    9.5359561    12.612127     22.30075    14.235163 
 1034800    70.929441     59211885            0     59212161    12.683303    22.410368    14.188038    19.732703    33.267189    9.5206183    12.612127     22.30075    14.235163 
 1035000    247.64653     59210870            0     59211834    12.683305    22.410354    14.188181    19.732966    33.265722    9.5349117    12.612127     22.30075    14.235163 
 1035200    202.68915     59211273            0     59212062     12.68334    22.410362    14.188246    19.736408    33.266574     9.541497    12.612127     22.30075    14.235163 
 1035400    182.49313     59211026            0     59211737    12.683325    22.410354    14.188314    19.734917    33.265742    9.5482496    12.612127     22.30075    14.235163 
 1035600    225.77312     59210630            0     59211509    12.683316    22.410358    14.188201     19.73408    33.266122    9.5369257    12.612127     22.30075    14.235163 
 1035800    306.89764     59211090            0     59212285    12.683336    22.410349    14.188216    19.736084    33.265237    9.5384363    12.612127     22.30075    14.235163 
 1036000    215.05453     59210601            0     59211439    12.683315    22.410346    14.188303    19.733946    33.264942    9.5471684    12.612127     22.30075    14.235163 
 1036200    172.18151     59211313            0     59211983    12.683317    22.410355    14.187892    19.734152    33.265897     9.506062    12.612127     22.30075    14.235163 
 1036400    229.03983     59211252            0     59212144    12.683336    22.410361    14.188065    19.736035     33.26647    9.5233341    12.612127     22.30075    14.235163 
 1036600    102.24405     59210996            0     59211394    12.683306    22.410373    14.188202    19.733081    33.267684    9.5370584    12.612127     22.30075    14.235163 
 1036800    134.47042     59211457            0     59211981    12.683348    22.410351    14.188219    19.737273    33.265506    9.5387344    12.612127     22.30075    14.235163 
 1037000    416.37646     59210386            0     59212007    12.683316    22.410353    14.188171    19.734013    33.265686    9.5339309    12.612127     22.30075    14.235163 
 1037200    147.11517     59211221            0     59211793    12.683304    22.410354    14.188024    19.732893    33.265747    9.5192455    12.612127     22.30075    14.235163 
 1037400    267.34314     59211656            0     59212697    12.683344    22.410372    14.188044    19.736839    33.267557    9.5212029    12.612127     22.30075    14.235163 
 1037600    167.36708     59209428            0     59210079    12.683316    22.410353    14.188045    19.734014    33.265686    9.5213357    12.612127     22.30075    14.235163 
 1037800    342.64587     59210693            0     59212027    12.683307    22.410354    14.188186     19.73314    33.265737    9.5354945    12.612127     22.30075    14.235163 
 1038000    169.77123     59212207            0     59212868    12.683316    22.410353    14.188078    19.734014    33.265686    9.5246165    12.612127     22.30075    14.235163 
 1038200    91.666616     59211430            0     59211787     12.68331    22.410345    14.188182    19.733466     33.26485    9.5350025    12.612127     22.30075    14.235163 
 1038400    163.39152     59211473            0     59212109     12.68328    22.410367    14.188397    19.730436    33.267016    9.5565896    12.612127     22.30075    14.235163 
 1038600    152.71127     59210372            0     59210967    12.683332    22.410352    14.188011    19.735667    33.265606    9.5179867    12.612127     22.30075    14.235163 
 1038800    139.88207     59210944            0     59211488    12.683302    22.410347    14.188114    19.732617    33.265101    9.5282645    12.612127     22.30075    14.235163 
 1039000    131.46496     59210720            0     59211231    12.683325    22.410334    14.188304    19.734976    33.263783    9.5472837    12.612127     22.30075    14.235163 
 1039200    147.07981     59211076            0     59211648    12.683349    22.410352    14.188219    19.737395    33.265516    9.5387912    12.612127     22.30075    14.235163 
 1039400    210.03925     59210773            0     59211591    12.683294    22.410342     14.18816    19.731879    33.264532    9.5328384    12.612127     22.30075    14.235163 
 1039600    142.47235     59210417            0     59210972    12.683313    22.410377    14.187976    19.733737    33.268093    9.5144155    12.612127     22.30075    14.235163 
 1039800    249.90786     59210628            0     59211600    12.683319    22.410359    14.188107    19.734326    33.266261    9.5275477    12.612127     22.30075    14.235163 
 1040000    170.04917     59211673            0     59212335    12.683294    22.410353    14.187828    19.731827     33.26569    9.4996583    12.612127     22.30075    14.235163 
 1040200    124.06519     59211335            0     59211818    12.683318     22.41036    14.188142    19.734238    33.266326     9.531066    12.612127     22.30075    14.235163 
 1040400    187.51405     59211860            0     59212590    12.683321    22.410381    14.188033    19.734529     33.26846    9.5201341    12.612127     22.30075    14.235163 
 1040600    114.61387     59211979            0     59212426    12.683311    22.410354    14.188246    19.733532    33.265751    9.5414826    12.612127     22.30075    14.235163 
 1040800    138.23714     59211273            0     59211811     12.68332    22.410353    14.188327    19.734401    33.265672    9.5495521    12.612127     22.30075    14.235163 
 1041000    389.40647     59210740            0     59212256    12.683315    22.410355    14.188204      19.7339    33.265849    9.5372466    12.612127     22.30075    14.235163 
 1041200    231.20707     59211303            0     59212203    12.683315    22.410349    14.188042     19.73393    33.265299    9.5209992    12.612127     22.30075    14.235163 
 1041400    170.11958     59210659            0     59211322    12.683313    22.410349    14.188128    19.733741    33.265268    9.5296825    12.612127     22.30075    14.235163 
 1041600     225.8861     59209735            0     59210614    12.683342    22.410324    14.188152    19.736604    33.262764    9.5320754    12.612127     22.30075    14.235163 
 1041800    285.26005     59210374            0     59211485    12.683309    22.410341    14.187989    19.733304    33.264413     9.515714    12.612127     22.30075    14.235163 
 1042000    110.33336     59210368            0     59210797    12.683316    22.410354    14.188202    19.734013    33.265777    9.5370623    12.612127     22.30075    14.235163 
Loop time of 12158.6 on 1 procs for 1000000 steps with 1307 atoms

Performance: 3.553 ns/day, 6.755 hours/ns, 82.246 timesteps/s
100.0% CPU use with 1 MPI tasks x no OpenMP threads

MPI task timing breakdown:
Section |  min time  |  avg time  |  max time  |%varavg| %total
---------------------------------------------------------------
Pair    | 6223       | 6223       | 6223       |   0.0 | 51.18
Bond    | 0.1665     | 0.1665     | 0.1665     |   0.0 |  0.00
Kspace  | 5892.4     | 5892.4     | 5892.4     |   0.0 | 48.46
Neigh   | 0          | 0          | 0          |   0.0 |  0.00
Comm    | 26.72      | 26.72      | 26.72      |  -nan |  0.22
Output  | 0.28177    | 0.28177    | 0.28177    |   0.0 |  0.00
Modify  | 7.6033     | 7.6033     | 7.6033     |   0.0 |  0.06
Other   |            | 8.464      |            |       |  0.07

Nlocal:    1307 ave 1307 max 1307 min
Histogram: 1 0 0 0 0 0 0 0 0 0
Nghost:    7931 ave 7931 max 7931 min
Histogram: 1 0 0 0 0 0 0 0 0 0
Neighs:    491482 ave 491482 max 491482 min
Histogram: 1 0 0 0 0 0 0 0 0 0

Total # of neighbors = 491482
Ave neighs/atom = 376.038
Ave special neighs/atom = 0
Neighbor list builds = 0
Dangerous builds = 0
write_data         data_nvt_eq.data
PPPMDisp initialization ...
  Coulomb G vector (1/distance) = 0.264777
  Coulomb grid = 30 50 30
  Coulomb stencil order = 5
  Coulomb estimated absolute RMS force accuracy = 0.000346238
  Coulomb estimated relative force accuracy = 1.04269e-06
  using double precision FFTs
  3d grid and FFT values/proc = 78033 45000

# data collection
reset_timestep     0
fix                5 GUEST ave/time 1 1 10 f_4[1] f_4[2] f_4[3] f_4[13] f_4[14] f_4[15] file traj.CofMs mode vector
ERROR: Fix ave/time fix does not calculate an array (../fix_ave_time.cpp:238)
