LAMMPS (30 Jul 2016)

# ----------------- Init Section -----------------

units real
processors 1 1 1
newton off
atom_style full
atom_modify sort 0 10.0

# ----------------- Atom Definition Section -----------------

read_data "MgMOF74-Pressure50000.data"
  orthogonal box = (0.4447 0.31425 -0.401771) to (26.5587 45.5442 27.2652)
  1 by 1 by 1 MPI processor grid
  reading atoms ...
  1307 atoms
  0 = max # of 1-2 neighbors
  0 = max # of 1-3 neighbors
  0 = max # of 1-4 neighbors
  1 = max # of special neighbors

# ----------------- Settings Section -----------------

#include "MgMOF74-Pressure50000.in.settings"

# ----------------- Run Section -----------------

# define groups
group GUEST type 1
11 atoms in group GUEST
group MOF type 2 3 4 5 6 7 8 9 10
1296 atoms in group MOF

# define computes
compute comT all com
compute comG GUEST com
compute comM MOF com

# settings
timestep           0.5
thermo             200
thermo_style       custom step temp epair emol etotal c_comT[1] c_comT[2] c_comT[3] c_comG[1] c_comG[2] c_comG[3] c_comM[1] c_comM[2] c_comM[3]
restart            2000000 sim.restart

# reset box to start at 0
change_box         all x delta $(-xlo) $(-xlo) y delta $(-ylo) $(-ylo) z delta $(-zlo) $(-zlo) remap units box
change_box         all x delta -0.44469999999999998419 $(-xlo) y delta $(-ylo) $(-ylo) z delta $(-zlo) $(-zlo) remap units box
change_box         all x delta -0.44469999999999998419 -0.44469999999999998419 y delta $(-ylo) $(-ylo) z delta $(-zlo) $(-zlo) remap units box
change_box         all x delta -0.44469999999999998419 -0.44469999999999998419 y delta -0.3142499999999999738 $(-ylo) z delta $(-zlo) $(-zlo) remap units box
change_box         all x delta -0.44469999999999998419 -0.44469999999999998419 y delta -0.3142499999999999738 -0.3142499999999999738 z delta $(-zlo) $(-zlo) remap units box
change_box         all x delta -0.44469999999999998419 -0.44469999999999998419 y delta -0.3142499999999999738 -0.3142499999999999738 z delta 0.40177099999999998925 $(-zlo) remap units box
change_box         all x delta -0.44469999999999998419 -0.44469999999999998419 y delta -0.3142499999999999738 -0.3142499999999999738 z delta 0.40177099999999998925 0.40177099999999998925 remap units box
  orthogonal box = (0 0.31425 -0.401771) to (26.114 45.5442 27.2652)
  orthogonal box = (0 0 -0.401771) to (26.114 45.23 27.2652)
  orthogonal box = (0 0 0) to (26.114 45.23 27.667)
write_data         data_changebox.data

# get rid of overlapping atoms
run                0
WARNING: No fixes defined, atoms won't move (../verlet.cpp:55)
Memory usage per processor = 0.478851 Mbytes
Step Temp E_pair E_mol TotEng comT[1] comT[2] comT[3] comG[1] comG[2] comG[3] comM[1] comM[2] comM[3] 
       0            0            0            0            0    12.683318    22.424053    14.189073    19.734246    34.636249    9.6241346    12.612127     22.30075    14.235163 
Loop time of 9.53674e-07 on 1 procs for 0 steps with 1307 atoms

0.0% CPU use with 1 MPI tasks x no OpenMP threads

MPI task timing breakdown:
Section |  min time  |  avg time  |  max time  |%varavg| %total
---------------------------------------------------------------
Pair    | 0          | 0          | 0          |   0.0 |  0.00
Bond    | 0          | 0          | 0          |   0.0 |  0.00
Neigh   | 0          | 0          | 0          |   0.0 |  0.00
Comm    | 0          | 0          | 0          |   0.0 |  0.00
Output  | 0          | 0          | 0          |   0.0 |  0.00
Modify  | 0          | 0          | 0          |   0.0 |  0.00
Other   |            | 9.537e-07  |            |       |100.00

Nlocal:    1307 ave 1307 max 1307 min
Histogram: 1 0 0 0 0 0 0 0 0 0
Nghost:    0 ave 0 max 0 min
Histogram: 1 0 0 0 0 0 0 0 0 0
Neighs:    0 ave 0 max 0 min
Histogram: 1 0 0 0 0 0 0 0 0 0

Total # of neighbors = 0
Ave neighs/atom = 0
Ave special neighs/atom = 0
Neighbor list builds = 0
Dangerous builds = 0
velocity           GUEST create 313 1738
fix                1 GUEST nvt temp 313 313 100.0
pair_style         soft 5.0
pair_coeff         * * 0.0 5.0
kspace_style       none
variable           prefactor equal ramp(1.0,20.0)
fix                2 all adapt 1 pair soft a * * v_prefactor
run                20000
Neighbor list info ...
  1 neighbor list requests
  update every 1 steps, delay 10 steps, check yes
  max neighbors/atom: 2000, page size: 100000
  master list distance cutoff = 7
  ghost atom cutoff = 7
  binsize = 3.5 -> bins = 8 13 8
Memory usage per processor = 5.44173 Mbytes
Step Temp E_pair E_mol TotEng comT[1] comT[2] comT[3] comG[1] comG[2] comG[3] comM[1] comM[2] comM[3] 
       0    2.3966309    8995.3087            0    9004.6386    12.683318    22.424053    14.189073    19.734246    34.636249    9.6241346    12.612127     22.30075    14.235163 
     200     3.115513    10700.746            0    10712.875    12.683325    22.423926    14.189079    19.734991    34.623493    9.6248279    12.612127     22.30075    14.235163 
     400    5.1716527    12386.628            0    12406.761    12.683386    22.423051    14.189079    19.741023    34.536013    9.6248336    12.612127     22.30075    14.235163 
     600    7.1669154    14046.144            0    14074.045    12.683511    22.421496    14.188919    19.753603    34.380457    9.6088083    12.612127     22.30075    14.235163 
     800    5.1914891    15718.335            0    15738.545    12.683594    22.420429    14.188755    19.761829    34.273714    9.5923479    12.612127     22.30075    14.235163 
    1000    6.1329528    17372.485            0     17396.36    12.683553    22.418598    14.188653    19.757786    34.090539    9.5821737    12.612127     22.30075    14.235163 
    1200    2.6025349    19050.499            0    19060.631    12.683539    22.416142    14.188346    19.756359    33.844817    9.5514257    12.612127     22.30075    14.235163 
    1400    1.2484057    20741.625            0    20746.485    12.683562    22.414506    14.188086    19.758683    33.681114    9.5254761    12.612127     22.30075    14.235163 
    1600    1.4997877    22433.002            0    22438.841    12.683583    22.413097    14.187862    19.760725    33.540202    9.5030431    12.612127     22.30075    14.235163 
    1800    3.1001037    24124.379            0    24136.448     12.68361    22.411242    14.187567    19.763414    33.354644    9.4735024    12.612127     22.30075    14.235163 
    2000    3.4283775    25815.816            0    25829.162    12.683644    22.408877     14.18719    19.766845    33.118026    9.4358142    12.612127     22.30075    14.235163 
    2200   0.69651235    27514.257            0    27516.968    12.683705    22.407475    14.186711    19.772994     32.97774    9.3879278    12.612127     22.30075    14.235163 
    2400    3.1357605    29199.923            0     29212.13    12.683853    22.409249    14.185648    19.787783    33.155228    9.2815353    12.612127     22.30075    14.235163 
    2600    3.1444568    30893.055            0    30905.296    12.684034    22.412117    14.184241    19.805831    33.442122    9.1407569    12.612127     22.30075    14.235163 
    2800    2.3796416     32582.51            0    32591.774    12.684167    22.413952    14.183139    19.819183    33.625689    9.0305161    12.612127     22.30075    14.235163 
    3000    1.8436424    34272.643            0     34279.82    12.684259     22.41526    14.182311    19.828404    33.756548     8.947736    12.612127     22.30075    14.235163 
    3200    1.7172896    35964.729            0    35971.414     12.68431    22.416422    14.181576    19.833522    33.872773    8.8741901    12.612127     22.30075    14.235163 
    3400    1.8870157    37659.385            0    37666.731    12.683933    22.416982    14.180951    19.795789    33.928832    8.8116227    12.612127     22.30075    14.235163 
    3600    3.7785162    39347.594            0    39362.304    12.682389    22.415883    14.180633    19.641345    33.818898    8.7797959    12.612127     22.30075    14.235163 
    3800    2.2218158    41039.455            0    41048.105     12.68059    22.414236    14.180411    19.461333    33.654155    8.7575908    12.612127     22.30075    14.235163 
    4000    1.9467878    42729.869            0    42737.448    12.679701    22.412904    14.180269    19.372357    33.520834    8.7434148    12.612127     22.30075    14.235163 
    4200    2.2200152    44421.388            0    44430.031    12.679169    22.411621    14.180131    19.319131    33.392515     8.729626    12.612127     22.30075    14.235163 
    4400    3.3516208    46113.365            0    46126.413    12.678654     22.41052    14.179941     19.26768    33.282388    8.7105793    12.612127     22.30075    14.235163 
    4600    3.0897515    47804.354            0    47816.382    12.678213    22.409789    14.179694    19.223496     33.20927    8.6859243    12.612127     22.30075    14.235163 
    4800    1.3539565    49497.678            0    49502.949    12.678478    22.409345    14.179566    19.250011    33.164791      8.67309    12.612127     22.30075    14.235163 
    5000    1.8803889    51188.936            0    51196.256    12.679927    22.409523    14.179865    19.395006    33.182609    8.7029871    12.612127     22.30075    14.235163 
    5200    2.7921241    52880.651            0     52891.52    12.681875    22.411101    14.180434    19.589898    33.340495    8.7599583    12.612127     22.30075    14.235163 
    5400    2.6133899    54573.711            0    54583.885    12.683821     22.41384    14.181061    19.784551    33.614547    8.8226179    12.612127     22.30075    14.235163 
    5600    2.4919535    56262.247            0    56271.948    12.684684    22.415692    14.181979    19.870859    33.799829    8.9144748    12.612127     22.30075    14.235163 
    5800    0.7280238    57957.509            0    57960.343    12.684759    22.416625    14.182759    19.878452    33.893117    8.9924821    12.612127     22.30075    14.235163 
    6000    2.4493004    59644.574            0    59654.109     12.68407    22.416212    14.183566    19.809436    33.851771    9.0732865    12.612127     22.30075    14.235163 
    6200     2.780745    61334.952            0    61345.778     12.68282    22.415363    14.184424    19.684387     33.76691    9.1590949    12.612127     22.30075    14.235163 
    6400    2.0589793    63027.042            0    63035.058    12.681559    22.414978    14.185085     19.55827    33.728371    9.2252022    12.612127     22.30075    14.235163 
    6600    2.0787063    64717.709            0    64725.802    12.680413    22.414761    14.185655    19.443654    33.706597    9.2821959    12.612127     22.30075    14.235163 
    6800    2.5291789     66409.95            0    66419.796    12.679186    22.415009    14.186394    19.320917    33.731483     9.356129    12.612127     22.30075    14.235163 
    7000    3.6931744    68101.404            0    68115.781     12.67774    22.415816    14.187597    19.176205    33.812236    9.4765503    12.612127     22.30075    14.235163 
    7200    2.2900592    69792.206            0    69801.121    12.676553    22.416276    14.188917    19.057504    33.858165    9.6085295    12.612127     22.30075    14.235163 
    7400    1.9425344    71483.248            0    71490.811    12.676081    22.416189    14.189876    19.010208    33.849518    9.7044692    12.612127     22.30075    14.235163 
    7600    2.1023058    73175.502            0    73183.686    12.676237       22.416    14.190726    19.025809    33.830614    9.7895098    12.612127     22.30075    14.235163 
    7800    3.0451049    74866.327            0    74878.182    12.677565    22.415769    14.191596    19.158755    33.807495    9.8765974    12.612127     22.30075    14.235163 
    8000    2.5502869     76558.13            0    76568.058    12.679674    22.415588    14.192462    19.369657    33.789395    9.9632007    12.612127     22.30075    14.235163 
    8200    1.4416783    78249.142            0    78254.754    12.681334    22.415507    14.193137     19.53581    33.781233    10.030728    12.612127     22.30075    14.235163 
    8400    1.4284835    79940.976            0    79946.537    12.682727    22.415424    14.193699    19.675167    33.772935    10.086992    12.612127     22.30075    14.235163 
    8600    1.8121856     81632.99            0    81640.045    12.683401    22.415376    14.194429    19.742574    33.768127    10.160002    12.612127     22.30075    14.235163 
    8800     2.729926    83323.603            0     83334.23    12.683147    22.414863    14.195559    19.717144    33.716841    10.273047    12.612127     22.30075    14.235163 
    9000     2.804603    85014.508            0    85025.427    12.682879     22.41443    14.196753    19.690298    33.673483    10.392537    12.612127     22.30075    14.235163 
    9200    1.7112431    86706.807            0    86713.469    12.682692    22.414551    14.197793    19.671575    33.685677    10.496564    12.612127     22.30075    14.235163 
    9400    1.6593569     88398.44            0      88404.9    12.683187      22.4151    14.198683    19.721175    33.740556    10.585566    12.612127     22.30075    14.235163 
    9600     3.590271    90088.626            0    90102.603    12.684309    22.415993    14.200022    19.833401    33.829879    10.719579    12.612127     22.30075    14.235163 
    9800    2.9152035    91779.688            0    91791.037    12.685109    22.416698    14.201693    19.913394    33.900464    10.886736    12.612127     22.30075    14.235163 
   10000    2.2127589    93470.842            0    93479.456    12.685592    22.417142    14.203225    19.961785    33.944845    11.040027    12.612127     22.30075    14.235163 
   10200    1.5462968    95164.493            0    95170.512    12.685968      22.4175    14.204632    19.999328    33.980673    11.180704    12.612127     22.30075    14.235163 
   10400    3.2400872    96853.688            0    96866.302    12.684704    22.416903    14.205837    19.872905    33.920888     11.30124    12.612127     22.30075    14.235163 
   10600    2.8075986    98546.459            0    98557.388    12.682487    22.415671       14.207     19.65116    33.797702      11.4176    12.612127     22.30075    14.235163 
   10800     2.040302    100239.61            0    100247.55     12.68058    22.414485      14.2079    19.460368    33.679041    11.507642    12.612127     22.30075    14.235163 
   11000    2.7593316    101929.13            0    101939.87    12.679878    22.412462    14.208385    19.390076    33.476682    11.556178    12.612127     22.30075    14.235163 
   11200    2.5467686    103621.52            0    103631.44    12.679892    22.410025    14.208674    19.391496    33.232795    11.585095    12.612127     22.30075    14.235163 
   11400    2.3858795    105311.76            0    105321.05    12.680351    22.408231    14.208691    19.437425    33.053404    11.586799    12.612127     22.30075    14.235163 
   11600    1.9213623    107001.86            0    107009.34     12.68095    22.407801    14.208392    19.497374     33.01032    11.556882    12.612127     22.30075    14.235163 
   11800     1.838173    108693.24            0    108700.39    12.681481    22.407707    14.208043    19.550466    33.000948    11.521956    12.612127     22.30075    14.235163 
   12000    2.4297344    110386.92            0    110396.38    12.682005     22.40766    14.207672    19.602886    32.996235    11.484873    12.612127     22.30075    14.235163 
   12200    3.6851765    112076.78            0    112091.12    12.681577    22.408872    14.207508    19.560101    33.117531     11.46843    12.612127     22.30075    14.235163 
   12400    2.3369771    113769.06            0    113778.16    12.680917    22.410742    14.207445    19.494078    33.304555    11.462174    12.612127     22.30075    14.235163 
   12600     1.887823    115461.55            0    115468.89    12.679594    22.412087    14.207733    19.361681     33.43909    11.490945    12.612127     22.30075    14.235163 
   12800    2.5112397    117152.74            0    117162.51    12.677569    22.412109    14.208395    19.159064    33.441338    11.557162    12.612127     22.30075    14.235163 
   13000    3.1134244    118843.15            0    118855.27    12.675339    22.411861    14.209203    18.935968    33.416543    11.638068    12.612127     22.30075    14.235163 
   13200    1.3492738    120535.39            0    120540.64    12.674678    22.412405    14.210329    18.869852    33.470972    11.750655    12.612127     22.30075    14.235163 
   13400     1.756551    122224.75            0    122231.59    12.675688    22.413205    14.211207    18.970956    33.550962    11.838481    12.612127     22.30075    14.235163 
   13600     2.297891    123916.84            0    123925.78     12.67715    22.413806    14.212117    19.117188    33.611083     11.92956    12.612127     22.30075    14.235163 
   13800    2.0253278    125611.33            0    125619.22    12.678886    22.414417    14.213199    19.290818    33.672253    12.037783    12.612127     22.30075    14.235163 
   14000    3.3261817       127300            0    127312.95    12.679392    22.415992    14.213805    19.341498    33.829823    12.098389    12.612127     22.30075    14.235163 
   14200    2.1938724    128994.03            0    129002.57    12.678695    22.418221     14.21411    19.271762    34.052774    12.128969    12.612127     22.30075    14.235163 
   14400    2.6554507    130682.29            0    130692.63    12.678519     22.41897    14.214488    19.254113    34.127703    12.166788    12.612127     22.30075    14.235163 
   14600    2.7619465     132372.6            0    132383.35    12.679342     22.41814    14.214482    19.336503    34.044683    12.166108    12.612127     22.30075    14.235163 
   14800    2.1528839    134063.89            0    134072.27    12.680686    22.416601    14.214164    19.470909     33.89069    12.134357    12.612127     22.30075    14.235163 
   15000    1.0953371    135755.32            0    135759.58    12.681721    22.415414    14.213919    19.574519    33.772007    12.109828    12.612127     22.30075    14.235163 
   15200    1.3843316    137446.84            0    137452.23    12.682855    22.414195    14.213635    19.687909    33.649987    12.081394    12.612127     22.30075    14.235163 
   15400    2.2353544    139138.09            0    139146.79    12.684686    22.412329    14.213156    19.871125    33.463356    12.033471    12.612127     22.30075    14.235163 
   15600    1.7385653    140833.61            0    140840.38    12.686357    22.410361    14.212457    20.038225     33.26642     11.96356    12.612127     22.30075    14.235163 
   15800    3.3748585     142522.6            0    142535.74     12.68604    22.409564    14.210997    20.006522    33.186697    11.817513    12.612127     22.30075    14.235163 
   16000     2.745482    144212.16            0    144222.84    12.683922    22.410014     14.20955    19.794679    33.231731    11.672756    12.612127     22.30075    14.235163 
   16200    1.9307698    145903.67            0    145911.18    12.682145    22.410422    14.208393    19.616862     33.27256    11.556968    12.612127     22.30075    14.235163 
   16400    2.0382586    147595.78            0    147603.72      12.6805    22.410902    14.207104    19.452342    33.320567    11.428048    12.612127     22.30075    14.235163 
   16600    2.6381463     149287.9            0    149298.17    12.679047    22.411428    14.205132    19.306919    33.373191    11.230807    12.612127     22.30075    14.235163 
   16800    2.6286903    150979.83            0    150990.06    12.678389    22.412238    14.202899    19.241132    33.454267    11.007411    12.612127     22.30075    14.235163 
   17000    2.6860389    152669.06            0    152679.52    12.678979    22.412891    14.200873    19.300137    33.519592    10.804691    12.612127     22.30075    14.235163 
   17200    1.4657427    154360.47            0    154366.17    12.679895    22.413166    14.199163    19.391791    33.547067    10.633594    12.612127     22.30075    14.235163 
   17400   0.75696666    156052.34            0    156055.29    12.680427    22.413179    14.198073    19.445037    33.548403    10.524593    12.612127     22.30075    14.235163 
   17600    1.5048433    157743.21            0    157749.07       12.681    22.413186    14.196905    19.502303    33.549041    10.407667    12.612127     22.30075    14.235163 
   17800    2.3138733     159435.4            0    159444.41    12.681947    22.413271    14.195318    19.597058    33.557612    10.248958    12.612127     22.30075    14.235163 
   18000    3.3885606    161126.03            0    161139.22    12.682689     22.41274    14.193097    19.671332    33.504416    10.026734    12.612127     22.30075    14.235163 
   18200      2.84881    162818.68            0    162829.78    12.682037    22.412147    14.190791    19.606117    33.445125    9.7960707    12.612127     22.30075    14.235163 
   18400    1.9718462    164508.73            0     164516.4    12.680228    22.412702    14.189217    19.425106    33.500645    9.6386334    12.612127     22.30075    14.235163 
   18600    1.5854805    166200.07            0    166206.24    12.678778    22.413301    14.187963    19.280011    33.560562    9.5131825    12.612127     22.30075    14.235163 
   18800    2.2337221    167891.45            0    167900.15    12.677322    22.413897    14.186653    19.134421    33.620229    9.3821168    12.612127     22.30075    14.235163 
   19000    2.6000071    169582.87            0    169592.99    12.675781    22.414654    14.185109    18.980279    33.695944    9.2275847    12.612127     22.30075    14.235163 
   19200    1.6393916    171277.98            0    171284.36    12.674545     22.41507    14.183671    18.856567    33.737602     9.083772    12.612127     22.30075    14.235163 
   19400    3.3046942    172965.85            0    172978.72     12.67548    22.414383    14.183031     18.95011     33.66883    9.0197351    12.612127     22.30075    14.235163 
   19600    2.2888761    174659.09            0       174668    12.676951    22.413294    14.182633    19.097288    33.559868    8.9798999    12.612127     22.30075    14.235163 
   19800    1.1882582    176350.38            0    176355.01    12.677903    22.412442    14.182288    19.192564    33.474673    8.9453809    12.612127     22.30075    14.235163 
   20000    1.7548195     178040.5            0    178047.33    12.677413    22.411934    14.181707    19.143522     33.42387    8.8872727    12.612127     22.30075    14.235163 
Loop time of 27.6721 on 1 procs for 20000 steps with 1307 atoms

Performance: 31.223 ns/day, 0.769 hours/ns, 722.750 timesteps/s
100.0% CPU use with 1 MPI tasks x no OpenMP threads

MPI task timing breakdown:
Section |  min time  |  avg time  |  max time  |%varavg| %total
---------------------------------------------------------------
Pair    | 26.911     | 26.911     | 26.911     |  -nan | 97.25
Bond    | 0.0014374  | 0.0014374  | 0.0014374  |   0.0 |  0.01
Neigh   | 0.41107    | 0.41107    | 0.41107    |   0.0 |  1.49
Comm    | 0.11487    | 0.11487    | 0.11487    |   0.0 |  0.42
Output  | 0.004776   | 0.004776   | 0.004776   |   0.0 |  0.02
Modify  | 0.14833    | 0.14833    | 0.14833    |   0.0 |  0.54
Other   |            | 0.0803     |            |       |  0.29

Nlocal:    1307 ave 1307 max 1307 min
Histogram: 1 0 0 0 0 0 0 0 0 0
Nghost:    2721 ave 2721 max 2721 min
Histogram: 1 0 0 0 0 0 0 0 0 0
Neighs:    53261 ave 53261 max 53261 min
Histogram: 1 0 0 0 0 0 0 0 0 0

Total # of neighbors = 53261
Ave neighs/atom = 40.7506
Ave special neighs/atom = 0
Neighbor list builds = 141
Dangerous builds = 0
unfix              2
write_data         data_overlap.data

# reset force field parameters
# Set 1-2, 1-3, and 1-4 pairwise interactions to zero; not needed if no bonded terms
#special_bonds      lj/coul 0.0 0.0 0.0
kspace_style       pppm/disp 1.0e-6
neigh_modify       delay 0 every 1 check yes
include "MgMOF74-Pressure50000.in.settings"
# UFF parameters for all atoms not defined by force field
pair_style         hybrid lj/long/coul/long cut long 12.8 buck/long/coul/long cut long 12.8
pair_modify        mix arithmetic shift yes
pair_coeff         7 7 lj/long/coul/long 0.111 2.691
pair_coeff         2 2 lj/long/coul/long 0.105 3.431
pair_coeff         3 3 lj/long/coul/long 0.105 3.431
pair_coeff         4 4 lj/long/coul/long 0.105 3.431
pair_coeff         5 5 lj/long/coul/long 0.105 3.431
pair_coeff         6 6 lj/long/coul/long 0.044 2.571
pair_coeff         8 8 lj/long/coul/long 0.060 3.118
pair_coeff         9 9 lj/long/coul/long 0.060 3.118
pair_coeff         10 10 lj/long/coul/long 0.060 3.118
pair_coeff         1 1 lj/long/coul/long 0.294 3.730
# Lennard-Jones parameters from force field
pair_coeff         1 6 lj/long/coul/long 0.114 3.15
# Buckingham parameters from force field
pair_coeff         1 7 buck/long/coul/long 503735.46 4.915 869.75957
pair_coeff         1 8 buck/long/coul/long 36618.413 2.965 943.43844
pair_coeff         1 9 buck/long/coul/long 40336.705 3.265 943.43844
pair_coeff         1 10 buck/long/coul/long 20010.424 2.790 943.43844
pair_coeff         1 2 buck/long/coul/long 151480.54 3.995 1627.7890
pair_coeff         1 3 buck/long/coul/long 70571.228 3.280 1627.7890
pair_coeff         1 4 buck/long/coul/long 460219.42 4.370 1627.7890
pair_coeff         1 5 buck/long/coul/long 5085.8640 2.315 1627.7890

# melt crystalline guest molecules
unfix              1
run                0
WARNING: No fixes defined, atoms won't move (../verlet.cpp:55)
PPPMDisp initialization ...
  Coulomb G vector (1/distance) = 0.264777
  Coulomb grid = 30 50 30
  Coulomb stencil order = 5
  Coulomb estimated absolute RMS force accuracy = 0.000346238
  Coulomb estimated relative force accuracy = 1.04269e-06
  using double precision FFTs
  3d grid and FFT values/proc = 78033 45000
Neighbor list info ...
  3 neighbor list requests
  update every 1 steps, delay 0 steps, check yes
  max neighbors/atom: 2000, page size: 100000
  master list distance cutoff = 14.8
  ghost atom cutoff = 14.8
  binsize = 7.4 -> bins = 4 7 4
Memory usage per processor = 12.3698 Mbytes
Step Temp E_pair E_mol TotEng comT[1] comT[2] comT[3] comG[1] comG[2] comG[3] comM[1] comM[2] comM[3] 
   20000    1.7548195     61116192            0     61116199    12.677413    22.411934    14.181707    19.143522     33.42387    8.8872727    12.612127     22.30075    14.235163 
Loop time of 1.09673e-05 on 1 procs for 0 steps with 1307 atoms

0.0% CPU use with 1 MPI tasks x no OpenMP threads

MPI task timing breakdown:
Section |  min time  |  avg time  |  max time  |%varavg| %total
---------------------------------------------------------------
Pair    | 0          | 0          | 0          |   0.0 |  0.00
Bond    | 0          | 0          | 0          |   0.0 |  0.00
Kspace  | 0          | 0          | 0          |   0.0 |  0.00
Neigh   | 0          | 0          | 0          |   0.0 |  0.00
Comm    | 0          | 0          | 0          |   0.0 |  0.00
Output  | 0          | 0          | 0          |   0.0 |  0.00
Modify  | 0          | 0          | 0          |   0.0 |  0.00
Other   |            | 1.097e-05  |            |       |100.00

Nlocal:    1307 ave 1307 max 1307 min
Histogram: 1 0 0 0 0 0 0 0 0 0
Nghost:    7919 ave 7919 max 7919 min
Histogram: 1 0 0 0 0 0 0 0 0 0
Neighs:    490887 ave 490887 max 490887 min
Histogram: 1 0 0 0 0 0 0 0 0 0

Total # of neighbors = 490887
Ave neighs/atom = 375.583
Ave special neighs/atom = 0
Neighbor list builds = 0
Dangerous builds = 0
velocity           GUEST create 1000 1738
fix                3 GUEST nvt temp 1000 1000 100.0
run                40000
PPPMDisp initialization ...
  Coulomb G vector (1/distance) = 0.264777
  Coulomb grid = 30 50 30
  Coulomb stencil order = 5
  Coulomb estimated absolute RMS force accuracy = 0.000346238
  Coulomb estimated relative force accuracy = 1.04269e-06
  using double precision FFTs
  3d grid and FFT values/proc = 78033 45000
Memory usage per processor = 12.3698 Mbytes
Step Temp E_pair E_mol TotEng comT[1] comT[2] comT[3] comG[1] comG[2] comG[3] comM[1] comM[2] comM[3] 
   20000    7.6569678     61116192            0     61116222    12.677413    22.411934    14.181707    19.143522     33.42387    8.8872727    12.612127     22.30075    14.235163 
   20200    1111.5107     59214314            0     59218641    12.683224    22.410247     14.17876    19.724797    33.255063    8.5924363    12.612127     22.30075    14.235163 
   20400    406.64072     59214861            0     59216444    12.683168     22.41019    14.179136    19.719261    33.249383    8.6300437    12.612127     22.30075    14.235163 
   20600    523.46414     59215891            0     59217929    12.683444    22.410507    14.178304    19.746825    33.281041     8.546847    12.612127     22.30075    14.235163 
   20800    731.09105     59212791            0     59215637    12.683287    22.410368     14.17914    19.731183    33.267129    8.6304176    12.612127     22.30075    14.235163 
   21000    500.74102     59215305            0     59217255    12.683409    22.410323    14.178919    19.743325    33.262668    8.6083361    12.612127     22.30075    14.235163 
   21200    640.20184     59215186            0     59217678    12.683281    22.410461    14.179017    19.730545    33.276441    8.6181746    12.612127     22.30075    14.235163 
   21400    467.73046     59214900            0     59216721    12.683178     22.41023    14.178664    19.720248    33.253341    8.5828046    12.612127     22.30075    14.235163 
   21600    499.64407     59214471            0     59216416    12.683074    22.410354    14.178862    19.709793    33.265745    8.6026078    12.612127     22.30075    14.235163 
   21800    481.99968     59214199            0     59216075    12.683413    22.410356    14.178906    19.743737    33.265923    8.6070809    12.612127     22.30075    14.235163 
   22000    684.24919     59213299            0     59215963    12.683275    22.410476    14.178826    19.729929    33.277955    8.5990804    12.612127     22.30075    14.235163 
   22200    750.13238     59212296            0     59215216    12.683175    22.410371    14.178792    19.719922    33.267432    8.5956798    12.612127     22.30075    14.235163 
   22400     539.1129     59215296            0     59217395    12.683363     22.41039    14.178415    19.738717    33.269347    8.5579278    12.612127     22.30075    14.235163 
   22600     479.4752     59214428            0     59216295     12.68343    22.410365    14.178494    19.745431    33.266864    8.5658653    12.612127     22.30075    14.235163 
   22800    691.19974     59214245            0     59216936    12.683235    22.410438    14.178667    19.725929    33.274204    8.5831923    12.612127     22.30075    14.235163 
   23000    484.24856     59213638            0     59215523    12.683293    22.410352    14.178993    19.731716    33.265592    8.6157927    12.612127     22.30075    14.235163 
   23200    444.11628     59214573            0     59216302    12.683119    22.410543    14.179495    19.714382    33.284628    8.6660291    12.612127     22.30075    14.235163 
   23400    606.44299     59214450            0     59216811    12.683377    22.410372    14.178944    19.740115    33.267518     8.610861    12.612127     22.30075    14.235163 
   23600    451.90288     59214512            0     59216271    12.683347    22.410374    14.178501    19.737118    33.267807    8.5665502    12.612127     22.30075    14.235163 
   23800      617.923     59213176            0     59215582    12.683311    22.410356    14.178976    19.733522    33.265922    8.6140478    12.612127     22.30075    14.235163 
   24000    281.14144     59212019            0     59213113    12.683352    22.410489    14.178773    19.737655     33.27928    8.5937139    12.612127     22.30075    14.235163 
   24200    582.88933     59212916            0     59215185    12.683281    22.410353    14.178807    19.730567    33.265689     8.597161    12.612127     22.30075    14.235163 
   24400     679.5706     59213280            0     59215926    12.683452     22.41048     14.17909    19.747666    33.278407    8.6255114    12.612127     22.30075    14.235163 
   24600    419.67044     59214154            0     59215787    12.683296    22.410326    14.179186    19.731997    33.262939    8.6350417    12.612127     22.30075    14.235163 
   24800    375.10642     59215617            0     59217077      12.6833    22.410339    14.178117    19.732483    33.264287     8.528153    12.612127     22.30075    14.235163 
   25000    411.75306     59213959            0     59215561    12.683278    22.410416    14.179444    19.730257     33.27201    8.6608711    12.612127     22.30075    14.235163 
   25200    527.88414     59211654            0     59213709    12.683303    22.410266    14.178925    19.732766    33.256924    8.6090035    12.612127     22.30075    14.235163 
   25400    461.60588     59215071            0     59216868    12.683404    22.410382    14.178666    19.742804    33.268553    8.5830162    12.612127     22.30075    14.235163 
   25600    432.34701     59213542            0     59215225    12.683441    22.410474    14.178968    19.746589      33.2778    8.6132365    12.612127     22.30075    14.235163 
   25800    399.70488     59212965            0     59214521    12.683281    22.410481    14.179023    19.730539    33.278441    8.6187654    12.612127     22.30075    14.235163 
   26000    557.36047     59213609            0     59215779    12.683271    22.410129     14.17892    19.729521     33.24324    8.6084174    12.612127     22.30075    14.235163 
   26200    224.95984     59213490            0     59214366    12.683076    22.410427    14.178941    19.709988    33.273097    8.6105893    12.612127     22.30075    14.235163 
   26400    586.35182     59213075            0     59215357    12.683205    22.410351    14.179065    19.722897    33.265487    8.6229552    12.612127     22.30075    14.235163 
   26600    416.91446     59214365            0     59215988    12.683312    22.410344    14.179001     19.73364    33.264714    8.6165744    12.612127     22.30075    14.235163 
   26800    473.05756     59212620            0     59214462    12.683257    22.410296    14.178699    19.728109    33.259994    8.5863177    12.612127     22.30075    14.235163 
   27000    760.29308     59214810            0     59217770    12.683399    22.410355    14.179165    19.742364    33.265874    8.6329798    12.612127     22.30075    14.235163 
   27200    458.06966     59214098            0     59215882    12.683349    22.410206    14.179137    19.737325    33.250965    8.6301745    12.612127     22.30075    14.235163 
   27400    529.94876     59213268            0     59215331    12.683228    22.410283    14.178851     19.72528     33.25862     8.601524    12.612127     22.30075    14.235163 
   27600    597.54512     59213586            0     59215912    12.683285    22.410358    14.179572    19.730962    33.266176    8.6737248    12.612127     22.30075    14.235163 
   27800    896.32977     59213624            0     59217113    12.683436    22.410359    14.179295    19.746066    33.266244    8.6460056    12.612127     22.30075    14.235163 
   28000    638.82038     59211641            0     59214128    12.683269    22.410407    14.178872    19.729386    33.271104     8.603681    12.612127     22.30075    14.235163 
   28200    653.82814     59212871            0     59215416    12.683526    22.410339    14.179025    19.755053    33.264239    8.6189678    12.612127     22.30075    14.235163 
   28400    678.81253     59213971            0     59216614    12.683398    22.410347    14.178906    19.742255    33.265062     8.607034    12.612127     22.30075    14.235163 
   28600    469.11347     59211701            0     59213527    12.683212    22.410255    14.178928    19.723684    33.255822    8.6092267    12.612127     22.30075    14.235163 
   28800     452.1284     59214191            0     59215951    12.683384    22.410454    14.179133    19.740835    33.275764    8.6297335    12.612127     22.30075    14.235163 
   29000    458.01287     59212116            0     59213899     12.68339    22.410363    14.178984    19.741485    33.266631    8.6148363    12.612127     22.30075    14.235163 
   29200    482.74297     59213639            0     59215518    12.683262     22.41026    14.179084    19.728658     33.25635    8.6248213    12.612127     22.30075    14.235163 
   29400    271.19482     59214882            0     59215938    12.683226    22.410456    14.178204    19.725088    33.275984    8.5368444    12.612127     22.30075    14.235163 
   29600    391.60616     59213928            0     59215452    12.683439    22.410431    14.179095    19.746372    33.273489    8.6259497    12.612127     22.30075    14.235163 
   29800    440.36237     59214982            0     59216696    12.683282    22.410383    14.179321    19.730633    33.268675    8.6486197    12.612127     22.30075    14.235163 
   30000    474.47391     59215351            0     59217198    12.683252    22.410478    14.178865    19.727676    33.278191    8.6029162    12.612127     22.30075    14.235163 
   30200    594.20089     59212250            0     59214563    12.683225    22.410381    14.178968    19.724923    33.268493    8.6132805    12.612127     22.30075    14.235163 
   30400    583.39175     59213359            0     59215630    12.683424    22.410485    14.179206     19.74489    33.278879    8.6370979    12.612127     22.30075    14.235163 
   30600    580.28896     59213403            0     59215662    12.683455    22.410421     14.17849    19.747922    33.272492     8.565436    12.612127     22.30075    14.235163 
   30800    551.93357     59211598            0     59213747    12.683185    22.410399    14.179057    19.720931     33.27029    8.6221814    12.612127     22.30075    14.235163 
   31000    387.06646     59213176            0     59214682     12.68331    22.410238    14.178883    19.733409    33.254168    8.6047123    12.612127     22.30075    14.235163 
   31200    686.28636     59214304            0     59216976    12.683419    22.410412    14.179256    19.744385    33.271548    8.6420499    12.612127     22.30075    14.235163 
   31400    809.69368     59214471            0     59217624    12.683393    22.410203     14.17907    19.741761    33.250617    8.6235098    12.612127     22.30075    14.235163 
   31600    343.95731     59214527            0     59215867    12.683244    22.410208    14.179251    19.726878    33.251129    8.6415884    12.612127     22.30075    14.235163 
   31800    538.05329     59214532            0     59216626    12.683226    22.410309    14.178848    19.725053    33.261284    8.6012597    12.612127     22.30075    14.235163 
   32000    500.64236     59212042            0     59213991    12.683211    22.410318    14.178762    19.723494    33.262202    8.5926376    12.612127     22.30075    14.235163 
   32200    695.75677     59212929            0     59215638     12.68333    22.410196    14.179377    19.735495    33.249913    8.6541838    12.612127     22.30075    14.235163 
   32400    397.85514     59214579            0     59216127    12.683356    22.410303    14.179225    19.738066    33.260704    8.6389406    12.612127     22.30075    14.235163 
   32600    261.23941     59213471            0     59214488    12.683414    22.410272    14.178587    19.743828    33.257569    8.5751278    12.612127     22.30075    14.235163 
   32800    356.04244     59214327            0     59215713    12.683303     22.41026    14.178747    19.732744    33.256404    8.5911845    12.612127     22.30075    14.235163 
   33000    547.87168     59213264            0     59215396    12.683273    22.410215    14.179009    19.729741    33.251843    8.6173489    12.612127     22.30075    14.235163 
   33200    376.39568     59212728            0     59214193    12.683286    22.410514    14.179404     19.73108    33.281778    8.6568889    12.612127     22.30075    14.235163 
   33400    469.15663     59214206            0     59216033    12.683259    22.410393    14.178827    19.728316    33.269703    8.5991995    12.612127     22.30075    14.235163 
   33600    435.86501     59211725            0     59213422    12.683375    22.410433    14.179005     19.73999    33.273648    8.6169679    12.612127     22.30075    14.235163 
   33800    366.76762     59212413            0     59213841    12.683207    22.410375    14.179184    19.723134    33.267871    8.6348846    12.612127     22.30075    14.235163 
   34000    582.50868     59213342            0     59215610    12.683216    22.410299    14.178818    19.724061    33.260291    8.5982208    12.612127     22.30075    14.235163 
   34200     275.7571     59212372            0     59213446    12.683401    22.410319    14.178609    19.742501    33.262281     8.577381    12.612127     22.30075    14.235163 
   34400    394.06465     59213213            0     59214747    12.683398    22.410332    14.178987    19.742208    33.263595    8.6151985    12.612127     22.30075    14.235163 
   34600    341.58875     59212320            0     59213650     12.68328    22.410195    14.179003    19.730428     33.24989    8.6167106    12.612127     22.30075    14.235163 
   34800    531.02728     59212195            0     59214262    12.683228    22.410492    14.179015    19.725223    33.279581    8.6179154    12.612127     22.30075    14.235163 
   35000    374.69637     59215061            0     59216519    12.683257    22.410169    14.178746    19.728161    33.247223    8.5910668    12.612127     22.30075    14.235163 
   35200    564.06575     59215215            0     59217411    12.683442    22.410268    14.178802    19.746643    33.257132    8.5966607    12.612127     22.30075    14.235163 
   35400    586.35592     59214722            0     59217004    12.683385    22.410388    14.179853    19.740944     33.26913    8.7017743    12.612127     22.30075    14.235163 
   35600     449.9276     59213692            0     59215444    12.683363     22.41038    14.179761    19.738781    33.268343    8.6925751    12.612127     22.30075    14.235163 
   35800    513.76167     59214654            0     59216654    12.683348     22.41037    14.178808    19.737232    33.267317    8.5972502    12.612127     22.30075    14.235163 
   36000    600.93349     59212611            0     59214950    12.683222    22.410425    14.178701    19.724642    33.272888    8.5865699    12.612127     22.30075    14.235163 
   36200    541.97737     59212823            0     59214933    12.683282    22.410247     14.17948    19.730604    33.255095    8.6645259    12.612127     22.30075    14.235163 
   36400     602.5638     59212577            0     59214923     12.68336    22.410262    14.178995    19.738457    33.256566    8.6159801    12.612127     22.30075    14.235163 
   36600    294.48908     59213795            0     59214941    12.683313    22.410451    14.178904    19.733746    33.275502     8.606841    12.612127     22.30075    14.235163 
   36800    692.97995     59213852            0     59216550    12.683358    22.410346    14.178958    19.738254    33.264937     8.612256    12.612127     22.30075    14.235163 
   37000      497.213     59213550            0     59215485    12.683265    22.410387    14.178854    19.728982    33.269066    8.6018525    12.612127     22.30075    14.235163 
   37200    317.15329     59215245            0     59216479    12.683411    22.410293    14.178178    19.743535    33.259698    8.5341993    12.612127     22.30075    14.235163 
   37400    669.30986     59214678            0     59217284    12.683359    22.410438    14.179121    19.738341    33.274165     8.628524    12.612127     22.30075    14.235163 
   37600    450.16085     59214562            0     59216315    12.683276    22.410467     14.17909    19.730026    33.277101    8.6254746    12.612127     22.30075    14.235163 
   37800    432.88171     59213132            0     59214817    12.683344    22.410271    14.178955    19.736843     33.25746    8.6119105    12.612127     22.30075    14.235163 
   38000    322.69495     59213810            0     59215066    12.683285    22.410279    14.178901    19.730908    33.258297    8.6065074    12.612127     22.30075    14.235163 
   38200    350.64248     59212609            0     59213974    12.683311    22.410283    14.178723    19.733516    33.258681    8.5887148    12.612127     22.30075    14.235163 
   38400    735.07133     59214155            0     59217017    12.683246    22.410368     14.17896     19.72708    33.267175    8.6124588    12.612127     22.30075    14.235163 
   38600    406.25125     59212324            0     59213905      12.6833    22.410289    14.179028    19.732422    33.259285    8.6192409    12.612127     22.30075    14.235163 
   38800    683.65617     59213304            0     59215965    12.683379    22.410323    14.179125    19.740379    33.262633    8.6289487    12.612127     22.30075    14.235163 
   39000    325.95426     59212132            0     59213401     12.68322    22.410277    14.178904    19.724465    33.258055    8.6068903    12.612127     22.30075    14.235163 
   39200    418.30734     59213120            0     59214748    12.683302    22.410539     14.17936    19.732681     33.28425     8.652452    12.612127     22.30075    14.235163 
   39400    336.98121     59212603            0     59213915    12.683382    22.410262    14.178963    19.740681    33.256565    8.6127408    12.612127     22.30075    14.235163 
   39600    424.71518     59214019            0     59215672    12.683447    22.410484    14.178903    19.747168    33.278746    8.6067236    12.612127     22.30075    14.235163 
   39800    375.59327     59212525            0     59213987    12.683509    22.410441    14.179128    19.753335    33.274439    8.6292905    12.612127     22.30075    14.235163 
   40000    395.97846     59213904            0     59215446    12.683233    22.410282    14.178736    19.725761    33.258526    8.5900962    12.612127     22.30075    14.235163 
   40200    654.28618     59215034            0     59217581    12.683213    22.410644    14.178911    19.723775    33.294796    8.6075482    12.612127     22.30075    14.235163 
   40400    351.05489     59214250            0     59215617    12.683335    22.410366    14.179458     19.73593    33.266919    8.6622542    12.612127     22.30075    14.235163 
   40600     656.2883     59213732            0     59216287    12.683223    22.410177    14.178511    19.724752    33.248071    8.5675769    12.612127     22.30075    14.235163 
   40800    372.52594     59212137            0     59213588    12.683402    22.410297    14.179213    19.742663    33.260006    8.6378127    12.612127     22.30075    14.235163 
   41000    447.59371     59212219            0     59213962    12.683416    22.410334    14.178724    19.744073    33.263727    8.5888272    12.612127     22.30075    14.235163 
   41200    477.97089     59214609            0     59216469     12.68329    22.410544    14.179205    19.731396    33.284742    8.6370029    12.612127     22.30075    14.235163 
   41400    366.07978     59213284            0     59214709    12.683276    22.410452    14.179184    19.730091    33.275519     8.634832    12.612127     22.30075    14.235163 
   41600    307.95428     59212715            0     59213914    12.683421    22.410318    14.179275    19.744565    33.262111    8.6440124    12.612127     22.30075    14.235163 
   41800    717.08879     59211969            0     59214761     12.68333    22.410284    14.178524    19.735492    33.258709    8.5688686    12.612127     22.30075    14.235163 
   42000    478.54527     59213556            0     59215419    12.683191     22.41034    14.179439    19.721499    33.264351    8.6603925    12.612127     22.30075    14.235163 
   42200    447.07582     59211599            0     59213340    12.683222    22.410356    14.178926    19.724628    33.265919     8.609062    12.612127     22.30075    14.235163 
   42400    497.09384     59212953            0     59214888    12.683241    22.410406     14.17876    19.726556    33.270998    8.5924685    12.612127     22.30075    14.235163 
   42600    541.00329     59213012            0     59215118    12.683285    22.410307    14.178892    19.730991    33.261028    8.6056913    12.612127     22.30075    14.235163 
   42800    495.15746     59212827            0     59214755    12.683573    22.410404    14.178771    19.759746    33.270762    8.5935566    12.612127     22.30075    14.235163 
   43000    426.33869     59212632            0     59214291    12.683275    22.410313    14.179237    19.729913    33.261645    8.6401645    12.612127     22.30075    14.235163 
   43200    524.94934     59214656            0     59216699    12.683261    22.410323    14.178507    19.728539     33.26265    8.5671059    12.612127     22.30075    14.235163 
   43400    621.73062     59216435            0     59218855    12.683343    22.410417    14.178626    19.736728     33.27206    8.5790759    12.612127     22.30075    14.235163 
   43600    363.46971     59212935            0     59214350    12.683317    22.410441    14.179139    19.734175    33.274495    8.6303577    12.612127     22.30075    14.235163 
   43800    476.54433     59214186            0     59216041    12.683317    22.410187    14.178705    19.734112    33.249004    8.5869339    12.612127     22.30075    14.235163 
   44000    569.62454     59214746            0     59216963    12.683263    22.410423    14.179902    19.728758     33.27264    8.7066545    12.612127     22.30075    14.235163 
   44200    535.72731     59212538            0     59214624    12.683263    22.410271    14.179403    19.728741    33.257439    8.6567933    12.612127     22.30075    14.235163 
   44400     537.4547     59214085            0     59216178    12.683183    22.410298    14.179278    19.720783    33.260203    8.6443023    12.612127     22.30075    14.235163 
   44600    528.98972     59213787            0     59215847    12.683179    22.410206    14.178722    19.720312    33.250922    8.5886788    12.612127     22.30075    14.235163 
   44800    332.32311     59213198            0     59214491     12.68333    22.410329    14.178888    19.735427    33.263226    8.6052528    12.612127     22.30075    14.235163 
   45000    391.61821     59212706            0     59214231    12.683242     22.41043    14.178821    19.726596    33.273366    8.5985769    12.612127     22.30075    14.235163 
   45200    637.85693     59213418            0     59215901    12.683211    22.410314    14.179075    19.723572    33.261772    8.6239268    12.612127     22.30075    14.235163 
   45400    346.52326     59215006            0     59216355    12.683239    22.410311    14.178348    19.726349    33.261445    8.5512431    12.612127     22.30075    14.235163 
   45600    446.24112     59212239            0     59213977    12.683373    22.410298    14.179177    19.739702    33.260158    8.6341326    12.612127     22.30075    14.235163 
   45800    506.04499     59214023            0     59215993     12.68324     22.41037    14.179558    19.726454    33.267332    8.6722638    12.612127     22.30075    14.235163 
   46000    505.84206     59213434            0     59215403    12.683171    22.410421    14.178972    19.719544    33.272485    8.6136274    12.612127     22.30075    14.235163 
   46200    389.15095     59213420            0     59214934     12.68327    22.410352     14.17927    19.729465    33.265511    8.6434385    12.612127     22.30075    14.235163 
   46400       650.67     59212856            0     59215389    12.683292    22.410375    14.178619    19.731633    33.267823    8.5783099    12.612127     22.30075    14.235163 
   46600     384.4642     59212444            0     59213941    12.683343    22.410369    14.179409    19.736766    33.267238    8.6573994    12.612127     22.30075    14.235163 
   46800    494.27729     59213056            0     59214981    12.683234    22.410274     14.17903    19.725809    33.257787     8.619464    12.612127     22.30075    14.235163 
   47000    273.40061     59212787            0     59213852    12.683345    22.410227    14.178915    19.736974    33.253082    8.6079084    12.612127     22.30075    14.235163 
   47200    428.97836     59213613            0     59215283      12.6834    22.410252     14.17894    19.742457    33.255588    8.6104688    12.612127     22.30075    14.235163 
   47400    303.00046     59215298            0     59216477    12.683274    22.410378    14.179554    19.729879    33.268114    8.6719248    12.612127     22.30075    14.235163 
   47600    373.70784     59212229            0     59213684    12.683302    22.410506    14.179007    19.732674    33.280974    8.6171862    12.612127     22.30075    14.235163 
   47800    410.45253     59212093            0     59213691    12.683373    22.410356    14.178981    19.739781    33.265942    8.6145138    12.612127     22.30075    14.235163 
   48000    370.08053     59212796            0     59214237    12.683265    22.410252    14.178995    19.728931    33.255556    8.6159459    12.612127     22.30075    14.235163 
   48200    305.45141     59212443            0     59213632    12.683264    22.410407    14.178898    19.728875    33.271068    8.6062842    12.612127     22.30075    14.235163 
   48400    690.50741     59214032            0     59216720    12.683316    22.410337    14.179096    19.734058    33.264068    8.6260605    12.612127     22.30075    14.235163 
   48600    464.03162     59212815            0     59214622    12.683255    22.410477    14.178721    19.727917    33.278061    8.5885567    12.612127     22.30075    14.235163 
   48800    497.82918     59212500            0     59214438      12.6834    22.410313     14.17924    19.742462    33.261679    8.6404322    12.612127     22.30075    14.235163 
   49000    273.54347     59214530            0     59215595    12.683354    22.410397    14.179398    19.737824    33.270031    8.6562877    12.612127     22.30075    14.235163 
   49200     394.3181     59211961            0     59213496    12.683324    22.410376    14.179045    19.734862    33.267913    8.6209507    12.612127     22.30075    14.235163 
   49400    358.14528     59212769            0     59214163    12.683432     22.41046    14.178926    19.745605    33.276321    8.6090429    12.612127     22.30075    14.235163 
   49600     460.5395     59214945            0     59216738    12.683297    22.410286    14.179103    19.732191    33.258947     8.626745    12.612127     22.30075    14.235163 
   49800    334.12679     59213659            0     59214960    12.683358    22.410246    14.178899    19.738256    33.254997    8.6063322    12.612127     22.30075    14.235163 
   50000    392.65206     59213084            0     59214613     12.68343    22.410243    14.178528    19.745445    33.254699    8.5692783    12.612127     22.30075    14.235163 
   50200    374.72727     59214182            0     59215641    12.683357    22.410181    14.178655    19.738178    33.248483    8.5819753    12.612127     22.30075    14.235163 
   50400    667.33551     59213026            0     59215624     12.68328    22.410352     14.17914    19.730457    33.265577    8.6304967    12.612127     22.30075    14.235163 
   50600    449.16899     59212897            0     59214645    12.683159    22.410326    14.179083     19.71836    33.262947    8.6247213    12.612127     22.30075    14.235163 
   50800    546.53796     59212108            0     59214235    12.683461    22.410312    14.179049    19.748524    33.261606    8.6213784    12.612127     22.30075    14.235163 
   51000    469.27503     59214675            0     59216502    12.683371    22.410346    14.178414    19.739545    33.264911    8.5578168    12.612127     22.30075    14.235163 
   51200    518.41684     59215250            0     59217268    12.683243    22.410331    14.178576    19.726742    33.263442    8.5740692    12.612127     22.30075    14.235163 
   51400    375.91825     59212968            0     59214431     12.68321    22.410323    14.178717    19.723412    33.262696    8.5881004    12.612127     22.30075    14.235163 
   51600    816.56293     59213405            0     59216584     12.68335    22.410258    14.178682    19.737457    33.256158    8.5846696    12.612127     22.30075    14.235163 
   51800    672.99578     59213663            0     59216283    12.683247    22.410417    14.178987      19.7271    33.272018    8.6151516    12.612127     22.30075    14.235163 
   52000    426.38123     59214173            0     59215833     12.68334    22.410285    14.178436    19.736452    33.258829    8.5600563    12.612127     22.30075    14.235163 
   52200    427.44946     59211983            0     59213647     12.68331     22.41017    14.178935    19.733443    33.247309    8.6099325    12.612127     22.30075    14.235163 
   52400    395.14139     59212583            0     59214122    12.683288    22.410369     14.17886    19.731203    33.267249     8.602431    12.612127     22.30075    14.235163 
   52600    335.70472     59213121            0     59214428    12.683118    22.410309    14.178663    19.714283    33.261283    8.5827643    12.612127     22.30075    14.235163 
   52800    470.01853     59212259            0     59214089    12.683414     22.41032    14.178436    19.743864    33.262334    8.5600201    12.612127     22.30075    14.235163 
   53000    398.32113     59212826            0     59214376    12.683208    22.410346    14.178622    19.723207    33.264962    8.5786006    12.612127     22.30075    14.235163 
   53200    289.53607     59212105            0     59213232    12.683286    22.410361    14.178952    19.731017    33.266465    8.6116382    12.612127     22.30075    14.235163 
   53400     496.1484     59215023            0     59216954    12.683354    22.410507    14.179015    19.737803    33.281076     8.617961    12.612127     22.30075    14.235163 
   53600    547.65064     59212210            0     59214342    12.683342    22.410357    14.178958    19.736652    33.266037    8.6123009    12.612127     22.30075    14.235163 
   53800    299.97765     59213721            0     59214889     12.68328    22.410304    14.178739    19.730453    33.260766    8.5903372    12.612127     22.30075    14.235163 
   54000    559.42956     59214103            0     59216281     12.68332    22.410335    14.179255    19.734486    33.263838    8.6420191    12.612127     22.30075    14.235163 
   54200     301.7713     59213977            0     59215151     12.68333    22.410339    14.178841    19.735464    33.264306    8.6005575    12.612127     22.30075    14.235163 
   54400    624.57604     59212677            0     59215108    12.683376    22.410288    14.179074    19.740016    33.259155    8.6238987    12.612127     22.30075    14.235163 
   54600    456.32081     59214515            0     59216292    12.683402     22.41038    14.179276    19.742671    33.268389    8.6440664    12.612127     22.30075    14.235163 
   54800    380.88722     59212529            0     59214012    12.683351    22.410419    14.178959    19.737595    33.272242    8.6123796    12.612127     22.30075    14.235163 
   55000    429.26524     59214755            0     59216426    12.683371    22.410322    14.178961    19.739577    33.262583    8.6125606    12.612127     22.30075    14.235163 
   55200    622.42218     59213908            0     59216332    12.683298    22.410253    14.178501     19.73226    33.255674    8.5665313    12.612127     22.30075    14.235163 
   55400    472.78911     59214097            0     59215937    12.683509    22.410545    14.179048    19.753403    33.284825    8.6212661    12.612127     22.30075    14.235163 
   55600    372.06582     59213377            0     59214826    12.683327    22.410237    14.178921    19.735181     33.25402    8.6085844    12.612127     22.30075    14.235163 
   55800    421.01493     59211630            0     59213269     12.68328     22.41036    14.178818    19.730425    33.266396    8.5982386    12.612127     22.30075    14.235163 
   56000    512.94748     59213052            0     59215049    12.683321    22.410302    14.178823    19.734552    33.260583    8.5987347    12.612127     22.30075    14.235163 
   56200    301.52248     59212793            0     59213966    12.683368    22.410456    14.179281    19.739201    33.275993    8.6445395    12.612127     22.30075    14.235163 
   56400    556.81318     59212689            0     59214856    12.683303    22.410365    14.178581    19.732761    33.266851    8.5745864    12.612127     22.30075    14.235163 
   56600    301.15087     59212475            0     59213647    12.683347    22.410345    14.179356    19.737193    33.264906    8.6520261    12.612127     22.30075    14.235163 
   56800    355.03643     59213918            0     59215300    12.683225     22.41033    14.179138    19.724945    33.263381    8.6302314    12.612127     22.30075    14.235163 
   57000    543.44428     59213096            0     59215212    12.683424    22.410394    14.179313    19.744822    33.269782    8.6477733    12.612127     22.30075    14.235163 
   57200    561.16432     59211666            0     59213851    12.683225     22.41028    14.178767    19.724908    33.258387      8.59313    12.612127     22.30075    14.235163 
   57400    482.47132     59212691            0     59214569    12.683143    22.410328    14.178897     19.71673    33.263187    8.6061994    12.612127     22.30075    14.235163 
   57600    396.36668     59213466            0     59215010    12.683305    22.410353    14.179157    19.732936    33.265664     8.632187    12.612127     22.30075    14.235163 
   57800    484.77381     59213073            0     59214960    12.683415    22.410295    14.179049       19.744     33.25987    8.6213152    12.612127     22.30075    14.235163 
   58000    452.60364     59213584            0     59215346    12.683242    22.410377     14.17961    19.726615    33.268066    8.6774995    12.612127     22.30075    14.235163 
   58200    416.56669     59212905            0     59214527    12.683337    22.410362      14.1795    19.736156    33.266594    8.6664411    12.612127     22.30075    14.235163 
   58400    529.17882     59212080            0     59214140    12.683263    22.410419     14.17854    19.728792    33.272262    8.5704348    12.612127     22.30075    14.235163 
   58600    286.75402     59213380            0     59214496    12.683247    22.410399     14.17837    19.727131    33.270245    8.5534765    12.612127     22.30075    14.235163 
   58800    380.04316     59212762            0     59214241    12.683313    22.410422    14.178899    19.733769    33.272522    8.6063893    12.612127     22.30075    14.235163 
   59000    415.92245     59214337            0     59215956    12.683325    22.410302    14.178492    19.734961    33.260582    8.5656054    12.612127     22.30075    14.235163 
   59200    382.81332     59213187            0     59214677    12.683451    22.410315    14.178795    19.747541    33.261847    8.5959325    12.612127     22.30075    14.235163 
   59400    401.45839     59213992            0     59215555    12.683357    22.410208    14.179174    19.738188    33.251172    8.6338965    12.612127     22.30075    14.235163 
   59600    501.42409     59212639            0     59214591    12.683366    22.410251     14.17904    19.739072    33.255482    8.6204538    12.612127     22.30075    14.235163 
   59800    321.86864     59212682            0     59213935    12.683209    22.410315    14.178553     19.72334    33.261883    8.5717401    12.612127     22.30075    14.235163 
   60000    353.80924     59213577            0     59214954    12.683311    22.410365    14.178632    19.733525    33.266845     8.579653    12.612127     22.30075    14.235163 
Loop time of 499.637 on 1 procs for 40000 steps with 1307 atoms

Performance: 3.459 ns/day, 6.939 hours/ns, 80.058 timesteps/s
100.0% CPU use with 1 MPI tasks x no OpenMP threads

MPI task timing breakdown:
Section |  min time  |  avg time  |  max time  |%varavg| %total
---------------------------------------------------------------
Pair    | 255.88     | 255.88     | 255.88     |   0.0 | 51.21
Bond    | 0.00753    | 0.00753    | 0.00753    |   0.0 |  0.00
Kspace  | 241.75     | 241.75     | 241.75     |   0.0 | 48.38
Neigh   | 0.12616    | 0.12616    | 0.12616    |   0.0 |  0.03
Comm    | 1.1484     | 1.1484     | 1.1484     |   0.0 |  0.23
Output  | 0.01109    | 0.01109    | 0.01109    |   0.0 |  0.00
Modify  | 0.36359    | 0.36359    | 0.36359    |   0.0 |  0.07
Other   |            | 0.352      |            |       |  0.07

Nlocal:    1307 ave 1307 max 1307 min
Histogram: 1 0 0 0 0 0 0 0 0 0
Nghost:    7931 ave 7931 max 7931 min
Histogram: 1 0 0 0 0 0 0 0 0 0
Neighs:    491248 ave 491248 max 491248 min
Histogram: 1 0 0 0 0 0 0 0 0 0

Total # of neighbors = 491248
Ave neighs/atom = 375.859
Ave special neighs/atom = 0
Neighbor list builds = 7
Dangerous builds = 1
write_data         data_melt.data
PPPMDisp initialization ...
  Coulomb G vector (1/distance) = 0.264777
  Coulomb grid = 30 50 30
  Coulomb stencil order = 5
  Coulomb estimated absolute RMS force accuracy = 0.000346238
  Coulomb estimated relative force accuracy = 1.04269e-06
  using double precision FFTs
  3d grid and FFT values/proc = 78033 45000
unfix              3
fix                4 GUEST nvt temp 313 313 100.0

# get MOF COM
compute            MOFCOM MOF com
variable           MOFCOM1 equal c_MOFCOM[1]
variable           MOFCOM2 equal c_MOFCOM[2]
variable           MOFCOM3 equal c_MOFCOM[3]
thermo_style       custom step temp epair emol etotal c_comT[1] c_comT[2] c_comT[3] c_comG[1] c_comG[2] c_comG[3] c_comM[1] c_comM[2] c_comM[3] c_MOFCOM[1] c_MOFCOM[2] c_MOFCOM[3]

# don't make MOF flexible
run                0
PPPMDisp initialization ...
  Coulomb G vector (1/distance) = 0.264777
  Coulomb grid = 30 50 30
  Coulomb stencil order = 5
  Coulomb estimated absolute RMS force accuracy = 0.000346238
  Coulomb estimated relative force accuracy = 1.04269e-06
  using double precision FFTs
  3d grid and FFT values/proc = 78033 45000
Memory usage per processor = 12.3698 Mbytes
Step Temp E_pair E_mol TotEng comT[1] comT[2] comT[3] comG[1] comG[2] comG[3] comM[1] comM[2] comM[3] MOFCOM[1 MOFCOM[2 MOFCOM[3 
   60000    353.80924     59213577            0     59214954    12.683311    22.410365    14.178632    19.733525    33.266845     8.579653    12.612127     22.30075    14.235163    12.612127     22.30075    14.235163 
Loop time of 0 on 1 procs for 0 steps with 1307 atoms

0.0% CPU use with 1 MPI tasks x no OpenMP threads

MPI task timing breakdown:
Section |  min time  |  avg time  |  max time  |%varavg| %total
---------------------------------------------------------------
Pair    | 0          | 0          | 0          |   0.0 |  0.00
Bond    | 0          | 0          | 0          |   0.0 |  0.00
Kspace  | 0          | 0          | 0          |   0.0 |  0.00
Neigh   | 0          | 0          | 0          |   0.0 |  0.00
Comm    | 0          | 0          | 0          |   0.0 |  0.00
Output  | 0          | 0          | 0          |   0.0 |  0.00
Modify  | 0          | 0          | 0          |   0.0 |  0.00
Other   |            | 0          |            |       |  0.00

Nlocal:    1307 ave 1307 max 1307 min
Histogram: 1 0 0 0 0 0 0 0 0 0
Nghost:    7931 ave 7931 max 7931 min
Histogram: 1 0 0 0 0 0 0 0 0 0
Neighs:    491251 ave 491251 max 491251 min
Histogram: 1 0 0 0 0 0 0 0 0 0

Total # of neighbors = 491251
Ave neighs/atom = 375.862
Ave special neighs/atom = 0
Neighbor list builds = 0
Dangerous builds = 0
velocity           GUEST create 313 38564
uncompute          MOFCOM
thermo_style       custom step temp epair emol etotal c_comT[1] c_comT[2] c_comT[3] c_comG[1] c_comG[2] c_comG[3] c_comM[1] c_comM[2] c_comM[3]
# fix                8 MOF recenter INIT INIT INIT shift all # Efrem says: technically should do this to get the diffusion coefficient correct, but not sure it works properly on rigid molecules, and it doesn't make a difference in practice because the drift is so small

# equilibration
run                1000000
PPPMDisp initialization ...
  Coulomb G vector (1/distance) = 0.264777
  Coulomb grid = 30 50 30
  Coulomb stencil order = 5
  Coulomb estimated absolute RMS force accuracy = 0.000346238
  Coulomb estimated relative force accuracy = 1.04269e-06
  using double precision FFTs
  3d grid and FFT values/proc = 78033 45000
Memory usage per processor = 12.3698 Mbytes
Step Temp E_pair E_mol TotEng comT[1] comT[2] comT[3] comG[1] comG[2] comG[3] comM[1] comM[2] comM[3] 
   60000    2.3966309     59213577            0     59213586    12.683311    22.410365    14.178632    19.733525    33.266845     8.579653    12.612127     22.30075    14.235163 
   60200    353.80516     59213227            0     59214604    12.683244    22.410268    14.178783    19.726818    33.257159    8.5947022    12.612127     22.30075    14.235163 
   60400    515.86511     59215118            0     59217126     12.68338    22.410386     14.17874    19.740461    33.268988     8.590449    12.612127     22.30075    14.235163 
   60600    473.08196     59213730            0     59215571    12.683394    22.410369    14.179276     19.74189    33.267292    8.6440623    12.612127     22.30075    14.235163 
   60800    527.42514     59214430            0     59216484     12.68337    22.410409    14.178748    19.739408    33.271275    8.5912447    12.612127     22.30075    14.235163 
   61000    334.12648     59211174            0     59212474    12.683205    22.410309    14.179038    19.722972    33.261219    8.6202619    12.612127     22.30075    14.235163 
   61200    561.39389     59213548            0     59215734     12.68341    22.410395    14.178619    19.743479    33.269885    8.5782953    12.612127     22.30075    14.235163 
   61400    454.06008     59212345            0     59214113    12.683372    22.410363    14.178643    19.739682    33.266626    8.5807083    12.612127     22.30075    14.235163 
   61600    511.44045     59214975            0     59216966     12.68339    22.410188    14.179058    19.741424    33.249104     8.622296    12.612127     22.30075    14.235163 
   61800    393.46335     59214817            0     59216349    12.683303    22.410311    14.178487    19.732708    33.261503     8.565133    12.612127     22.30075    14.235163 
   62000    500.64794     59212616            0     59214565    12.683232    22.410306    14.179208    19.725684    33.260932    8.6372996    12.612127     22.30075    14.235163 
   62200    304.46461     59214067            0     59215252    12.683301    22.410345    14.179128    19.732592    33.264832    8.6292762    12.612127     22.30075    14.235163 
   62400     300.9995     59213472            0     59214644      12.6833    22.410321    14.178818    19.732496    33.262412    8.5982082    12.612127     22.30075    14.235163 
   62600    514.38152     59215271            0     59217273    12.683079    22.410263    14.178491    19.710287     33.25669    8.5655257    12.612127     22.30075    14.235163 
   62800    381.39774     59211151            0     59212636    12.683313    22.410323    14.179109    19.733732    33.262647    8.6273399    12.612127     22.30075    14.235163 
   63000    396.68478     59214272            0     59215816    12.683411    22.410177    14.179145     19.74358    33.248069    8.6309352    12.612127     22.30075    14.235163 
   63200     294.9332     59214310            0     59215458    12.683399    22.410334    14.179112    19.742396    33.263777     8.627615    12.612127     22.30075    14.235163 
   63400     281.6996     59214856            0     59215952    12.683316    22.410348    14.179504    19.734034    33.265163    8.6668359    12.612127     22.30075    14.235163 
   63600    390.23026     59213119            0     59214638    12.683314    22.410328    14.179347    19.733857    33.263168    8.6511552    12.612127     22.30075    14.235163 
   63800    624.34458     59211685            0     59214115    12.683286    22.410328     14.17925    19.731027    33.263149    8.6414876    12.612127     22.30075    14.235163 
   64000    402.27909     59211038            0     59212604    12.683298    22.410327    14.178944     19.73221    33.263068    8.6108321    12.612127     22.30075    14.235163 
   64200    241.57738     59212945            0     59213886    12.683351    22.410468    14.179285    19.737543    33.277137    8.6449427    12.612127     22.30075    14.235163 
   64400    411.25396     59211527            0     59213128    12.683389    22.410342    14.178815    19.741349    33.264535    8.5979603    12.612127     22.30075    14.235163 
   64600    329.13146     59214650            0     59215931    12.683292    22.410287    14.179245    19.731601    33.259017    8.6410135    12.612127     22.30075    14.235163 
   64800    513.85638     59211935            0     59213936    12.683347    22.410307    14.178729    19.737176    33.261008    8.5893013    12.612127     22.30075    14.235163 
   65000    615.37422     59214272            0     59216668    12.683284    22.410359    14.178409    19.730829    33.266239    8.5572936    12.612127     22.30075    14.235163 
   65200    499.76791     59213058            0     59215003    12.683366    22.410368    14.179413    19.739033    33.267146    8.6578154    12.612127     22.30075    14.235163 
   65400    254.12997     59213527            0     59214516    12.683365     22.41045    14.179833    19.738948     33.27534    8.6997672    12.612127     22.30075    14.235163 
   65600    404.67562     59213646            0     59215221    12.683295    22.410427    14.178927    19.731991    33.273017    8.6091666    12.612127     22.30075    14.235163 
   65800    451.32573     59213687            0     59215444     12.68332    22.410401    14.179342    19.734456    33.270496    8.6506601    12.612127     22.30075    14.235163 
   66000    325.25669     59211541            0     59212807    12.683453    22.410362    14.178867    19.747781    33.266593    8.6031425    12.612127     22.30075    14.235163 
   66200    308.88612     59212580            0     59213783     12.68337     22.41028    14.179033    19.739424    33.258349    8.6197839    12.612127     22.30075    14.235163 
   66400    445.45174     59214435            0     59216169    12.683335    22.410331    14.178752    19.735911    33.263479      8.59169    12.612127     22.30075    14.235163 
   66600     347.0287     59212253            0     59213604    12.683364    22.410412    14.178778     19.73883    33.271516    8.5942948    12.612127     22.30075    14.235163 
   66800    313.88766     59213025            0     59214247    12.683304    22.410305      14.1784    19.732827    33.260829    8.5564082    12.612127     22.30075    14.235163 
   67000    440.81616     59212955            0     59214671    12.683221    22.410302    14.178987    19.724502    33.260569    8.6151566    12.612127     22.30075    14.235163 
   67200    573.42002     59213801            0     59216033    12.683373    22.410327    14.178743    19.739742    33.263053    8.5907947    12.612127     22.30075    14.235163 
   67400    442.89782     59214317            0     59216041      12.6834    22.410307    14.177855    19.742493    33.261058    8.5019562    12.612127     22.30075    14.235163 
   67600    306.98306     59213290            0     59214485    12.683332    22.410293    14.178933    19.735663    33.259658    8.6097477    12.612127     22.30075    14.235163 
   67800    257.51484     59213645            0     59214648    12.683267    22.410356    14.178492    19.729173    33.265956    8.5656678    12.612127     22.30075    14.235163 
   68000    428.48841     59214133            0     59215801    12.683272    22.410431     14.17866    19.729668    33.273478    8.5824104    12.612127     22.30075    14.235163 
   68200    343.84688     59211547            0     59212885    12.683391    22.410453    14.179039    19.741585    33.275676    8.6203313    12.612127     22.30075    14.235163 
   68400    398.04348     59212301            0     59213850    12.683278    22.410306    14.178969    19.730256    33.260997    8.6133997    12.612127     22.30075    14.235163 
   68600    480.49135     59211642            0     59213513    12.683314    22.410295     14.17892    19.733801    33.259832    8.6084537    12.612127     22.30075    14.235163 
   68800     273.3379     59213480            0     59214544    12.683183    22.410274    14.179738    19.720711    33.257752    8.6903201    12.612127     22.30075    14.235163 
   69000    246.87603     59213800            0     59214761    12.683295    22.410295    14.179008    19.731962    33.259834    8.6172539    12.612127     22.30075    14.235163 
   69200    406.32096     59214122            0     59215704    12.683281    22.410278    14.179197    19.730519    33.258106    8.6361597    12.612127     22.30075    14.235163 
   69400    350.09652     59213550            0     59214913    12.683292    22.410328    14.178634    19.731656    33.263125    8.5798409    12.612127     22.30075    14.235163 
   69600     240.4715     59212291            0     59213227    12.683333    22.410167    14.178686    19.735775    33.247027    8.5850864    12.612127     22.30075    14.235163 
   69800    297.05895     59213067            0     59214224    12.683401    22.410393     14.17906    19.742523    33.269708     8.622486    12.612127     22.30075    14.235163 
   70000    498.32633     59212899            0     59214839    12.683346    22.410305    14.179106    19.737036    33.260879    8.6270247    12.612127     22.30075    14.235163 
   70200    252.70042     59213024            0     59214008    12.683265    22.410343    14.178408     19.72898    33.264684    8.5571861    12.612127     22.30075    14.235163 
   70400    319.57634     59211666            0     59212910      12.6834    22.410389    14.179022    19.742423    33.269262    8.6186745    12.612127     22.30075    14.235163 
   70600    200.15307     59212302            0     59213081    12.683233    22.410287    14.179286    19.725741    33.259031    8.6450491    12.612127     22.30075    14.235163 
   70800    290.68281     59211192            0     59212323    12.683349     22.41032    14.179013    19.737313    33.262397    8.6178062    12.612127     22.30075    14.235163 
   71000    342.67113     59212686            0     59214020    12.683295    22.410352     14.17892    19.731897    33.265565    8.6085029    12.612127     22.30075    14.235163 
   71200    358.17583     59215170            0     59216564    12.683362    22.410351    14.178293    19.738619     33.26545    8.5457591    12.612127     22.30075    14.235163 
   71400    256.28808     59213627            0     59214625    12.683322    22.410334    14.179467    19.734668    33.263781    8.6631383    12.612127     22.30075    14.235163 
   71600    379.42336     59212900            0     59214377    12.683122    22.410266    14.178576    19.714659    33.256974    8.5740433    12.612127     22.30075    14.235163 
   71800    564.73674     59211223            0     59213422    12.683388    22.410386    14.179116    19.741254    33.269003    8.6280742    12.612127     22.30075    14.235163 
   72000    222.46643     59214431            0     59215297    12.683305    22.410327    14.178793    19.732923    33.263059    8.5957345    12.612127     22.30075    14.235163 
   72200    303.25686     59213052            0     59214232    12.683347    22.410324      14.1794    19.737114     33.26278    8.6564783    12.612127     22.30075    14.235163 
   72400    403.54678     59211690            0     59213261    12.683322    22.410437    14.178969    19.734663    33.274106    8.6134085    12.612127     22.30075    14.235163 
   72600    494.02782     59213035            0     59214958    12.683384    22.410399    14.178337    19.740835     33.27025    8.5501352    12.612127     22.30075    14.235163 
   72800    384.46234     59214125            0     59215621    12.683294    22.410425     14.17879    19.731831     33.27287     8.595456    12.612127     22.30075    14.235163 
   73000    245.89566     59212641            0     59213598    12.683264    22.410382     14.17878    19.728834    33.268585    8.5944149    12.612127     22.30075    14.235163 
   73200    166.39808     59211261            0     59211909    12.683235    22.410402    14.178844    19.725947    33.270578    8.6008412    12.612127     22.30075    14.235163 
   73400    250.51092     59212424            0     59213399    12.683244    22.410361     14.17869    19.726821    33.266491    8.5854965    12.612127     22.30075    14.235163 
   73600     359.4071     59211920            0     59213319    12.683281    22.410343    14.179391     19.73051    33.264667    8.6555395    12.612127     22.30075    14.235163 
   73800    251.43157     59212624            0     59213603    12.683312    22.410369    14.178672    19.733677    33.267252     8.583649    12.612127     22.30075    14.235163 
   74000    567.63455     59212946            0     59215155    12.683363    22.410401    14.178897    19.738725    33.270411    8.6061185    12.612127     22.30075    14.235163 
   74200    195.37453     59212664            0     59213424    12.683319    22.410343    14.179113    19.734361    33.264645    8.6277979    12.612127     22.30075    14.235163 
   74400       261.89     59215968            0     59216987    12.683339    22.410328     14.17899    19.736327    33.263202    8.6154509    12.612127     22.30075    14.235163 
   74600    361.56158     59211743            0     59213151    12.683322    22.410486    14.178964    19.734696    33.279011    8.6128769    12.612127     22.30075    14.235163 
   74800    367.58379     59214809            0     59216240    12.683303    22.410385    14.178825    19.732778    33.268867    8.5989134    12.612127     22.30075    14.235163 
   75000    440.42593     59214681            0     59216396    12.683297    22.410388    14.178654    19.732123    33.269167    8.5818448    12.612127     22.30075    14.235163 
   75200    245.14089     59214129            0     59215084    12.683289    22.410309    14.178614    19.731365    33.261285    8.5778042    12.612127     22.30075    14.235163 
   75400    159.79081     59212310            0     59212932    12.683208    22.410382    14.179084    19.723244    33.268589    8.6248779    12.612127     22.30075    14.235163 
   75600    253.63009     59213527            0     59214515    12.683308    22.410386    14.179252    19.733251    33.269006    8.6416606    12.612127     22.30075    14.235163 
   75800    187.88159     59214223            0     59214955    12.683249     22.41031    14.178613    19.727381    33.261385    8.5776945    12.612127     22.30075    14.235163 
   76000     361.6079     59213882            0     59215290    12.683358    22.410379    14.178901    19.738238    33.268231    8.6065862    12.612127     22.30075    14.235163 
   76200    236.38029     59212596            0     59213516    12.683335    22.410354    14.179468    19.735921     33.26573    8.6632724    12.612127     22.30075    14.235163 
   76400    228.20507     59214059            0     59214948    12.683308    22.410199    14.177972    19.733263     33.25022    8.5135994    12.612127     22.30075    14.235163 
   76600    239.62405     59213492            0     59214425    12.683314    22.410451    14.178207     19.73383    33.275436    8.5371767    12.612127     22.30075    14.235163 
   76800     313.2259     59213486            0     59214706    12.683296    22.410359    14.179503    19.732038    33.266236    8.6668226    12.612127     22.30075    14.235163 
   77000    202.12242     59211836            0     59212622     12.68335    22.410352      14.1787    19.737482    33.265545    8.5864766    12.612127     22.30075    14.235163 
   77200    345.74152     59214122            0     59215468    12.683294    22.410306    14.178169    19.731872    33.260963    8.5333149    12.612127     22.30075    14.235163 
   77400    419.57341     59214907            0     59216541    12.683266     22.41036    14.179138    19.728996     33.26635    8.6302507    12.612127     22.30075    14.235163 
   77600    344.82544     59212540            0     59213882    12.683319    22.410284    14.179419     19.73433    33.258726    8.6584116    12.612127     22.30075    14.235163 
   77800    340.97936     59213594            0     59214921    12.683343      22.4104    14.178392    19.736791    33.270325    8.5556403    12.612127     22.30075    14.235163 
   78000    428.19742     59211879            0     59213546    12.683354    22.410344    14.179339    19.737826    33.264762    8.6504095    12.612127     22.30075    14.235163 
   78200    388.36025     59213053            0     59214565    12.683309    22.410273    14.179177    19.733302    33.257701      8.63413    12.612127     22.30075    14.235163 
   78400    277.39862     59212628            0     59213708    12.683288    22.410347    14.178681    19.731217    33.265076    8.5845404    12.612127     22.30075    14.235163 
   78600    206.42086     59212853            0     59213657    12.683388    22.410307    14.178969    19.741205    33.261047    8.6133528    12.612127     22.30075    14.235163 
   78800    190.41865     59213600            0     59214341    12.683299    22.410291    14.178865    19.732312    33.259502    8.6029318    12.612127     22.30075    14.235163 
   79000    337.71619     59213631            0     59214946    12.683333    22.410425    14.179823    19.735775    33.272889    8.6987926    12.612127     22.30075    14.235163 
   79200    123.49294     59212944            0     59213425    12.683361    22.410398    14.178996    19.738525    33.270174    8.6160466    12.612127     22.30075    14.235163 
   79400    355.16109     59214273            0     59215656    12.683327    22.410381    14.178143    19.735108    33.268425    8.5306829    12.612127     22.30075    14.235163 
   79600    307.87026     59213403            0     59214602    12.683283    22.410361    14.179115    19.730757    33.266431    8.6279879    12.612127     22.30075    14.235163 
   79800    199.19228     59211380            0     59212155    12.683398    22.410339    14.178991    19.742254    33.264251    8.6155588    12.612127     22.30075    14.235163 
   80000    199.51337     59212443            0     59213220     12.68329    22.410353    14.178605    19.731408    33.265675    8.5769127    12.612127     22.30075    14.235163 
   80200    218.90086     59212785            0     59213637    12.683323    22.410408    14.178861    19.734704    33.271182    8.6025908    12.612127     22.30075    14.235163 
   80400    248.85022     59212716            0     59213685     12.68328    22.410431    14.178496    19.730399    33.273468     8.566035    12.612127     22.30075    14.235163 
   80600    229.42794     59213653            0     59214546    12.683316    22.410355    14.178582    19.734021    33.265856    8.5746164    12.612127     22.30075    14.235163 
   80800    235.86839     59212828            0     59213746    12.683354    22.410358    14.178764    19.737881    33.266165    8.5928412    12.612127     22.30075    14.235163 
   81000    431.12149     59212348            0     59214027    12.683317    22.410396    14.178814    19.734132    33.269968    8.5978763    12.612127     22.30075    14.235163 
   81200    232.60895     59212513            0     59213418    12.683291    22.410288     14.17914    19.731549    33.259175    8.6304244    12.612127     22.30075    14.235163 
   81400    368.56635     59214000            0     59215435    12.683238    22.410329    14.178321     19.72625    33.263213    8.5485517    12.612127     22.30075    14.235163 
   81600     265.9843     59213998            0     59215034    12.683353    22.410294    14.178727    19.737796    33.259761    8.5891165    12.612127     22.30075    14.235163 
   81800    331.10815     59212427            0     59213716    12.683364     22.41031    14.178933    19.738861     33.26139    8.6097128    12.612127     22.30075    14.235163 
   82000    451.07258     59213356            0     59215112    12.683271    22.410382    14.179164    19.729568    33.268606    8.6328472    12.612127     22.30075    14.235163 
   82200    401.63437     59214414            0     59215978    12.683292    22.410371    14.178342      19.7316    33.267438    8.5506566    12.612127     22.30075    14.235163 
   82400    298.48082     59213834            0     59214996    12.683402     22.41036    14.179387    19.742692    33.266326    8.6551726    12.612127     22.30075    14.235163 
   82600    435.83681     59212577            0     59214273     12.68333    22.410416     14.17922    19.735482    33.271966    8.6384336    12.612127     22.30075    14.235163 
   82800    358.65568     59212844            0     59214240    12.683249    22.410211    14.178643    19.727297    33.251444    8.5807486    12.612127     22.30075    14.235163 
   83000    237.13282     59214056            0     59214979    12.683154    22.410365    14.178792    19.717797    33.266842    8.5956675    12.612127     22.30075    14.235163 
   83200    247.49782     59212156            0     59213119    12.683242    22.410281    14.179308    19.726642    33.258482    8.6472611    12.612127     22.30075    14.235163 
   83400     285.2097     59212600            0     59213710    12.683368    22.410339    14.179086    19.739202    33.264244    8.6251021    12.612127     22.30075    14.235163 
   83600    425.00772     59213973            0     59215627    12.683454    22.410333    14.179216    19.747894    33.263615    8.6380487    12.612127     22.30075    14.235163 
   83800    399.70524     59213180            0     59214736    12.683309    22.410354    14.179421    19.733334    33.265806    8.6585705    12.612127     22.30075    14.235163 
   84000    357.58788     59213399            0     59214791    12.683208    22.410311    14.178872    19.723204    33.261491    8.6036786    12.612127     22.30075    14.235163 
   84200    169.42697     59213378            0     59214038    12.683351    22.410321    14.178533    19.737542    33.262423     8.569723    12.612127     22.30075    14.235163 
   84400    167.78199     59212944            0     59213597    12.683318    22.410388    14.178465    19.734215    33.269114    8.5629091    12.612127     22.30075    14.235163 
   84600    211.26019     59213775            0     59214598    12.683295    22.410341    14.178707    19.731931     33.26447    8.5871234    12.612127     22.30075    14.235163 
   84800    370.14643     59214353            0     59215794    12.683375     22.41033    14.179088     19.73997    33.263356    8.6252954    12.612127     22.30075    14.235163 
   85000    311.00724     59213928            0     59215139    12.683272    22.410332    14.179041    19.729635    33.263548    8.6205317    12.612127     22.30075    14.235163 
   85200    425.19351     59211925            0     59213580    12.683349    22.410332    14.178806    19.737345    33.263549    8.5970535    12.612127     22.30075    14.235163 
   85400    484.07415     59212014            0     59213899    12.683238    22.410392    14.178698    19.726207    33.269549    8.5862164    12.612127     22.30075    14.235163 
   85600    414.65825     59213367            0     59214981    12.683316    22.410279    14.178392    19.734043    33.258208    8.5556129    12.612127     22.30075    14.235163 
   85800     414.6376     59213866            0     59215480    12.683317    22.410331     14.17867    19.734194    33.263413    8.5834197    12.612127     22.30075    14.235163 
   86000    521.06769     59210620            0     59212648    12.683266    22.410384    14.179031    19.729009    33.268797      8.61954    12.612127     22.30075    14.235163 
   86200    210.36599     59211543            0     59212362    12.683252    22.410387    14.178886    19.727635    33.269017    8.6050932    12.612127     22.30075    14.235163 
   86400    264.72104     59213115            0     59214145    12.683329    22.410367    14.179046    19.735329    33.267036    8.6210689    12.612127     22.30075    14.235163 
   86600    331.54892     59213762            0     59215053    12.683303    22.410365    14.179346    19.732748    33.266838    8.6510795    12.612127     22.30075    14.235163 
   86800    230.69075     59212619            0     59213517    12.683239    22.410357    14.179166    19.726348    33.266087    8.6331141    12.612127     22.30075    14.235163 
   87000    142.46372     59213180            0     59213735    12.683428    22.410439    14.178955    19.745221    33.274261    8.6119145    12.612127     22.30075    14.235163 
   87200     268.0337     59211532            0     59212576    12.683294    22.410367    14.178708    19.731806    33.267099    8.5872318    12.612127     22.30075    14.235163 
   87400    224.14809     59214036            0     59214908     12.68331    22.410446    14.178746    19.733483    33.274957    8.5910661    12.612127     22.30075    14.235163 
   87600    318.07278     59214257            0     59215496    12.683343    22.410404    14.178763    19.736706      33.2708    8.5927506    12.612127     22.30075    14.235163 
   87800    244.87555     59212701            0     59213654    12.683301    22.410287    14.178883    19.732594    33.259056    8.6047847    12.612127     22.30075    14.235163 
   88000    399.13289     59212923            0     59214477    12.683359    22.410325    14.178836    19.738311     33.26285    8.6000051    12.612127     22.30075    14.235163 
   88200    392.52714     59215203            0     59216731    12.683273    22.410324    14.179101    19.729756    33.262797    8.6265677    12.612127     22.30075    14.235163 
   88400    235.60469     59212826            0     59213743    12.683421    22.410231    14.178591    19.744555    33.253502    8.5755393    12.612127     22.30075    14.235163 
   88600    293.93331     59213446            0     59214590    12.683337    22.410387    14.178707    19.736187    33.269063    8.5871903    12.612127     22.30075    14.235163 
   88800    371.61922     59212464            0     59213910    12.683299    22.410334    14.179235    19.732331    33.263791    8.6400085    12.612127     22.30075    14.235163 
   89000    355.18478     59212928            0     59214311    12.683293    22.410283    14.178791     19.73179    33.258684    8.5955782    12.612127     22.30075    14.235163 
   89200    287.60032     59213262            0     59214381    12.683315    22.410354    14.179553    19.733931    33.265744    8.6717595    12.612127     22.30075    14.235163 
   89400    740.64081     59212217            0     59215100    12.683379    22.410313     14.17902     19.74035    33.261672    8.6184459    12.612127     22.30075    14.235163 
   89600    204.30585     59213517            0     59214312    12.683311    22.410326    14.179109     19.73352    33.262982    8.6273314    12.612127     22.30075    14.235163 
   89800    304.03435     59214447            0     59215631    12.683324    22.410398    14.178822    19.734815    33.270136    8.5986478    12.612127     22.30075    14.235163 
   90000    262.20425     59214192            0     59215213    12.683335    22.410341    14.178764    19.735982    33.264462    8.5928147    12.612127     22.30075    14.235163 
   90200    181.49274     59213638            0     59214344    12.683323    22.410436    14.178291    19.734782    33.273951    8.5455804    12.612127     22.30075    14.235163 
   90400    223.15766     59214457            0     59215325    12.683213    22.410469     14.17867    19.723781    33.277294    8.5834637    12.612127     22.30075    14.235163 
   90600    285.52501     59213490            0     59214601    12.683331    22.410358    14.178821    19.735533    33.266185    8.5985067    12.612127     22.30075    14.235163 
   90800    385.79045     59213304            0     59214806    12.683326    22.410314    14.178526    19.735003    33.261794    8.5690546    12.612127     22.30075    14.235163 
   91000    558.78961     59215427            0     59217603    12.683317    22.410349    14.179022    19.734197    33.265269    8.6186113    12.612127     22.30075    14.235163 
   91200    199.02747     59215937            0     59216711    12.683347    22.410294    14.178818     19.73711    33.259784     8.598219    12.612127     22.30075    14.235163 
   91400    342.30815     59215758            0     59217090    12.683217     22.41028    14.179221     19.72417    33.258321    8.6386106    12.612127     22.30075    14.235163 
   91600    368.01592     59215242            0     59216674    12.683323    22.410301    14.178798    19.734753     33.26047    8.5962801    12.612127     22.30075    14.235163 
   91800     144.7103     59213110            0     59213673    12.683322    22.410321    14.178522    19.734617    33.262442    8.5686145    12.612127     22.30075    14.235163 
   92000     350.6643     59214924            0     59216289    12.683274    22.410358    14.179657    19.729832     33.26617    8.6822064    12.612127     22.30075    14.235163 
   92200    115.97904     59213427            0     59213879     12.68337    22.410323    14.179218    19.739491    33.262653    8.6382914    12.612127     22.30075    14.235163 
   92400    420.20798     59212350            0     59213986    12.683359    22.410365    14.179076    19.738373    33.266847    8.6241055    12.612127     22.30075    14.235163 
   92600    170.75203     59211431            0     59212096    12.683315    22.410366    14.178729    19.733926    33.266919    8.5893236    12.612127     22.30075    14.235163 
   92800    504.76372     59215285            0     59217250    12.683289    22.410358    14.179042    19.731319    33.266189    8.6206973    12.612127     22.30075    14.235163 
   93000    115.83302     59213214            0     59213665    12.683316    22.410332    14.178869    19.734068    33.263604    8.6033628    12.612127     22.30075    14.235163 
   93200    133.76261     59213002            0     59213522    12.683396    22.410414    14.178507    19.742059    33.271742    8.5671066    12.612127     22.30075    14.235163 
   93400    107.33278     59212093            0     59212511    12.683341      22.4103    14.178745      19.7365    33.260348    8.5909086    12.612127     22.30075    14.235163 
   93600    231.33962     59214065            0     59214965    12.683425    22.410342    14.178974    19.744946    33.264536    8.6138855    12.612127     22.30075    14.235163 
   93800    347.22964     59214220            0     59215571    12.683342    22.410388     14.17897    19.736649    33.269141    8.6134925    12.612127     22.30075    14.235163 
   94000    241.52402     59214134            0     59215075    12.683317    22.410385    14.178924    19.734117    33.268894    8.6088903    12.612127     22.30075    14.235163 
   94200    339.76612     59213964            0     59215286    12.683276    22.410402    14.178734    19.730008    33.270591    8.5898086    12.612127     22.30075    14.235163 
   94400    239.46047     59213219            0     59214152    12.683282    22.410358     14.17851    19.730624    33.266151    8.5674606    12.612127     22.30075    14.235163 
   94600    205.50243     59213263            0     59214063    12.683331    22.410395    14.178349    19.735505    33.269887    8.5513282    12.612127     22.30075    14.235163 
   94800     355.7409     59212496            0     59213881      12.6833    22.410409    14.179056    19.732484     33.27127    8.6220529    12.612127     22.30075    14.235163 
   95000    256.17245     59212509            0     59213506     12.68334    22.410356    14.178984    19.736497    33.265913    8.6148326    12.612127     22.30075    14.235163 
   95200    418.80009     59213794            0     59215425    12.683304    22.410345    14.179601    19.732825    33.264907     8.676626    12.612127     22.30075    14.235163 
   95400    338.27762     59212993            0     59214310    12.683301    22.410391    14.178321    19.732564     33.26945    8.5485632    12.612127     22.30075    14.235163 
   95600    259.17409     59212066            0     59213075    12.683259    22.410374    14.178386    19.728308    33.267764    8.5550171    12.612127     22.30075    14.235163 
   95800    200.48642     59213898            0     59214678    12.683275    22.410334    14.178683    19.729905    33.263765    8.5847022    12.612127     22.30075    14.235163 
   96000    181.83088     59215777            0     59216485    12.683335    22.410346    14.179498    19.735955    33.264932    8.6663254    12.612127     22.30075    14.235163 
   96200    376.31101     59213372            0     59214837    12.683312    22.410324    14.178731    19.733637    33.262806    8.5895833    12.612127     22.30075    14.235163 
   96400    518.14416     59212516            0     59214533    12.683322    22.410373    14.179085    19.734691    33.267689    8.6250029    12.612127     22.30075    14.235163 
   96600    137.30719     59215636            0     59216170    12.683349    22.410412    14.179304    19.737359    33.271608    8.6468961    12.612127     22.30075    14.235163 
   96800     468.0115     59215374            0     59217196    12.683314    22.410387    14.178909    19.733826    33.269091    8.6073117    12.612127     22.30075    14.235163 
   97000    264.51953     59213208            0     59214238    12.683294    22.410373    14.179696    19.731861    33.267678    8.6860822    12.612127     22.30075    14.235163 
   97200    303.53267     59212666            0     59213847    12.683362    22.410376    14.178696    19.738653    33.267991    8.5860729    12.612127     22.30075    14.235163 
   97400    158.93539     59211710            0     59212329    12.683318    22.410328    14.179315    19.734278     33.26316    8.6479235    12.612127     22.30075    14.235163 
   97600    229.50852     59212198            0     59213091    12.683296     22.41024    14.178554    19.732042    33.254395    8.5718103    12.612127     22.30075    14.235163 
   97800    362.79409     59212066            0     59213478    12.683261    22.410315    14.179071    19.728585    33.261849    8.6235579    12.612127     22.30075    14.235163 
   98000    427.65843     59213985            0     59215650    12.683304    22.410279    14.179282    19.732888    33.258219    8.6446448    12.612127     22.30075    14.235163 
   98200    264.82085     59212622            0     59213653    12.683328    22.410367    14.178747    19.735219     33.26703    8.5911344    12.612127     22.30075    14.235163 
   98400    278.30283     59214870            0     59215953    12.683316    22.410317    14.178385    19.734039    33.262101    8.5549646    12.612127     22.30075    14.235163 
   98600    170.71744     59215649            0     59216314    12.683374    22.410325    14.179989    19.739856    33.262818    8.7154357    12.612127     22.30075    14.235163 
   98800    322.59682     59214012            0     59215268    12.683406    22.410329    14.179174    19.743016    33.263238    8.6339008    12.612127     22.30075    14.235163 
   99000    278.44945     59214046            0     59215130    12.683292    22.410365    14.179513    19.731624    33.266852    8.6677632    12.612127     22.30075    14.235163 
   99200    372.61592     59214884            0     59216335      12.6833     22.41026    14.178703    19.732477    33.256365    8.5867312    12.612127     22.30075    14.235163 
   99400    258.13531     59213253            0     59214258    12.683362    22.410377    14.178885    19.738665    33.268067    8.6049501    12.612127     22.30075    14.235163 
   99600    359.28442     59213431            0     59214829    12.683299    22.410383    14.178618    19.732359    33.268684    8.5782903    12.612127     22.30075    14.235163 
   99800    329.76433     59213415            0     59214699    12.683346     22.41037    14.178563    19.737069    33.267404    8.5727884    12.612127     22.30075    14.235163 
  100000    399.04471     59214199            0     59215753    12.683337    22.410404    14.178437    19.736161    33.270723    8.5601423    12.612127     22.30075    14.235163 
  100200    211.78837     59213183            0     59214008    12.683385    22.410396     14.17865    19.740988    33.269911    8.5814407    12.612127     22.30075    14.235163 
  100400    245.04459     59212723            0     59213677    12.683356    22.410369    14.178501    19.738059    33.267283    8.5665008    12.612127     22.30075    14.235163 
  100600    313.37472     59213623            0     59214843    12.683332    22.410285    14.179446    19.735686    33.258806    8.6610609    12.612127     22.30075    14.235163 
  100800    464.85124     59213484            0     59215294    12.683285    22.410256    14.179223    19.730897    33.255993    8.6387851    12.612127     22.30075    14.235163 
  101000    224.02578     59212567            0     59213439    12.683276    22.410304    14.179017    19.730007     33.26078    8.6181505    12.612127     22.30075    14.235163 
  101200    422.84228     59211804            0     59213450    12.683302    22.410341    14.178796    19.732611     33.26447    8.5960854    12.612127     22.30075    14.235163 
  101400    260.20418     59212383            0     59213396    12.683337    22.410325    14.178359    19.736183    33.262892    8.5523654    12.612127     22.30075    14.235163 
  101600    242.25885     59213820            0     59214763    12.683242    22.410369    14.178546    19.726627    33.267238    8.5710803    12.612127     22.30075    14.235163 
  101800    256.35735     59212059            0     59213057    12.683317    22.410363    14.179043    19.734197    33.266644    8.6207556    12.612127     22.30075    14.235163 
  102000     170.4334     59213133            0     59213796    12.683313    22.410341    14.179157    19.733745     33.26445    8.6321874    12.612127     22.30075    14.235163 
  102200    211.82235     59215465            0     59216289    12.683277    22.410372    14.177404    19.730118    33.267551    8.4567817    12.612127     22.30075    14.235163 
  102400    432.01809     59212530            0     59214211    12.683422    22.410356    14.178913    19.744607    33.266007    8.6077643    12.612127     22.30075    14.235163 
  102600    355.86596     59214617            0     59216002    12.683327    22.410392    14.178894     19.73516    33.269606    8.6059039    12.612127     22.30075    14.235163 
  102800    381.36214     59212839            0     59214324    12.683318    22.410328    14.178383    19.734288    33.263202    8.5547712    12.612127     22.30075    14.235163 
  103000    328.51437     59211731            0     59213010    12.683292    22.410396    14.178676    19.731672    33.269995     8.584017    12.612127     22.30075    14.235163 
  103200    371.80583     59211167            0     59212614    12.683364    22.410378     14.17888    19.738815      33.2682    8.6044733    12.612127     22.30075    14.235163 
  103400    224.28253     59213632            0     59214505    12.683374    22.410403     14.17975    19.739881    33.270664    8.6914489    12.612127     22.30075    14.235163 
  103600    419.56053     59214110            0     59215743     12.68329    22.410365    14.178321    19.731412    33.266857    8.5485485    12.612127     22.30075    14.235163 
  103800    300.73351     59214921            0     59216091    12.683333    22.410358    14.179459    19.735796    33.266163    8.6623973    12.612127     22.30075    14.235163 
  104000    364.13521     59212243            0     59213661    12.683307    22.410336     14.17919    19.733126    33.263962    8.6354583    12.612127     22.30075    14.235163 
  104200    323.63913     59214248            0     59215508    12.683294    22.410354    14.179054    19.731799    33.265782    8.6218773    12.612127     22.30075    14.235163 
  104400     352.9625     59211964            0     59213338     12.68326    22.410312     14.17918    19.728427     33.26151    8.6344463    12.612127     22.30075    14.235163 
  104600    280.05048     59213570            0     59214660    12.683337    22.410423    14.178408    19.736142    33.272695    8.5572305    12.612127     22.30075    14.235163 
  104800    170.97669     59213214            0     59213880    12.683321    22.410355    14.178875    19.734589    33.265855    8.6039642    12.612127     22.30075    14.235163 
  105000    371.92828     59213559            0     59215007     12.68323    22.410291    14.178367    19.725482    33.259472    8.5531303    12.612127     22.30075    14.235163 
  105200    171.21796     59214978            0     59215644    12.683244    22.410236    14.178371    19.726801    33.253969      8.55349    12.612127     22.30075    14.235163 
  105400    243.49807     59212263            0     59213210    12.683367    22.410406    14.178884    19.739107     33.27099     8.604827    12.612127     22.30075    14.235163 
  105600    328.97087     59214008            0     59215289    12.683331    22.410411    14.178623    19.735573    33.271436    8.5786989    12.612127     22.30075    14.235163 
  105800    175.70183     59214143            0     59214827    12.683266    22.410371     14.17841    19.728995    33.267485      8.55748    12.612127     22.30075    14.235163 
  106000    277.35764     59213601            0     59214681     12.68334    22.410355     14.17898    19.736438    33.265811    8.6144637    12.612127     22.30075    14.235163 
  106200    466.07708     59211899            0     59213714     12.68332    22.410354    14.178865    19.734426    33.265718    8.6029797    12.612127     22.30075    14.235163 
  106400     351.8776     59214957            0     59216327    12.683315    22.410372    14.178382    19.733931    33.267606    8.5546622    12.612127     22.30075    14.235163 
  106600    137.13172     59213905            0     59214439    12.683326    22.410396    14.178949    19.735025    33.269968    8.6113369    12.612127     22.30075    14.235163 
  106800    215.48064     59213440            0     59214279    12.683301    22.410374    14.178973    19.732571    33.267729    8.6137428    12.612127     22.30075    14.235163 
  107000    250.82819     59214424            0     59215400    12.683287    22.410363    14.178876      19.7311    33.266613    8.6040266    12.612127     22.30075    14.235163 
  107200    492.51124     59212212            0     59214129    12.683315    22.410415    14.178927    19.733923    33.271883    8.6092022    12.612127     22.30075    14.235163 
  107400    156.56678     59214734            0     59215344    12.683309    22.410316     14.17887     19.73338    33.262001    8.6034171    12.612127     22.30075    14.235163 
  107600     578.0099     59214550            0     59216800    12.683364    22.410328    14.178439    19.738869    33.263146    8.5603775    12.612127     22.30075    14.235163 
  107800    170.97629     59216651            0     59217317    12.683333    22.410315    14.177749    19.735722    33.261884    8.4912814    12.612127     22.30075    14.235163 
  108000    380.40958     59213529            0     59215010    12.683324    22.410382    14.178802    19.734799      33.2686    8.5966104    12.612127     22.30075    14.235163 
  108200    441.72931     59214826            0     59216546    12.683287    22.410433    14.178595    19.731121    33.273699    8.5759388    12.612127     22.30075    14.235163 
  108400    312.46847     59213900            0     59215116    12.683282    22.410367    14.179359    19.730666    33.267103    8.6523993    12.612127     22.30075    14.235163 
  108600    456.99235     59214263            0     59216042    12.683295    22.410378    14.178769    19.731988    33.268118    8.5933133    12.612127     22.30075    14.235163 
  108800    369.57077     59213810            0     59215248    12.683356    22.410382    14.178253    19.738037    33.268542    8.5417306    12.612127     22.30075    14.235163 
  109000    167.12649     59212788            0     59213439    12.683356    22.410359    14.179476    19.738003    33.266234    8.6640931    12.612127     22.30075    14.235163 
  109200    306.20918     59212218            0     59213410    12.683257    22.410352    14.179302    19.728109    33.265553     8.646667    12.612127     22.30075    14.235163 
  109400      294.725     59212318            0     59213465    12.683328    22.410387    14.179268    19.735274    33.269034    8.6432663    12.612127     22.30075    14.235163 
  109600    284.30028     59212330            0     59213437    12.683317    22.410344    14.178516    19.734103    33.264781    8.5680124    12.612127     22.30075    14.235163 
  109800    176.86626     59211255            0     59211944    12.683276    22.410296    14.179058    19.730042    33.259958    8.6222503    12.612127     22.30075    14.235163 
  110000    313.59872     59211917            0     59213138    12.683277    22.410296     14.17867    19.730099    33.260002    8.5834815    12.612127     22.30075    14.235163 
  110200    240.34086     59212902            0     59213837     12.68333    22.410321    14.179246    19.735485    33.262441    8.6411128    12.612127     22.30075    14.235163 
  110400    361.25213     59212169            0     59213575    12.683315    22.410323    14.178552    19.733974    33.262676     8.571592    12.612127     22.30075    14.235163 
  110600     425.7058     59214997            0     59216654    12.683339    22.410349    14.178758    19.736336    33.265268    8.5922815    12.612127     22.30075    14.235163 
  110800     261.4171     59215997            0     59217014    12.683324    22.410299    14.178312    19.734849    33.260301    8.5475836    12.612127     22.30075    14.235163 
  111000    164.44696     59213255            0     59213895    12.683318    22.410355    14.178947    19.734263    33.265826    8.6112046    12.612127     22.30075    14.235163 
  111200    286.77043     59214533            0     59215649    12.683318    22.410373     14.17779     19.73422    33.267614    8.4954006    12.612127     22.30075    14.235163 
  111400    369.02324     59214672            0     59216109    12.683332    22.410274    14.178731    19.735611    33.257799    8.5895723    12.612127     22.30075    14.235163 
  111600    116.51442     59214793            0     59215247    12.683332    22.410362    14.178206     19.73568    33.266587    8.5370046    12.612127     22.30075    14.235163 
  111800    162.79274     59213936            0     59214569    12.683351    22.410337    14.179044     19.73758     33.26409    8.6209043    12.612127     22.30075    14.235163 
  112000    353.98546     59212728            0     59214106     12.68333    22.410348     14.17921    19.735448    33.265179    8.6374527    12.612127     22.30075    14.235163 
  112200    130.53411     59213624            0     59214132    12.683312    22.410375    14.178195    19.733606    33.267866    8.5359333    12.612127     22.30075    14.235163 
  112400     415.9379     59213468            0     59215087    12.683295    22.410352    14.178539    19.731909    33.265564    8.5703295    12.612127     22.30075    14.235163 
  112600    352.22349     59213941            0     59215312    12.683357    22.410393    14.179084    19.738116    33.269674     8.624822    12.612127     22.30075    14.235163 
  112800    269.54906     59213655            0     59214704    12.683369    22.410263    14.178885    19.739359    33.256689    8.6049932    12.612127     22.30075    14.235163 
  113000    289.13716     59214695            0     59215820    12.683323    22.410362    14.179203    19.734767    33.266574    8.6367667    12.612127     22.30075    14.235163 
  113200     164.7025     59214153            0     59214794    12.683308    22.410316    14.178632    19.733219    33.261929    8.5796052    12.612127     22.30075    14.235163 
  113400    369.79209     59213215            0     59214655    12.683329    22.410398    14.178905     19.73536     33.27021    8.6069715    12.612127     22.30075    14.235163 
  113600    232.33739     59214346            0     59215250    12.683308    22.410373      14.1784    19.733273    33.267638    8.5564087    12.612127     22.30075    14.235163 
  113800    192.28575     59212961            0     59213709     12.68329    22.410377    14.178784    19.731474    33.268038    8.5948784    12.612127     22.30075    14.235163 
  114000    318.84508     59212860            0     59214101    12.683271    22.410302    14.179174    19.729555    33.260558     8.633895    12.612127     22.30075    14.235163 
  114200    245.67383     59213054            0     59214010    12.683349    22.410384    14.179128    19.737304    33.268785    8.6292845    12.612127     22.30075    14.235163 
  114400     354.4038     59212954            0     59214333      12.6833    22.410319    14.178691    19.732484    33.262273     8.585572    12.612127     22.30075    14.235163 
  114600    495.20702     59214079            0     59216007    12.683306    22.410331    14.179163    19.733003    33.263412    8.6327277    12.612127     22.30075    14.235163 
  114800    216.59943     59212964            0     59213807    12.683333    22.410345     14.17815    19.735728    33.264894    8.5314242    12.612127     22.30075    14.235163 
  115000    236.68437     59212352            0     59213273    12.683286    22.410357    14.178426       19.731    33.266063    8.5590177    12.612127     22.30075    14.235163 
  115200    224.78678     59213642            0     59214517    12.683317    22.410322    14.179635    19.734098    33.262578    8.6800109    12.612127     22.30075    14.235163 
  115400    133.63975     59213887            0     59214407    12.683258    22.410396    14.179183    19.728291    33.269994    8.6347733    12.612127     22.30075    14.235163 
  115600     358.2351     59212298            0     59213693    12.683365    22.410357    14.178794    19.738925    33.266014    8.5958734    12.612127     22.30075    14.235163 
  115800    413.59818     59213132            0     59214742    12.683323    22.410299    14.178986    19.734739    33.260294    8.6150696    12.612127     22.30075    14.235163 
  116000    274.71717     59212986            0     59214056     12.68327    22.410323    14.178573    19.729469    33.262678    8.5737698    12.612127     22.30075    14.235163 
  116200    323.38311     59212717            0     59213976    12.683373    22.410281    14.178431    19.739728    33.258466    8.5595851    12.612127     22.30075    14.235163 
  116400    238.37713     59213049            0     59213977    12.683374    22.410399    14.179365    19.739885     33.27029    8.6529764    12.612127     22.30075    14.235163 
  116600    257.40605     59212800            0     59213802    12.683328    22.410374    14.179594    19.735266    33.267752     8.675929    12.612127     22.30075    14.235163 
  116800    520.37651     59214196            0     59216221    12.683256    22.410375    14.179593    19.728009    33.267827    8.6757682    12.612127     22.30075    14.235163 
  117000    427.15701     59213913            0     59215576    12.683288    22.410357    14.178591    19.731228    33.266009     8.575528    12.612127     22.30075    14.235163 
  117200    270.89539     59214919            0     59215973    12.683294    22.410367    14.178241    19.731801    33.267053    8.5405694    12.612127     22.30075    14.235163 
  117400    395.36536     59211816            0     59213356    12.683313    22.410384    14.178834    19.733768    33.268785    8.5998394    12.612127     22.30075    14.235163 
  117600     411.7833     59215321            0     59216924    12.683305    22.410334    14.179225    19.732965    33.263784    8.6389619    12.612127     22.30075    14.235163 
  117800    288.46488     59214663            0     59215786    12.683341    22.410368    14.178761    19.736514    33.267144    8.5925637    12.612127     22.30075    14.235163 
  118000    476.96634     59212873            0     59214729     12.68332     22.41035    14.178349    19.734459     33.26535    8.5513741    12.612127     22.30075    14.235163 
  118200    243.06391     59211231            0     59212177    12.683372    22.410417    14.179027     19.73968    33.272052    8.6191544    12.612127     22.30075    14.235163 
  118400    320.45674     59215506            0     59216754    12.683306    22.410314    14.178781    19.733073    33.261777    8.5945293    12.612127     22.30075    14.235163 
  118600    397.31315     59212107            0     59213654    12.683314     22.41043    14.178657    19.733799     33.27336    8.5821288    12.612127     22.30075    14.235163 
  118800    195.25861     59214255            0     59215015    12.683302    22.410384    14.178615    19.732673    33.268808    8.5779021    12.612127     22.30075    14.235163 
  119000    123.16031     59212975            0     59213454    12.683297    22.410361     14.17921    19.732104    33.266459    8.6374806    12.612127     22.30075    14.235163 
  119200    272.07059     59213310            0     59214369    12.683257    22.410362    14.179097    19.728151    33.266521    8.6262057    12.612127     22.30075    14.235163 
  119400    390.57544     59211842            0     59213362    12.683307    22.410329    14.178557    19.733124    33.263232    8.5721538    12.612127     22.30075    14.235163 
  119600    127.15016     59213039            0     59213534    12.683262    22.410379    14.179408    19.728631    33.268218    8.6572871    12.612127     22.30075    14.235163 
  119800     274.5972     59212222            0     59213291    12.683345    22.410357    14.179174    19.736979    33.266057     8.633844    12.612127     22.30075    14.235163 
  120000    182.88531     59212701            0     59213413      12.6833    22.410336     14.17874    19.732433    33.263909    8.5904222    12.612127     22.30075    14.235163 
  120200    406.59937     59213329            0     59214911    12.683315    22.410359    14.179058     19.73394    33.266239    8.6222942    12.612127     22.30075    14.235163 
  120400    318.78354     59214376            0     59215617    12.683342     22.41039    14.178556    19.736603    33.269363    8.5720876    12.612127     22.30075    14.235163 
  120600    293.07033     59214352            0     59215493    12.683322    22.410419    14.179215    19.734672     33.27227    8.6379415    12.612127     22.30075    14.235163 
  120800    184.61496     59214514            0     59215233    12.683317    22.410376    14.179306    19.734136    33.267914    8.6471204    12.612127     22.30075    14.235163 
  121000    297.06419     59212054            0     59213210     12.68331    22.410275    14.178909    19.733434    33.257855    8.6073186    12.612127     22.30075    14.235163 
  121200    400.86842     59213599            0     59215160    12.683281    22.410388    14.178607    19.730544    33.269132    8.5771624    12.612127     22.30075    14.235163 
  121400    276.60476     59214343            0     59215420    12.683338    22.410317    14.178555    19.736284    33.262051    8.5719367    12.612127     22.30075    14.235163 
  121600    269.82475     59213513            0     59214563    12.683349    22.410375     14.17877    19.737322    33.267882    8.5934297    12.612127     22.30075    14.235163 
  121800    158.17935     59211719            0     59212335    12.683329    22.410321    14.179163    19.735303    33.262419    8.6327887    12.612127     22.30075    14.235163 
  122000    304.05629     59215415            0     59216599    12.683247    22.410358    14.178301    19.727106    33.266137    8.5465013    12.612127     22.30075    14.235163 
  122200     555.3716     59213569            0     59215731    12.683318    22.410365    14.179731    19.734265    33.266901    8.6895844    12.612127     22.30075    14.235163 
  122400    240.62576     59214612            0     59215549    12.683301    22.410393    14.179214    19.732516    33.269641    8.6378613    12.612127     22.30075    14.235163 
  122600    200.77775     59213845            0     59214627    12.683329    22.410289    14.179256    19.735368    33.259207      8.64207    12.612127     22.30075    14.235163 
  122800    356.56775     59214611            0     59215999    12.683306    22.410322    14.178366    19.733014    33.262514    8.5530166    12.612127     22.30075    14.235163 
  123000    323.00437     59212248            0     59213505    12.683293    22.410344    14.179281    19.731795    33.264735    8.6445845    12.612127     22.30075    14.235163 
  123200    331.39296     59214621            0     59215911      12.6834    22.410351    14.178999    19.742417    33.265453    8.6164083    12.612127     22.30075    14.235163 
  123400    164.17327     59212642            0     59213281    12.683344    22.410383    14.178996    19.736815    33.268651    8.6161041    12.612127     22.30075    14.235163 
  123600    189.64875     59212505            0     59213243    12.683315    22.410329    14.179144    19.733976    33.263284    8.6309098    12.612127     22.30075    14.235163 
  123800    314.91955     59213880            0     59215106    12.683278    22.410459    14.179031    19.730233    33.276307    8.6195356    12.612127     22.30075    14.235163 
  124000    437.69365     59214808            0     59216512    12.683343    22.410305    14.178453    19.736766     33.26088    8.5617587    12.612127     22.30075    14.235163 
  124200     268.3723     59212124            0     59213168    12.683289    22.410389    14.178787    19.731392     33.26926    8.5951187    12.612127     22.30075    14.235163 
  124400    232.83498     59213315            0     59214221    12.683402    22.410367    14.179214    19.742633    33.267094    8.6378864    12.612127     22.30075    14.235163 
  124600    346.00691     59213179            0     59214526    12.683292    22.410404    14.178315    19.731623    33.270778    8.5479596    12.612127     22.30075    14.235163 
  124800    128.18289     59216157            0     59216656    12.683222    22.410326    14.179199    19.724663    33.262983    8.6363932    12.612127     22.30075    14.235163 
  125000    186.14376     59214458            0     59215182    12.683279    22.410372    14.178719    19.730383    33.267608    8.5883434    12.612127     22.30075    14.235163 
  125200    435.47831     59214158            0     59215853    12.683284    22.410405    14.178388    19.730839    33.270862    8.5552135    12.612127     22.30075    14.235163 
  125400    183.20145     59212852            0     59213565    12.683264    22.410354    14.179578    19.728853    33.265787    8.6742382    12.612127     22.30075    14.235163 
  125600    320.07667     59214210            0     59215456    12.683316     22.41029    14.179356    19.734038    33.259337    8.6520759    12.612127     22.30075    14.235163 
  125800    277.27964     59214294            0     59215374     12.68331    22.410368    14.179366    19.733414    33.267197    8.6531103    12.612127     22.30075    14.235163 
  126000    483.49626     59211391            0     59213274    12.683309     22.41039    14.178979    19.733318    33.269396     8.614321    12.612127     22.30075    14.235163 
  126200    366.06524     59212933            0     59214358    12.683373    22.410369    14.179459    19.739706    33.267299    8.6623956    12.612127     22.30075    14.235163 
  126400    271.91266     59215371            0     59216429    12.683309    22.410354    14.179042    19.733341     33.26576    8.6206678    12.612127     22.30075    14.235163 
  126600    150.62506     59214768            0     59215354    12.683306    22.410363    14.179096    19.733055    33.266625    8.6260359    12.612127     22.30075    14.235163 
  126800     310.2868     59212574            0     59213782    12.683334    22.410322    14.178795    19.735868      33.2626    8.5959028    12.612127     22.30075    14.235163 
  127000    433.45493     59212934            0     59214621    12.683279    22.410396    14.179891    19.730373    33.269937    8.7055479    12.612127     22.30075    14.235163 
  127200    265.02128     59215445            0     59216476    12.683319    22.410423    14.178129    19.734347    33.272665    8.5293355    12.612127     22.30075    14.235163 
  127400    203.13009     59214168            0     59214958    12.683417    22.410382    14.179152    19.744119    33.268587    8.6316975    12.612127     22.30075    14.235163 
  127600      324.185     59212557            0     59213819    12.683217    22.410364    14.179447    19.724171    33.266732    8.6611842    12.612127     22.30075    14.235163 
  127800    159.31389     59213663            0     59214283    12.683295    22.410339    14.177944    19.731904    33.264229    8.5107874    12.612127     22.30075    14.235163 
  128000    246.33395     59211451            0     59212410    12.683271     22.41037    14.178842    19.729563     33.26738    8.6006876    12.612127     22.30075    14.235163 
  128200    201.43431     59213320            0     59214104    12.683343    22.410248    14.179149    19.736714    33.255109    8.6313414    12.612127     22.30075    14.235163 
  128400    239.38693     59212085            0     59213017    12.683328    22.410313    14.178509    19.735243    33.261635    8.5673405    12.612127     22.30075    14.235163 
  128600     455.9553     59213493            0     59215268    12.683326    22.410372    14.178989     19.73508    33.267563    8.6153303    12.612127     22.30075    14.235163 
  128800    200.83467     59213632            0     59214413    12.683307    22.410417    14.178988    19.733181    33.272049    8.6152778    12.612127     22.30075    14.235163 
  129000    316.20712     59213246            0     59214476    12.683343    22.410373    14.178782    19.736773    33.267683     8.594618    12.612127     22.30075    14.235163 
  129200    216.35056     59214366            0     59215208    12.683237    22.410329    14.178331    19.726189    33.263258     8.549528    12.612127     22.30075    14.235163 
  129400    301.95377     59212737            0     59213913    12.683298    22.410403    14.179021    19.732275    33.270655    8.6185135    12.612127     22.30075    14.235163 
  129600    102.58315     59213374            0     59213773    12.683277    22.410382    14.179449     19.73015    33.268543    8.6613685    12.612127     22.30075    14.235163 
  129800    233.18096     59212790            0     59213698    12.683307    22.410366    14.179152    19.733145    33.266929    8.6316371    12.612127     22.30075    14.235163 
  130000    386.49733     59215226            0     59216731    12.683341    22.410359    14.178752    19.736556    33.266258    8.5916694    12.612127     22.30075    14.235163 
  130200    288.79705     59214540            0     59215664    12.683318    22.410365    14.179053    19.734267    33.266824    8.6217294    12.612127     22.30075    14.235163 
  130400    262.33885     59212661            0     59213683    12.683333     22.41037    14.178799    19.735789    33.267325    8.5963922    12.612127     22.30075    14.235163 
  130600    231.60813     59213173            0     59214075    12.683324    22.410412    14.178836    19.734895    33.271574    8.6000949    12.612127     22.30075    14.235163 
  130800    284.05483     59213364            0     59214470    12.683165    22.410416    14.178957    19.718976    33.271969    8.6121429    12.612127     22.30075    14.235163 
  131000    215.17723     59212984            0     59213822    12.683316    22.410388    14.178816    19.734087    33.269206    8.5980862    12.612127     22.30075    14.235163 
  131200    322.55169     59214245            0     59215501    12.683298    22.410346    14.179091    19.732296    33.264996    8.6255177    12.612127     22.30075    14.235163 
  131400     432.3156     59214056            0     59215739    12.683347    22.410306    14.178846    19.737144    33.260969    8.6010681    12.612127     22.30075    14.235163 
  131600    166.67077     59212975            0     59213623    12.683384    22.410331    14.178347    19.740892    33.263448    8.5510913    12.612127     22.30075    14.235163 
  131800    362.15585     59212204            0     59213614    12.683372    22.410358    14.178841    19.739602    33.266206    8.6005394    12.612127     22.30075    14.235163 
  132000    215.76181     59213262            0     59214102    12.683307    22.410367    14.178466    19.733109    33.267062    8.5629973    12.612127     22.30075    14.235163 
  132200    266.57657     59212590            0     59213627    12.683367     22.41039    14.178808    19.739158    33.269343    8.5972631    12.612127     22.30075    14.235163 
  132400    485.02341     59213156            0     59215044    12.683309    22.410358     14.17887    19.733357    33.266201     8.603455    12.612127     22.30075    14.235163 
  132600    164.89656     59213612            0     59214254    12.683313    22.410355    14.178961    19.733726    33.265896    8.6125435    12.612127     22.30075    14.235163 
  132800    389.89305     59215732            0     59217250    12.683308    22.410306    14.179149    19.733293    33.261003    8.6313801    12.612127     22.30075    14.235163 
  133000    320.73242     59212848            0     59214096    12.683336    22.410351    14.179563    19.736044    33.265429    8.6727648    12.612127     22.30075    14.235163 
  133200    202.50403     59216314            0     59217102     12.68325    22.410385     14.17887    19.727413     33.26883    8.6034464    12.612127     22.30075    14.235163 
  133400    456.18217     59214625            0     59216401    12.683326    22.410375    14.178682    19.735062    33.267888    8.5846115    12.612127     22.30075    14.235163 
  133600    187.82556     59214040            0     59214771    12.683312    22.410321    14.178017    19.733655    33.262413    8.5180938    12.612127     22.30075    14.235163 
  133800    493.17696     59211985            0     59213905    12.683311    22.410361    14.178481    19.733501    33.266498    8.5645632    12.612127     22.30075    14.235163 
  134000    346.14498     59213420            0     59214767    12.683309    22.410351    14.179355    19.733385    33.265439    8.6519469    12.612127     22.30075    14.235163 
  134200    319.47211     59213966            0     59215210    12.683316    22.410335    14.179511    19.734022    33.263864    8.6675726    12.612127     22.30075    14.235163 
  134400    84.188004     59214742            0     59215069    12.683316    22.410372    14.179098    19.734094    33.267519    8.6263039    12.612127     22.30075    14.235163 
  134600    424.39518     59211273            0     59212925     12.68333    22.410377    14.179051    19.735436    33.268104    8.6215346    12.612127     22.30075    14.235163 
  134800    197.56012     59213778            0     59214548    12.683321    22.410371    14.178922    19.734581    33.267427    8.6086229    12.612127     22.30075    14.235163 
  135000    285.52618     59213575            0     59214687    12.683295    22.410373     14.17937    19.731898    33.267658    8.6534566    12.612127     22.30075    14.235163 
  135200    175.30193     59212336            0     59213018    12.683278    22.410353    14.179006    19.730211    33.265699    8.6170302    12.612127     22.30075    14.235163 
  135400    239.88746     59215042            0     59215975    12.683352    22.410373     14.17922    19.737676    33.267675    8.6384228    12.612127     22.30075    14.235163 
  135600    325.18504     59213909            0     59215175    12.683291    22.410362     14.17877    19.731588    33.266586    8.5934513    12.612127     22.30075    14.235163 
  135800     216.4485     59213623            0     59214465    12.683339    22.410366    14.178692    19.736308     33.26697    8.5856426    12.612127     22.30075    14.235163 
  136000    401.81774     59213889            0     59215453    12.683297    22.410346    14.178688    19.732141    33.264984    8.5852151    12.612127     22.30075    14.235163 
  136200    179.37072     59213747            0     59214445    12.683255     22.41035    14.179196    19.727919    33.265383    8.6360304    12.612127     22.30075    14.235163 
  136400    157.08892     59214912            0     59215523    12.683242    22.410337    14.179249    19.726687    33.264042    8.6413307    12.612127     22.30075    14.235163 
  136600    228.83774     59215024            0     59215914    12.683351    22.410329    14.179453    19.737537     33.26325    8.6618237    12.612127     22.30075    14.235163 
  136800    294.60987     59212502            0     59213649    12.683308    22.410358    14.179519    19.733288    33.266113    8.6683754    12.612127     22.30075    14.235163 
  137000    218.23832     59214212            0     59215062    12.683317    22.410388    14.178169    19.734162    33.269114    8.5333474    12.612127     22.30075    14.235163 
  137200     244.3392     59213135            0     59214087    12.683365    22.410356    14.178662     19.73894     33.26593    8.5826793    12.612127     22.30075    14.235163 
  137400    255.25113     59214420            0     59215413    12.683363    22.410423    14.178435    19.738747    33.272692    8.5599862    12.612127     22.30075    14.235163 
  137600    332.15088     59214689            0     59215982    12.683254    22.410382    14.178026    19.727852    33.268608    8.5189876    12.612127     22.30075    14.235163 
  137800    589.80363     59213455            0     59215752    12.683291    22.410285    14.178844    19.731526    33.258868    8.6008123    12.612127     22.30075    14.235163 
  138000    166.43085     59212925            0     59213573    12.683332    22.410353    14.178779    19.735685    33.265624    8.5943445    12.612127     22.30075    14.235163 
  138200     99.66296     59211416            0     59211804    12.683356    22.410317    14.179179    19.738089    33.262083    8.6344039    12.612127     22.30075    14.235163 
  138400    436.42048     59216968            0     59218667    12.683283    22.410347    14.179371     19.73075    33.265075    8.6535993    12.612127     22.30075    14.235163 
  138600    272.32446     59213460            0     59214521    12.683319    22.410367    14.179644    19.734389    33.267022    8.6808638    12.612127     22.30075    14.235163 
  138800    382.60297     59213464            0     59214954    12.683377    22.410326    14.179235    19.740191    33.262975    8.6399645    12.612127     22.30075    14.235163 
  139000    223.46281     59213407            0     59214277    12.683376    22.410339    14.178529    19.740097    33.264228    8.5693555    12.612127     22.30075    14.235163 
  139200    309.73641     59214135            0     59215341     12.68329    22.410371    14.178715    19.731398     33.26745    8.5879358    12.612127     22.30075    14.235163 
  139400    404.52417     59212650            0     59214225     12.68326    22.410303    14.178343    19.728417    33.260672    8.5507365    12.612127     22.30075    14.235163 
  139600    365.55526     59212962            0     59214385    12.683338    22.410353    14.179044    19.736211    33.265673    8.6208505    12.612127     22.30075    14.235163 
  139800    336.20709     59213107            0     59214416    12.683291    22.410388    14.179417    19.731577     33.26914    8.6582264    12.612127     22.30075    14.235163 
  140000    310.65534     59212541            0     59213750    12.683298     22.41037    14.178907    19.732256    33.267363    8.6071935    12.612127     22.30075    14.235163 
  140200    402.42635     59212925            0     59214491    12.683294    22.410346    14.178911    19.731857    33.264947     8.607599    12.612127     22.30075    14.235163 
  140400    204.12982     59213014            0     59213809    12.683312    22.410363    14.178951    19.733647    33.266706    8.6115777    12.612127     22.30075    14.235163 
  140600    347.91928     59213289            0     59214644    12.683337    22.410347    14.178666    19.736186    33.265013    8.5830312    12.612127     22.30075    14.235163 
  140800      276.605     59215901            0     59216978    12.683321    22.410353    14.178432    19.734515    33.265683    8.5596797    12.612127     22.30075    14.235163 
  141000    204.47865     59213625            0     59214421    12.683291     22.41035    14.179641    19.731572    33.265342    8.6806065    12.612127     22.30075    14.235163 
  141200    435.19805     59211509            0     59213204    12.683295     22.41037    14.178897    19.731972    33.267401    8.6061204    12.612127     22.30075    14.235163 
  141400    195.52965     59212021            0     59212783    12.683364    22.410348    14.178997    19.738867    33.265109    8.6161998    12.612127     22.30075    14.235163 
  141600    345.12208     59213797            0     59215141    12.683335    22.410342    14.178495    19.735959    33.264594    8.5659655    12.612127     22.30075    14.235163 
  141800    287.98705     59214103            0     59215224     12.68334    22.410335    14.178903    19.736493    33.263816    8.6067333    12.612127     22.30075    14.235163 
  142000    208.99163     59213829            0     59214643     12.68333    22.410356     14.17954     19.73542    33.265989    8.6705106    12.612127     22.30075    14.235163 
  142200     257.1485     59213973            0     59214974    12.683321    22.410378     14.17974    19.734505     33.26814    8.6904942    12.612127     22.30075    14.235163 
  142400    150.52343     59214068            0     59214654     12.68333    22.410359    14.179099    19.735482    33.266254    8.6263246    12.612127     22.30075    14.235163 
  142600    268.98981     59215068            0     59216115    12.683328    22.410318    14.179381    19.735216    33.262195    8.6546119    12.612127     22.30075    14.235163 
  142800    148.58327     59213883            0     59214461    12.683374    22.410328    14.179639    19.739837    33.263184    8.6803954    12.612127     22.30075    14.235163 
  143000    208.29712     59213228            0     59214039    12.683309    22.410377    14.179109     19.73331    33.268071    8.6273589    12.612127     22.30075    14.235163 
  143200    179.45939     59213147            0     59213846    12.683361     22.41037    14.179232    19.738534    33.267391    8.6396212    12.612127     22.30075    14.235163 
  143400    218.32911     59215585            0     59216435    12.683352    22.410364    14.179285    19.737639    33.266779    8.6449531    12.612127     22.30075    14.235163 
  143600    384.64032     59213791            0     59215289    12.683296    22.410383    14.179131    19.732087    33.268653    8.6295397    12.612127     22.30075    14.235163 
  143800    215.80419     59213109            0     59213950    12.683303    22.410333    14.178951    19.732704    33.263643    8.6115815    12.612127     22.30075    14.235163 
  144000    171.84269     59213250            0     59213919    12.683332     22.41033    14.178806    19.735644    33.263393    8.5970878    12.612127     22.30075    14.235163 
  144200    166.62292     59214455            0     59215104    12.683322    22.410369    14.178379    19.734687    33.267242     8.554325    12.612127     22.30075    14.235163 
  144400    242.61448     59213945            0     59214889     12.68335    22.410324    14.178322    19.737441    33.262768    8.5485975    12.612127     22.30075    14.235163 
  144600    267.94403     59212253            0     59213296    12.683293    22.410304     14.17905    19.731736    33.260789    8.6214507    12.612127     22.30075    14.235163 
  144800    429.06745     59213423            0     59215093    12.683286    22.410355    14.178908     19.73109    33.265824    8.6072655    12.612127     22.30075    14.235163 
  145000    237.64598     59213964            0     59214889    12.683337    22.410374     14.17777    19.736098    33.267798    8.4934424    12.612127     22.30075    14.235163 
  145200    410.86399     59212920            0     59214519     12.68337    22.410359    14.178952    19.739402    33.266286     8.611617    12.612127     22.30075    14.235163 
  145400    169.19591     59212617            0     59213275     12.68331    22.410355    14.178397    19.733486    33.265906    8.5561708    12.612127     22.30075    14.235163 
  145600    248.86156     59213535            0     59214504    12.683365    22.410342    14.179275    19.738945    33.264551    8.6439414    12.612127     22.30075    14.235163 
  145800    176.46132     59214595            0     59215282    12.683348    22.410358    14.179406    19.737268    33.266195    8.6571038    12.612127     22.30075    14.235163 
  146000    132.69847     59210470            0     59210987    12.683339      22.4104    14.178967    19.736334    33.270364    8.6131173    12.612127     22.30075    14.235163 
  146200    415.79721     59212509            0     59214128     12.68334    22.410376     14.17858    19.736463    33.267971    8.5744047    12.612127     22.30075    14.235163 
  146400    206.05451     59213598            0     59214400    12.683319    22.410347    14.178824    19.734315    33.265084    8.5988254    12.612127     22.30075    14.235163 
  146600    358.12605     59215006            0     59216400    12.683305    22.410319    14.177465    19.732995     33.26229     8.462874    12.612127     22.30075    14.235163 
  146800    223.43955     59213964            0     59214834     12.68329    22.410386    14.179105    19.731477    33.268933    8.6269334    12.612127     22.30075    14.235163 
  147000    235.71499     59212658            0     59213575    12.683319    22.410405    14.179447    19.734298    33.270909    8.6612154    12.612127     22.30075    14.235163 
  147200    346.18084     59214101            0     59215448    12.683315    22.410368     14.17961    19.733916    33.267149     8.677522    12.612127     22.30075    14.235163 
  147400    158.81124     59216251            0     59216869    12.683363    22.410301    14.178709     19.73877    33.260422    8.5873182    12.612127     22.30075    14.235163 
  147600    123.80371     59215141            0     59215623    12.683312    22.410319    14.178972    19.733616    33.262226    8.6136516    12.612127     22.30075    14.235163 
  147800    198.65783     59212363            0     59213136    12.683347    22.410327    14.178637    19.737147     33.26309     8.580144    12.612127     22.30075    14.235163 
  148000    143.82823     59214893            0     59215453    12.683319    22.410355    14.179215     19.73433     33.26587    8.6379416    12.612127     22.30075    14.235163 
  148200    119.59075     59214276            0     59214742    12.683281    22.410386    14.179172    19.730525    33.268935    8.6336745    12.612127     22.30075    14.235163 
  148400    200.72582     59213147            0     59213929    12.683332    22.410341    14.178986    19.735665    33.264448    8.6150489    12.612127     22.30075    14.235163 
  148600    196.89171     59214583            0     59215350    12.683343    22.410381    14.178887    19.736744    33.268495    8.6051761    12.612127     22.30075    14.235163 
  148800    373.89731     59212862            0     59214318      12.6833    22.410383    14.179199    19.732437    33.268645    8.6363306    12.612127     22.30075    14.235163 
  149000    312.63224     59213304            0     59214521    12.683318    22.410351    14.179145    19.734247    33.265502    8.6309691    12.612127     22.30075    14.235163 
  149200    272.22254     59213572            0     59214631    12.683333    22.410327    14.178432    19.735771    33.263018    8.5596072    12.612127     22.30075    14.235163 
  149400    213.28348     59214358            0     59215188    12.683301    22.410419    14.178922    19.732564    33.272295    8.6086905    12.612127     22.30075    14.235163 
  149600    335.99379     59213514            0     59214822    12.683276    22.410371    14.178861     19.73003    33.267435    8.6025954    12.612127     22.30075    14.235163 
  149800    425.20983     59214455            0     59216110    12.683375    22.410328    14.179539    19.739914    33.263199    8.6703518    12.612127     22.30075    14.235163 
  150000    183.87107     59214155            0     59214870    12.683277    22.410337    14.178186    19.730127    33.264078    8.5350596    12.612127     22.30075    14.235163 
  150200    207.82664     59212289            0     59213098    12.683312    22.410347    14.178584    19.733635    33.265029    8.5748221    12.612127     22.30075    14.235163 
  150400    264.02009     59214707            0     59215735    12.683328    22.410382    14.178755    19.735207    33.268604    8.5919857    12.612127     22.30075    14.235163 
  150600     222.5573     59211856            0     59212723    12.683367     22.41034    14.178769      19.7391     33.26439    8.5933643    12.612127     22.30075    14.235163 
  150800    212.28935     59213185            0     59214011     12.68329    22.410369    14.178796    19.731488    33.267217    8.5960679    12.612127     22.30075    14.235163 
  151000    249.75479     59213330            0     59214303    12.683327    22.410357    14.179062    19.735191    33.266076    8.6226729    12.612127     22.30075    14.235163 
  151200    299.34513     59212773            0     59213938    12.683332    22.410381     14.17935      19.7356    33.268428    8.6515124    12.612127     22.30075    14.235163 
  151400    391.28389     59215110            0     59216633    12.683302    22.410355    14.177575    19.732681    33.265882    8.4739372    12.612127     22.30075    14.235163 
  151600      302.098     59215551            0     59216727    12.683296    22.410369    14.179193    19.732086     33.26722     8.635794    12.612127     22.30075    14.235163 
  151800    197.61835     59213326            0     59214095    12.683362    22.410407     14.17949    19.738619    33.271074    8.6654903    12.612127     22.30075    14.235163 
  152000    110.94467     59214354            0     59214786    12.683276    22.410367    14.178753    19.730017    33.267054    8.5917294    12.612127     22.30075    14.235163 
  152200    233.06938     59212865            0     59213772     12.68331    22.410363    14.178607     19.73341    33.266644    8.5771607    12.612127     22.30075    14.235163 
  152400    254.25946     59214927            0     59215917    12.683306    22.410354    14.177743    19.733008    33.265775    8.4907066    12.612127     22.30075    14.235163 
  152600    186.43259     59213842            0     59214568    12.683343    22.410337    14.179029    19.736787    33.264008    8.6193595    12.612127     22.30075    14.235163 
  152800    394.99898     59213227            0     59214765    12.683323    22.410357    14.178595    19.734713     33.26604    8.5759202    12.612127     22.30075    14.235163 
  153000    172.55586     59214098            0     59214770    12.683362    22.410396    14.178816    19.738697     33.26995    8.5980966    12.612127     22.30075    14.235163 
  153200    152.51627     59213304            0     59213898    12.683344     22.41035    14.178834    19.736839    33.265376    8.5998204    12.612127     22.30075    14.235163 
  153400     114.3076     59212401            0     59212846    12.683332    22.410322    14.179599    19.735673    33.262533    8.6764161    12.612127     22.30075    14.235163 
  153600    185.00908     59213536            0     59214256    12.683307    22.410323    14.178259    19.733154     33.26265    8.5423376    12.612127     22.30075    14.235163 
  153800    183.00203     59213545            0     59214257    12.683334     22.41037    14.178959    19.735868    33.267326     8.612343    12.612127     22.30075    14.235163 
  154000    248.77548     59212907            0     59213876    12.683281    22.410353    14.178938    19.730552    33.265629    8.6102223    12.612127     22.30075    14.235163 
  154200    226.09871     59214000            0     59214880    12.683301    22.410398    14.179536    19.732562    33.270127    8.6700441    12.612127     22.30075    14.235163 
  154400    461.68247     59211582            0     59213380    12.683266     22.41036    14.179085    19.729071    33.266334    8.6250012    12.612127     22.30075    14.235163 
  154600    87.700728     59215132            0     59215474    12.683291    22.410358    14.177882    19.731519    33.266202    8.5046339    12.612127     22.30075    14.235163 
  154800    281.79337     59213729            0     59214826    12.683288    22.410308    14.178916      19.7312    33.261115    8.6081003    12.612127     22.30075    14.235163 
  155000    128.72654     59212580            0     59213081    12.683319    22.410372    14.178959    19.734371     33.26757    8.6123795    12.612127     22.30075    14.235163 
  155200    74.755472     59213580            0     59213871     12.68326    22.410391    14.179001    19.728478    33.269456    8.6165235    12.612127     22.30075    14.235163 
  155400    400.06082     59213826            0     59215384     12.68324    22.410342    14.179272    19.726396    33.264587     8.643661    12.612127     22.30075    14.235163 
  155600      132.249     59212673            0     59213188    12.683334    22.410324    14.179032    19.735818    33.262723     8.619653    12.612127     22.30075    14.235163 
  155800    220.53588     59211820            0     59212679     12.68328    22.410458    14.178809    19.730427    33.276131    8.5973928    12.612127     22.30075    14.235163 
  156000    273.40308     59215111            0     59216175    12.683327    22.410378    14.178514    19.735137    33.268122    8.5678292    12.612127     22.30075    14.235163 
  156200    184.16518     59214497            0     59215214    12.683316    22.410391    14.179117    19.734036      33.2695    8.6282108    12.612127     22.30075    14.235163 
  156400     233.5698     59213195            0     59214105    12.683416    22.410368    14.178691     19.74404    33.267116     8.585553    12.612127     22.30075    14.235163 
  156600    418.66398     59213879            0     59215509    12.683298    22.410368    14.178229    19.732281    33.267129    8.5393242    12.612127     22.30075    14.235163 
  156800     190.7834     59214291            0     59215034    12.683303    22.410373    14.179144    19.732777    33.267676    8.6308351    12.612127     22.30075    14.235163 
  157000    223.72471     59215214            0     59216085    12.683286    22.410322    14.178815    19.731027    33.262531    8.5979646    12.612127     22.30075    14.235163 
  157200    208.00574     59213598            0     59214407    12.683303    22.410357    14.178763    19.732766     33.26607     8.592713    12.612127     22.30075    14.235163 
  157400    215.72227     59215196            0     59216036    12.683314    22.410304    14.178841    19.733852    33.260739     8.600554    12.612127     22.30075    14.235163 
  157600    261.05068     59213674            0     59214691    12.683314    22.410368    14.179492    19.733805    33.267123    8.6656754    12.612127     22.30075    14.235163 
  157800    353.43166     59213419            0     59214795    12.683317     22.41037    14.179052    19.734108    33.267311    8.6216833    12.612127     22.30075    14.235163 
  158000    133.11253     59214610            0     59215128    12.683359    22.410363    14.178792    19.738374      33.2667    8.5956501    12.612127     22.30075    14.235163 
  158200    96.901175     59213581            0     59213959    12.683298    22.410386    14.178883    19.732197     33.26897    8.6048028    12.612127     22.30075    14.235163 
  158400    257.36632     59212444            0     59213446    12.683304    22.410355    14.178912     19.73284    33.265892    8.6076765    12.612127     22.30075    14.235163 
  158600    215.97509     59212940            0     59213781    12.683312    22.410438    14.178923    19.733619    33.274178    8.6087097    12.612127     22.30075    14.235163 
  158800     103.7413     59212893            0     59213297     12.68331    22.410322    14.178569    19.733478    33.262578    8.5733253    12.612127     22.30075    14.235163 
  159000    170.06989     59214754            0     59215416    12.683327    22.410376    14.178843    19.735188    33.267976     8.600746    12.612127     22.30075    14.235163 
  159200    325.00456     59213161            0     59214426    12.683322      22.4104    14.179276    19.734674    33.270398    8.6440699    12.612127     22.30075    14.235163 
  159400    352.94212     59212029            0     59213403    12.683311    22.410344    14.178618    19.733506    33.264794     8.578201    12.612127     22.30075    14.235163 
  159600    289.46995     59212120            0     59213246    12.683254    22.410314     14.17875    19.727866    33.261762    8.5914357    12.612127     22.30075    14.235163 
  159800    290.69209     59212708            0     59213839     12.68331     22.41029    14.178266    19.733428    33.259347    8.5430554    12.612127     22.30075    14.235163 
  160000     214.0529     59211666            0     59212500    12.683325    22.410369    14.179025    19.734951     33.26727    8.6189137    12.612127     22.30075    14.235163 
  160200    247.44029     59212130            0     59213094    12.683409    22.410374    14.179372    19.743382    33.267798    8.6536727    12.612127     22.30075    14.235163 
  160400    308.89695     59212776            0     59213978    12.683259    22.410354    14.178761    19.728364    33.265741    8.5925209    12.612127     22.30075    14.235163 
  160600    315.95218     59213991            0     59215221    12.683321    22.410324    14.178652    19.734504    33.262724    8.5816303    12.612127     22.30075    14.235163 
  160800    123.25077     59214408            0     59214888    12.683348    22.410327    14.178645    19.737222    33.263059    8.5809341    12.612127     22.30075    14.235163 
  161000    264.19987     59214428            0     59215456    12.683297    22.410292    14.179136    19.732111     33.25951    8.6301157    12.612127     22.30075    14.235163 
  161200    473.43688     59213123            0     59214966    12.683315    22.410355    14.179085    19.733903      33.2659    8.6249485    12.612127     22.30075    14.235163 
  161400    158.33622     59213339            0     59213955    12.683314    22.410352    14.178414    19.733857    33.265564    8.5578766    12.612127     22.30075    14.235163 
  161600    229.54095     59212339            0     59213233    12.683346    22.410327    14.178795    19.737025    33.263038    8.5959527    12.612127     22.30075    14.235163 
  161800    232.35297     59212806            0     59213711    12.683342    22.410338     14.17908    19.736697    33.264144    8.6245045    12.612127     22.30075    14.235163 
  162000    323.57392     59213469            0     59214728    12.683342    22.410352    14.178625    19.736677     33.26557    8.5789275    12.612127     22.30075    14.235163 
  162200    344.32772     59212516            0     59213856    12.683335    22.410307    14.178449    19.735921    33.261102    8.5613715    12.612127     22.30075    14.235163 
  162400    335.91557     59213901            0     59215209    12.683354    22.410344    14.177896    19.737887    33.264717    8.5060057    12.612127     22.30075    14.235163 
  162600    122.87507     59214859            0     59215337    12.683316    22.410351    14.178418    19.734029    33.265494     8.558254    12.612127     22.30075    14.235163 
  162800    269.62087     59213545            0     59214595    12.683309    22.410343    14.178293    19.733346    33.264677    8.5457204    12.612127     22.30075    14.235163 
  163000    205.42957     59213541            0     59214341      12.6833    22.410378    14.178613     19.73247     33.26819    8.5777097    12.612127     22.30075    14.235163 
  163200    258.60684     59214128            0     59215135    12.683266    22.410317    14.179094    19.729005    33.262022    8.6258717    12.612127     22.30075    14.235163 
  163400    234.49922     59213376            0     59214289    12.683284     22.41039    14.178668    19.730827    33.269385    8.5832366    12.612127     22.30075    14.235163 
  163600     391.3971     59212053            0     59213577    12.683278     22.41035     14.17945    19.730285     33.26536    8.6615014    12.612127     22.30075    14.235163 
  163800    191.76793     59214052            0     59214799     12.68334    22.410351    14.179557    19.736441     33.26547    8.6722099    12.612127     22.30075    14.235163 
  164000    290.31374     59213335            0     59214466    12.683357    22.410352    14.179551    19.738188    33.265539    8.6716136    12.612127     22.30075    14.235163 
  164200    346.07153     59212689            0     59214036    12.683309    22.410336    14.179611    19.733368    33.263943    8.6776181    12.612127     22.30075    14.235163 
  164400    196.70215     59213891            0     59214657    12.683332     22.41034    14.179539     19.73569    33.264361    8.6704042    12.612127     22.30075    14.235163 
  164600    293.05654     59213597            0     59214738    12.683354    22.410344    14.179483    19.737894    33.264777    8.6647726    12.612127     22.30075    14.235163 
  164800    177.07886     59213192            0     59213881     12.68333    22.410343    14.178851    19.735469    33.264702    8.6015601    12.612127     22.30075    14.235163 
  165000    234.18026     59213192            0     59214104    12.683298    22.410334    14.179193     19.73223    33.263726    8.6357201    12.612127     22.30075    14.235163 
  165200     88.65478     59212533            0     59212879    12.683304    22.410371    14.178349     19.73281    33.267508    8.5513577    12.612127     22.30075    14.235163 
  165400    234.46243     59212859            0     59213772    12.683313    22.410324    14.178823    19.733708    33.262802    8.5987435    12.612127     22.30075    14.235163 
  165600     247.1857     59212987            0     59213950    12.683226    22.410384    14.178715       19.725    33.268799    8.5879384    12.612127     22.30075    14.235163 
  165800    279.30571     59214920            0     59216008    12.683347    22.410349     14.17889    19.737107    33.265285    8.6054162    12.612127     22.30075    14.235163 
  166000    97.434529     59212969            0     59213349     12.68331    22.410368    14.178769    19.733418     33.26715    8.5933465    12.612127     22.30075    14.235163 
  166200    274.47325     59212705            0     59213774    12.683316    22.410353    14.179127    19.734047    33.265643    8.6291605    12.612127     22.30075    14.235163 
  166400    412.34106     59213357            0     59214962    12.683333    22.410357    14.178483    19.735752    33.266086    8.5647041    12.612127     22.30075    14.235163 
  166600    169.61683     59213490            0     59214150    12.683295    22.410337    14.178827    19.731901    33.264052    8.5991967    12.612127     22.30075    14.235163 
  166800    180.27169     59215028            0     59215730    12.683323    22.410316    14.178526    19.734729    33.261917    8.5690412    12.612127     22.30075    14.235163 
  167000    378.01053     59213065            0     59214537    12.683288     22.41037    14.178768    19.731255    33.267354    8.5932965    12.612127     22.30075    14.235163 
  167200    232.56894     59211765            0     59212670    12.683312     22.41042    14.179224    19.733675     33.27239    8.6388226    12.612127     22.30075    14.235163 
  167400    53.803169     59213677            0     59213887    12.683295    22.410338    14.178679    19.731907    33.264188    8.5843069    12.612127     22.30075    14.235163 
  167600     337.1172     59213653            0     59214965    12.683314    22.410363     14.17853    19.733815    33.266673    8.5694312    12.612127     22.30075    14.235163 
  167800    139.65385     59213612            0     59214155    12.683312    22.410363    14.177948    19.733693    33.266654    8.5112594    12.612127     22.30075    14.235163 
  168000    339.68515     59214390            0     59215712    12.683338    22.410327     14.17799    19.736211    33.263066    8.5153751    12.612127     22.30075    14.235163 
  168200    90.402647     59215216            0     59215568    12.683339    22.410325    14.177944    19.736378    33.262902     8.510823    12.612127     22.30075    14.235163 
  168400    191.06186     59214340            0     59215084    12.683321    22.410378    14.178183    19.734576     33.26817    8.5346814    12.612127     22.30075    14.235163 
  168600    292.44108     59214970            0     59216109    12.683322    22.410395    14.178148    19.734635    33.269898      8.53127    12.612127     22.30075    14.235163 
  168800    253.33989     59212467            0     59213453    12.683369    22.410315    14.179341    19.739379    33.261815     8.650609    12.612127     22.30075    14.235163 
  169000    220.11495     59213053            0     59213909    12.683325    22.410327    14.179045    19.734991    33.263041    8.6209676    12.612127     22.30075    14.235163 
  169200    114.44323     59216189            0     59216635    12.683275    22.410367    14.179066    19.729988    33.267073    8.6230189    12.612127     22.30075    14.235163 
  169400    257.19824     59214570            0     59215572    12.683288    22.410358    14.179558     19.73121    33.266138    8.6723222    12.612127     22.30075    14.235163 
  169600    160.80452     59213577            0     59214203    12.683273    22.410344    14.179498    19.729715    33.264742    8.6662785    12.612127     22.30075    14.235163 
  169800    134.73222     59214431            0     59214956    12.683307    22.410369    14.178871    19.733174    33.267252    8.6035889    12.612127     22.30075    14.235163 
  170000    328.65064     59212340            0     59213620     12.68331    22.410331    14.179226    19.733436    33.263455    8.6390928    12.612127     22.30075    14.235163 
  170200     399.1048     59214248            0     59215802    12.683339    22.410314    14.179018     19.73632    33.261782     8.618286    12.612127     22.30075    14.235163 
  170400    224.70837     59213070            0     59213944     12.68331    22.410384    14.178964    19.733476    33.268805    8.6128981    12.612127     22.30075    14.235163 
  170600    314.28948     59212385            0     59213609    12.683328    22.410349    14.179652    19.735231    33.265262    8.6817105    12.612127     22.30075    14.235163 
  170800    239.88875     59213426            0     59214360    12.683342    22.410328    14.179935    19.736635    33.263144    8.7099523    12.612127     22.30075    14.235163 
  171000    143.59209     59213057            0     59213616    12.683311    22.410347    14.179231    19.733569    33.265067    8.6395567    12.612127     22.30075    14.235163 
  171200     219.4888     59214974            0     59215828    12.683321    22.410335    14.178834    19.734573    33.263905    8.5998177    12.612127     22.30075    14.235163 
  171400    310.05607     59215022            0     59216229    12.683358      22.4104    14.178966     19.73826    33.270382    8.6130267    12.612127     22.30075    14.235163 
  171600     372.7952     59214726            0     59216177    12.683314     22.41037    14.179474    19.733804    33.267389    8.6638546    12.612127     22.30075    14.235163 
  171800    212.39303     59214736            0     59215563    12.683325    22.410343    14.179833    19.734907    33.264619    8.6997951    12.612127     22.30075    14.235163 
  172000    294.22862     59215245            0     59216391    12.683294    22.410321    14.178294    19.731856    33.262471    8.5458787    12.612127     22.30075    14.235163 
  172200    250.28159     59211715            0     59212690    12.683309    22.410366    14.179198    19.733359    33.266981    8.6362785    12.612127     22.30075    14.235163 
  172400    260.15122     59212790            0     59213803    12.683303    22.410351    14.178117    19.732771    33.265481    8.5281614    12.612127     22.30075    14.235163 
  172600    217.90451     59212711            0     59213559    12.683335    22.410352    14.179666    19.735922    33.265569    8.6830537    12.612127     22.30075    14.235163 
  172800     339.2702     59213727            0     59215047     12.68328    22.410332    14.178771    19.730423    33.263531    8.5935423    12.612127     22.30075    14.235163 
  173000    199.45335     59215454            0     59216231    12.683285     22.41035    14.178313    19.730976    33.265386    8.5477736    12.612127     22.30075    14.235163 
  173200    244.56597     59215239            0     59216191    12.683355    22.410343    14.179644     19.73798    33.264703    8.6808699    12.612127     22.30075    14.235163 
  173400    389.27318     59213165            0     59214681    12.683327    22.410314    14.179282    19.735168    33.261718    8.6446711    12.612127     22.30075    14.235163 
  173600    363.70332     59213004            0     59214420    12.683315    22.410368    14.178665    19.733985    33.267169    8.5829798    12.612127     22.30075    14.235163 
  173800    288.12471     59212861            0     59213983    12.683404    22.410373    14.178499    19.742861    33.267621    8.5663294    12.612127     22.30075    14.235163 
  174000    171.97562     59213968            0     59214637    12.683276    22.410349    14.179039    19.730044    33.265297    8.6203948    12.612127     22.30075    14.235163 
  174200    267.61713     59214290            0     59215332    12.683355    22.410329    14.178844    19.737963    33.263254     8.600839    12.612127     22.30075    14.235163 
  174400    265.68339     59213163            0     59214197    12.683298    22.410384    14.179528    19.732257    33.268732    8.6692469    12.612127     22.30075    14.235163 
  174600    421.17503     59212439            0     59214078    12.683309    22.410364    14.179049    19.733304    33.266734    8.6214086    12.612127     22.30075    14.235163 
  174800    189.38991     59213899            0     59214637    12.683322     22.41034    14.179079    19.734658    33.264313    8.6243159    12.612127     22.30075    14.235163 
  175000    145.78548     59212986            0     59213553    12.683315    22.410369    14.179371    19.733907    33.267222    8.6535725    12.612127     22.30075    14.235163 
  175200    264.39629     59213666            0     59214695    12.683294    22.410373    14.179589    19.731855    33.267651    8.6753544    12.612127     22.30075    14.235163 
  175400    245.97121     59215254            0     59216212    12.683297    22.410406    14.179705    19.732134     33.27092    8.6870153    12.612127     22.30075    14.235163 
  175600    287.26699     59214372            0     59215490    12.683341    22.410363     14.17949    19.736548    33.266616     8.665495    12.612127     22.30075    14.235163 
  175800    215.21497     59213825            0     59214663    12.683326    22.410325    14.179323     19.73503     33.26288    8.6487526    12.612127     22.30075    14.235163 
  176000    205.66229     59212904            0     59213704     12.68329    22.410326    14.178554    19.731458     33.26293    8.5718903    12.612127     22.30075    14.235163 
  176200    539.38953     59214681            0     59216780    12.683348     22.41035    14.178679    19.737271    33.265326    8.5843718    12.612127     22.30075    14.235163 
  176400    300.44927     59211039            0     59212208    12.683309    22.410349    14.178784    19.733394    33.265224    8.5948496    12.612127     22.30075    14.235163 
  176600    148.28738     59211194            0     59211771    12.683346    22.410356    14.178635    19.737074    33.265978    8.5799898    12.612127     22.30075    14.235163 
  176800    246.26104     59212721            0     59213680    12.683296    22.410328    14.178437    19.732058    33.263205    8.5600883    12.612127     22.30075    14.235163 
  177000    338.88057     59214806            0     59216125    12.683342    22.410346    14.178366    19.736644    33.264965    8.5530539    12.612127     22.30075    14.235163 
  177200    366.27721     59213415            0     59214841    12.683379    22.410412    14.178975    19.740395    33.271535    8.6139845    12.612127     22.30075    14.235163 
  177400    178.16107     59213300            0     59213993    12.683315     22.41038    14.179009    19.733973    33.268396    8.6174079    12.612127     22.30075    14.235163 
  177600    337.18634     59214240            0     59215552    12.683382    22.410344    14.178646    19.740677    33.264771    8.5810815    12.612127     22.30075    14.235163 
  177800    138.94144     59214249            0     59214790     12.68331    22.410358    14.178442     19.73344    33.266173    8.5606638    12.612127     22.30075    14.235163 
  178000    244.10853     59214961            0     59215911    12.683273    22.410302    14.178341    19.729785    33.260596    8.5505046    12.612127     22.30075    14.235163 
  178200    198.25074     59214626            0     59215397    12.683343    22.410316    14.178685    19.736729    33.261917     8.584941    12.612127     22.30075    14.235163 
  178400    197.31801     59213432            0     59214200    12.683314    22.410349     14.17904    19.733896    33.265234    8.6204414    12.612127     22.30075    14.235163 
  178600    101.96658     59213372            0     59213769    12.683324    22.410369    14.178986    19.734851    33.267234    8.6151072    12.612127     22.30075    14.235163 
  178800     191.4608     59211916            0     59212662    12.683314    22.410373    14.179195    19.733797    33.267697    8.6359642    12.612127     22.30075    14.235163 
  179000    251.49442     59214740            0     59215719    12.683316    22.410355    14.179445    19.734052     33.26586    8.6609416    12.612127     22.30075    14.235163 
  179200    169.67328     59213472            0     59214132     12.68332    22.410358     14.17852    19.734424    33.266161    8.5684585    12.612127     22.30075    14.235163 
  179400    278.77107     59213010            0     59214095    12.683325    22.410326    14.178548    19.734995    33.262984    8.5712417    12.612127     22.30075    14.235163 
  179600    164.06432     59213045            0     59213683    12.683326    22.410335    14.179245    19.735038    33.263904    8.6409865    12.612127     22.30075    14.235163 
  179800    233.68899     59214113            0     59215023    12.683328    22.410268    14.179232    19.735211    33.257147     8.639643    12.612127     22.30075    14.235163 
  180000    323.91326     59212424            0     59213684     12.68333    22.410318    14.179043    19.735457    33.262204    8.6207901    12.612127     22.30075    14.235163 
  180200    166.68363     59214110            0     59214759    12.683319    22.410369    14.179119    19.734344    33.267278    8.6283199    12.612127     22.30075    14.235163 
  180400    254.80109     59213822            0     59214813    12.683297     22.41034     14.17846     19.73212    33.264386     8.562487    12.612127     22.30075    14.235163 
  180600    434.41415     59211303            0     59212994    12.683307    22.410389     14.17929    19.733193    33.269247    8.6455146    12.612127     22.30075    14.235163 
  180800    267.42913     59215376            0     59216417    12.683339    22.410304    14.178243     19.73637    33.260771    8.5407022    12.612127     22.30075    14.235163 
  181000     262.0575     59211889            0     59212909      12.6833    22.410365    14.179385    19.732479    33.266884    8.6549654    12.612127     22.30075    14.235163 
  181200    217.37864     59214049            0     59214895    12.683306    22.410368    14.178974    19.733041    33.267202    8.6138903    12.612127     22.30075    14.235163 
  181400    287.88133     59212281            0     59213402    12.683278    22.410349     14.17877    19.730214    33.265307    8.5934478    12.612127     22.30075    14.235163 
  181600     654.9079     59212042            0     59214591    12.683279    22.410366    14.178906    19.730359    33.266988    8.6070482    12.612127     22.30075    14.235163 
  181800    263.95486     59213050            0     59214077    12.683266    22.410387    14.178839    19.729085    33.269058     8.600361    12.612127     22.30075    14.235163 
  182000     316.0916     59213343            0     59214573    12.683308    22.410359    14.178708     19.73324    33.266242    8.5872123    12.612127     22.30075    14.235163 
  182200    316.02277     59211929            0     59213159    12.683284    22.410373    14.178667    19.730829    33.267636    8.5831861    12.612127     22.30075    14.235163 
  182400    384.03341     59214034            0     59215529    12.683274    22.410339    14.179016    19.729828    33.264239    8.6180417    12.612127     22.30075    14.235163 
  182600    252.84873     59213998            0     59214982    12.683305    22.410338    14.179136    19.732995    33.264153    8.6300736    12.612127     22.30075    14.235163 
  182800    343.94699     59213323            0     59214661    12.683325    22.410319    14.178832    19.734948    33.262227    8.5996138    12.612127     22.30075    14.235163 
  183000     137.2435     59212280            0     59212814    12.683338    22.410412    14.179177    19.736261    33.271605    8.6341575    12.612127     22.30075    14.235163 
  183200    149.62153     59215468            0     59216050    12.683333    22.410347    14.178446    19.735779    33.265035    8.5610754    12.612127     22.30075    14.235163 
  183400    256.82293     59214560            0     59215560    12.683295    22.410395    14.178799    19.731897    33.269899    8.5963525    12.612127     22.30075    14.235163 
  183600    266.46592     59213867            0     59214904    12.683325    22.410447    14.178457    19.734913    33.275012    8.5621349    12.612127     22.30075    14.235163 
  183800      227.217     59211915            0     59212799     12.68333    22.410327    14.179124    19.735436    33.263071    8.6288165    12.612127     22.30075    14.235163 
  184000    301.84606     59213867            0     59215042    12.683294     22.41042     14.17862    19.731863    33.272321    8.5784768    12.612127     22.30075    14.235163 
  184200    169.29433     59214834            0     59215493     12.68326     22.41037    14.177811    19.728469    33.267323    8.4975582    12.612127     22.30075    14.235163 
  184400    278.91196     59215590            0     59216675     12.68332    22.410369    14.178516    19.734492    33.267278    8.5679997    12.612127     22.30075    14.235163 
  184600    241.78198     59212724            0     59213665    12.683283    22.410366    14.178825    19.730783    33.266997    8.5989556    12.612127     22.30075    14.235163 
  184800    179.29468     59213727            0     59214425    12.683326    22.410332    14.178145    19.735022    33.263566    8.5309205    12.612127     22.30075    14.235163 
  185000     221.0195     59213737            0     59214598    12.683297    22.410318    14.178127    19.732133    33.262155    8.5290897    12.612127     22.30075    14.235163 
  185200    243.17362     59212924            0     59213871    12.683297    22.410395    14.178432    19.732139    33.269814    8.5596528    12.612127     22.30075    14.235163 
  185400    176.08266     59210298            0     59210984    12.683321    22.410356    14.178908    19.734546    33.266003    8.6072752    12.612127     22.30075    14.235163 
  185600    335.39346     59213432            0     59214738    12.683303    22.410375    14.178976    19.732743     33.26781    8.6140356    12.612127     22.30075    14.235163 
  185800    178.46734     59212536            0     59213230    12.683293    22.410343    14.179436    19.731778    33.264668    8.6601187    12.612127     22.30075    14.235163 
  186000    141.40143     59211996            0     59212547     12.68335    22.410333    14.178907    19.737455    33.263625    8.6072034    12.612127     22.30075    14.235163 
  186200    365.52924     59211786            0     59213209    12.683285    22.410319    14.179011    19.730977    33.262271    8.6175176    12.612127     22.30075    14.235163 
  186400    210.15578     59211888            0     59212706    12.683296    22.410377    14.178626    19.732033     33.26807    8.5790368    12.612127     22.30075    14.235163 
  186600    258.54543     59211293            0     59212299    12.683255    22.410339    14.178955    19.727956    33.264306    8.6119802    12.612127     22.30075    14.235163 
  186800    388.32543     59211960            0     59213471    12.683322    22.410392    14.178937    19.734697    33.269544    8.6101638    12.612127     22.30075    14.235163 
  187000     164.2987     59211330            0     59211970    12.683302    22.410367    14.179007    19.732623    33.267105    8.6172038    12.612127     22.30075    14.235163 
  187200    173.46345     59212508            0     59213184    12.683322    22.410397    14.179185    19.734659    33.270105    8.6349616    12.612127     22.30075    14.235163 
  187400    184.14963     59212276            0     59212993    12.683335    22.410333    14.179164    19.735912    33.263614    8.6329048    12.612127     22.30075    14.235163 
  187600    319.48572     59212162            0     59213406    12.683328    22.410353    14.178899    19.735224    33.265617    8.6063998    12.612127     22.30075    14.235163 
  187800    319.93561     59212419            0     59213665    12.683305    22.410382    14.178722    19.732991    33.268557    8.5886181    12.612127     22.30075    14.235163 
  188000    274.41686     59211744            0     59212812    12.683302    22.410353    14.178925    19.732605    33.265699     8.608933    12.612127     22.30075    14.235163 
  188200    335.32597     59211727            0     59213033     12.68334    22.410331    14.179159      19.7364    33.263437    8.6323252    12.612127     22.30075    14.235163 
  188400    247.02514     59211671            0     59212633    12.683351    22.410323    14.178758    19.737575    33.262671    8.5922864    12.612127     22.30075    14.235163 
  188600    179.76322     59211351            0     59212051    12.683297    22.410365    14.179407    19.732106    33.266881    8.6571955    12.612127     22.30075    14.235163 
  188800    434.03881     59211458            0     59213148    12.683201    22.410379    14.179129    19.722562    33.268244    8.6293375    12.612127     22.30075    14.235163 
  189000    243.47866     59211381            0     59212329    12.683299    22.410361    14.179435    19.732338    33.266488    8.6599869    12.612127     22.30075    14.235163 
  189200    170.29181     59214028            0     59214691    12.683299    22.410305    14.179607     19.73235    33.260832    8.6771742    12.612127     22.30075    14.235163 
  189400    319.46619     59212881            0     59214124     12.68333    22.410315    14.178496      19.7354    33.261865    8.5660195    12.612127     22.30075    14.235163 
  189600    132.62711     59213726            0     59214242    12.683306    22.410335    14.178652    19.733068    33.263894    8.5816904    12.612127     22.30075    14.235163 
  189800    280.21353     59213029            0     59214120    12.683306    22.410362    14.178248    19.733082    33.266604    8.5412596    12.612127     22.30075    14.235163 
  190000    445.42135     59212452            0     59214186    12.683273    22.410373    14.178743    19.729745    33.267658    8.5907122    12.612127     22.30075    14.235163 
  190200    229.22457     59212324            0     59213216    12.683321    22.410353    14.178788    19.734563    33.265651    8.5952178    12.612127     22.30075    14.235163 
  190400    412.33438     59212393            0     59213998    12.683353    22.410375    14.178738    19.737783     33.26787    8.5902272    12.612127     22.30075    14.235163 
  190600    274.15254     59212176            0     59213243    12.683337    22.410379    14.178994    19.736135    33.268291    8.6158815    12.612127     22.30075    14.235163 
  190800    118.41856     59212603            0     59213064    12.683333     22.41031    14.179003    19.735782    33.261314    8.6167269    12.612127     22.30075    14.235163 
  191000    290.89669     59211443            0     59212576    12.683304    22.410375    14.179138    19.732861    33.267851    8.6302942    12.612127     22.30075    14.235163 
  191200    279.78216     59212072            0     59213162    12.683302    22.410306    14.178727    19.732656     33.26094    8.5891594    12.612127     22.30075    14.235163 
  191400    126.25877     59212399            0     59212890    12.683316     22.41037    14.179118    19.734092    33.267319    8.6282941    12.612127     22.30075    14.235163 
  191600    232.36757     59213963            0     59214868    12.683379    22.410325    14.179072    19.740349    33.262866    8.6236296    12.612127     22.30075    14.235163 
  191800    317.37834     59212348            0     59213584    12.683246    22.410337    14.179311    19.727009    33.264019    8.6475579    12.612127     22.30075    14.235163 
  192000    249.39937     59212482            0     59213453    12.683298     22.41035    14.179255    19.732207    33.265383    8.6419426    12.612127     22.30075    14.235163 
  192200    177.67033     59214103            0     59214794    12.683301    22.410373     14.17811    19.732522    33.267689    8.5274343    12.612127     22.30075    14.235163 
  192400    446.53599     59212976            0     59214715    12.683344    22.410318     14.17855    19.736837    33.262163     8.571422    12.612127     22.30075    14.235163 
  192600    239.13017     59213187            0     59214118    12.683327    22.410353    14.179319    19.735104    33.265631    8.6484052    12.612127     22.30075    14.235163 
  192800    240.98623     59212794            0     59213732     12.68333    22.410359    14.179066    19.735403    33.266229    8.6230138    12.612127     22.30075    14.235163 
  193000    381.15389     59212640            0     59214124    12.683293    22.410343    14.178435    19.731751    33.264665    8.5599647    12.612127     22.30075    14.235163 
  193200    187.86035     59214778            0     59215510    12.683347    22.410365    14.178708    19.737149    33.266895    8.5872384    12.612127     22.30075    14.235163 
  193400    185.52819     59212299            0     59213022    12.683358    22.410389    14.178864    19.738292    33.269273    8.6028826    12.612127     22.30075    14.235163 
  193600    213.99431     59213544            0     59214377    12.683315    22.410362    14.178943    19.733957    33.266593    8.6107729    12.612127     22.30075    14.235163 
  193800    445.06073     59213889            0     59215621    12.683302    22.410309    14.179271    19.732615    33.261253    8.6436072    12.612127     22.30075    14.235163 
  194000    231.74156     59215112            0     59216014    12.683305    22.410369     14.17964    19.732936    33.267229    8.6805352    12.612127     22.30075    14.235163 
  194200    392.90544     59213790            0     59215319    12.683288    22.410365    14.179674     19.73129    33.266815    8.6839064    12.612127     22.30075    14.235163 
  194400    217.26808     59212965            0     59213811    12.683302    22.410378     14.17965     19.73269    33.268155    8.6815268    12.612127     22.30075    14.235163 
  194600    195.47943     59213274            0     59214035    12.683311    22.410327    14.179546    19.733559    33.263072    8.6710702    12.612127     22.30075    14.235163 
  194800    225.86932     59213062            0     59213941    12.683338    22.410373    14.179416    19.736264    33.267632    8.6580774    12.612127     22.30075    14.235163 
  195000     140.8149     59215311            0     59215859    12.683268    22.410376    14.180188    19.729273    33.267973    8.7353405    12.612127     22.30075    14.235163 
  195200    340.42901     59212581            0     59213906    12.683319    22.410352    14.179413    19.734371    33.265602    8.6577893    12.612127     22.30075    14.235163 
  195400    169.96642     59211522            0     59212184    12.683313    22.410364    14.179158    19.733777    33.266743    8.6322514    12.612127     22.30075    14.235163 
  195600     275.9009     59212212            0     59213286    12.683348    22.410368    14.179198    19.737282    33.267176    8.6362541    12.612127     22.30075    14.235163 
  195800    233.11068     59212199            0     59213106    12.683342    22.410341     14.17866    19.736685    33.264456     8.582472    12.612127     22.30075    14.235163 
  196000    347.84696     59213209            0     59214563    12.683335    22.410364    14.178244    19.735909    33.266792    8.5407942    12.612127     22.30075    14.235163 
  196200    167.64969     59213143            0     59213796    12.683333    22.410374    14.178757    19.735763    33.267766      8.59211    12.612127     22.30075    14.235163 
  196400     246.7531     59212376            0     59213337    12.683327    22.410357    14.179364    19.735134    33.266039    8.6529122    12.612127     22.30075    14.235163 
  196600    233.91041     59211510            0     59212421    12.683326    22.410353    14.178845    19.735075    33.265617    8.6009055    12.612127     22.30075    14.235163 
  196800    398.15317     59212526            0     59214076    12.683315    22.410321    14.178547    19.733906    33.262469    8.5710986    12.612127     22.30075    14.235163 
  197000    105.39351     59213431            0     59213841    12.683339    22.410381    14.178596    19.736384    33.268454     8.576032    12.612127     22.30075    14.235163 
  197200    236.85284     59213841            0     59214763    12.683347    22.410344    14.178145    19.737144    33.264756    8.5309132    12.612127     22.30075    14.235163 
  197400    377.97965     59213425            0     59214897     12.68332    22.410388    14.178914    19.734436    33.269195    8.6078418    12.612127     22.30075    14.235163 
  197600    173.02079     59212942            0     59213615    12.683304    22.410316    14.179215     19.73283    33.261973    8.6379304    12.612127     22.30075    14.235163 
  197800    208.95429     59213453            0     59214266     12.68336    22.410345    14.179206    19.738435    33.264878    8.6371002    12.612127     22.30075    14.235163 
  198000    84.361594     59212160            0     59212488     12.68327    22.410368     14.17901    19.729423    33.267192    8.6174272    12.612127     22.30075    14.235163 
  198200    217.60128     59211101            0     59211948     12.68331    22.410353    14.178998    19.733496    33.265662     8.616246    12.612127     22.30075    14.235163 
  198400    196.91961     59211152            0     59211919    12.683335    22.410363    14.178804     19.73592    33.266668    8.5968121    12.612127     22.30075    14.235163 
  198600    211.09261     59213164            0     59213986    12.683311    22.410339    14.178638    19.733551    33.264226    8.5802687    12.612127     22.30075    14.235163 
  198800    177.52896     59214004            0     59214695    12.683362    22.410355    14.178976     19.73866    33.265908    8.6141051    12.612127     22.30075    14.235163 
  199000     141.1997     59210714            0     59211264    12.683322    22.410346    14.179303    19.734666    33.265007    8.6468221    12.612127     22.30075    14.235163 
  199200    375.77762     59210932            0     59212395    12.683316    22.410355    14.179026    19.734041    33.265843    8.6190245    12.612127     22.30075    14.235163 
  199400    109.73422     59212855            0     59213282    12.683331    22.410362    14.178881    19.735542    33.266567    8.6045125    12.612127     22.30075    14.235163 
  199600    192.69987     59213160            0     59213911    12.683297    22.410285    14.178874    19.732125    33.258859    8.6039038    12.612127     22.30075    14.235163 
  199800    297.80443     59212330            0     59213490    12.683319     22.41036    14.179367    19.734387    33.266369     8.653203    12.612127     22.30075    14.235163 
  200000    171.00547     59213595            0     59214261     12.68332    22.410334    14.179398    19.734497    33.263735    8.6562375    12.612127     22.30075    14.235163 
  200200    204.26349     59213032            0     59213827    12.683293    22.410344    14.179733    19.731762    33.264764    8.6897587    12.612127     22.30075    14.235163 
  200400    243.49529     59212343            0     59213291    12.683305    22.410405    14.179326    19.732938    33.270879    8.6491192    12.612127     22.30075    14.235163 
  200600    220.27012     59211695            0     59212553     12.68333    22.410387    14.179229    19.735421    33.269102    8.6393784    12.612127     22.30075    14.235163 
  200800    256.36517     59212408            0     59213406    12.683315    22.410354    14.178851    19.733982    33.265744    8.6015887    12.612127     22.30075    14.235163 
  201000    253.49642     59213267            0     59214254    12.683315    22.410355    14.179103    19.733949    33.265819    8.6267883    12.612127     22.30075    14.235163 
  201200    280.26928     59211359            0     59212450    12.683349    22.410381    14.179476    19.737308    33.268506    8.6640372    12.612127     22.30075    14.235163 
  201400    437.96067     59212633            0     59214338    12.683326    22.410358    14.178734    19.735012    33.266156    8.5898645    12.612127     22.30075    14.235163 
  201600    213.79712     59212700            0     59213532    12.683303     22.41038    14.178928    19.732736    33.268365    8.6092245    12.612127     22.30075    14.235163 
  201800    315.56249     59213534            0     59214763    12.683336    22.410344    14.178673    19.736049     33.26472    8.5837393    12.612127     22.30075    14.235163 
  202000    213.73902     59212837            0     59213669    12.683309    22.410363    14.178281    19.733364    33.266633    8.5445611    12.612127     22.30075    14.235163 
  202200    177.93248     59212943            0     59213636    12.683337    22.410344    14.178939    19.736169    33.264711    8.6103109    12.612127     22.30075    14.235163 
  202400    216.54652     59212380            0     59213223    12.683337     22.41042    14.178536    19.736191    33.272314    8.5700004    12.612127     22.30075    14.235163 
  202600    273.18025     59210920            0     59211983    12.683315    22.410354    14.178928    19.733976    33.265786    8.6092444    12.612127     22.30075    14.235163 
  202800    307.28893     59211893            0     59213090    12.683321    22.410343    14.178691    19.734534     33.26465    8.5855895    12.612127     22.30075    14.235163 
  203000    177.60209     59212503            0     59213195     12.68329    22.410388    14.179157    19.731431      33.2692    8.6321664    12.612127     22.30075    14.235163 
  203200    223.70111     59211496            0     59212367    12.683316    22.410353    14.178761    19.734015    33.265676    8.5925522    12.612127     22.30075    14.235163 
  203400    106.26928     59211446            0     59211860    12.683302    22.410359    14.178948    19.732689    33.266298    8.6112808    12.612127     22.30075    14.235163 
  203600    341.31652     59214095            0     59215423     12.68332    22.410392     14.17924    19.734459    33.269532    8.6404958    12.612127     22.30075    14.235163 
  203800    296.65057     59213300            0     59214455    12.683303    22.410365    14.179418    19.732718    33.266868     8.658303    12.612127     22.30075    14.235163 
  204000     273.6057     59213837            0     59214902    12.683328    22.410361    14.179272    19.735224     33.26644     8.643631    12.612127     22.30075    14.235163 
  204200    321.48438     59213263            0     59214515    12.683301    22.410374    14.178815    19.732516    33.267736    8.5979832    12.612127     22.30075    14.235163 
  204400    207.34755     59212186            0     59212993    12.683288    22.410379    14.179516    19.731287    33.268307    8.6681291    12.612127     22.30075    14.235163 
  204600     254.4644     59212237            0     59213228    12.683329    22.410349    14.179168      19.7353    33.265302    8.6332532    12.612127     22.30075    14.235163 
  204800    397.66264     59211533            0     59213081    12.683332    22.410297    14.179336    19.735646    33.260088    8.6500378    12.612127     22.30075    14.235163 
  205000    290.03236     59212388            0     59213517    12.683302    22.410352    14.178167    19.732694    33.265593    8.5331735    12.612127     22.30075    14.235163 
  205200     283.0628     59212570            0     59213672     12.68329    22.410374    14.178612    19.731412    33.267742    8.5776002    12.612127     22.30075    14.235163 
  205400    104.62594     59212775            0     59213183    12.683304    22.410332    14.178337    19.732873      33.2636    8.5501742    12.612127     22.30075    14.235163 
  205600    325.86257     59212064            0     59213333    12.683313    22.410373     14.17865    19.733734    33.267636    8.5814909    12.612127     22.30075    14.235163 
  205800    358.33919     59212519            0     59213914    12.683296    22.410312    14.178766    19.732063    33.261552    8.5930265    12.612127     22.30075    14.235163 
  206000    111.82428     59213441            0     59213877    12.683322    22.410315    14.178196    19.734604    33.261891    8.5360686    12.612127     22.30075    14.235163 
  206200    202.48151     59212550            0     59213338    12.683316    22.410353    14.178699    19.734007    33.265679    8.5863251    12.612127     22.30075    14.235163 
  206400    237.94475     59211865            0     59212791    12.683307    22.410349    14.179094    19.733194    33.265242    8.6258368    12.612127     22.30075    14.235163 
  206600    207.40822     59213190            0     59213998    12.683318    22.410362    14.178654     19.73424    33.266541    8.5818279    12.612127     22.30075    14.235163 
  206800    324.62214     59214123            0     59215386    12.683313    22.410346    14.178343     19.73378    33.264931    8.5507268    12.612127     22.30075    14.235163 
  207000    350.81476     59212995            0     59214361    12.683285    22.410361    14.178692    19.730958    33.266488     8.585629    12.612127     22.30075    14.235163 
  207200    267.60296     59212091            0     59213133    12.683339    22.410379    14.178669    19.736346    33.268282    8.5833525    12.612127     22.30075    14.235163 
  207400    69.682724     59212200            0     59212471    12.683324    22.410337    14.179061    19.734842    33.264039     8.622596    12.612127     22.30075    14.235163 
  207600    289.16561     59213197            0     59214323    12.683319    22.410352    14.178487    19.734367    33.265553    8.5651224    12.612127     22.30075    14.235163 
  207800    122.86906     59213305            0     59213784    12.683342    22.410326    14.178062    19.736618    33.263001    8.5226008    12.612127     22.30075    14.235163 
  208000     201.5402     59213163            0     59213947    12.683316    22.410334    14.178049    19.734015    33.263774    8.5213394    12.612127     22.30075    14.235163 
  208200    188.92281     59212970            0     59213705    12.683329    22.410399    14.178689    19.735316     33.27025    8.5853747    12.612127     22.30075    14.235163 
  208400    184.95405     59212709            0     59213429    12.683321    22.410377    14.178688    19.734534     33.26805    8.5852086    12.612127     22.30075    14.235163 
  208600    184.89864     59211195            0     59211914    12.683288    22.410329    14.178779    19.731284    33.263285    8.5943714    12.612127     22.30075    14.235163 
  208800    93.716786     59211665            0     59212030    12.683301    22.410361    14.178553    19.732508    33.266462     8.571706    12.612127     22.30075    14.235163 
  209000    245.32793     59212212            0     59213167     12.68331    22.410339    14.178576    19.733432    33.264251    8.5740712    12.612127     22.30075    14.235163 
  209200    298.44572     59212312            0     59213473    12.683297    22.410341    14.178496    19.732175    33.264461    8.5660603    12.612127     22.30075    14.235163 
  209400     209.7966     59212489            0     59213305    12.683279    22.410324    14.178872    19.730385    33.262744    8.6036544    12.612127     22.30075    14.235163 
  209600    285.70034     59212281            0     59213393    12.683296    22.410323    14.178637    19.732058    33.262613    8.5801213    12.612127     22.30075    14.235163 
  209800    253.19006     59213769            0     59214755    12.683293    22.410378    14.178168    19.731769    33.268153     8.533247    12.612127     22.30075    14.235163 
  210000    333.09795     59213151            0     59214448    12.683345    22.410372    14.179048     19.73699    33.267554    8.6212855    12.612127     22.30075    14.235163 
  210200    178.22125     59213050            0     59213744    12.683322    22.410366    14.179649    19.734642    33.266985    8.6813503    12.612127     22.30075    14.235163 
  210400     180.0622     59212929            0     59213630    12.683324    22.410369    14.178587    19.734856    33.267231    8.5751368    12.612127     22.30075    14.235163 
  210600    166.84322     59211035            0     59211684    12.683276    22.410378    14.178992    19.730017    33.268196    8.6156408    12.612127     22.30075    14.235163 
  210800    269.10219     59212185            0     59213232    12.683328    22.410361     14.17904    19.735252    33.266453    8.6204344    12.612127     22.30075    14.235163 
  211000    326.13118     59211084            0     59212353    12.683263    22.410382    14.179079    19.728745    33.268552    8.6243215    12.612127     22.30075    14.235163 
  211200    306.11863     59210616            0     59211808    12.683316    22.410353    14.179008    19.734083    33.265701    8.6172619    12.612127     22.30075    14.235163 
  211400    179.08665     59211814            0     59212511    12.683299    22.410332    14.178754    19.732371    33.263513    8.5918144    12.612127     22.30075    14.235163 
  211600    213.36584     59212091            0     59212922    12.683274    22.410381    14.178964    19.729891    33.268451    8.6128851    12.612127     22.30075    14.235163 
  211800    304.43584     59211122            0     59212307    12.683344    22.410328    14.178888    19.736824    33.263206      8.60528    12.612127     22.30075    14.235163 
  212000    161.83279     59212791            0     59213421    12.683303    22.410344    14.178792    19.732734    33.264786    8.5956858    12.612127     22.30075    14.235163 
  212200    239.22196     59211695            0     59212626    12.683321    22.410383    14.178813    19.734563    33.268685    8.5977366    12.612127     22.30075    14.235163 
  212400    212.56686     59212071            0     59212899     12.68335     22.41041    14.178935    19.737457    33.271384     8.609984    12.612127     22.30075    14.235163 
  212600    233.46309     59213278            0     59214186    12.683324    22.410363    14.178731    19.734798    33.266704    8.5895386    12.612127     22.30075    14.235163 
  212800     293.3127     59211653            0     59212794    12.683334    22.410399    14.178752    19.735851     33.27031    8.5916344    12.612127     22.30075    14.235163 
  213000    187.33628     59212495            0     59213225    12.683319     22.41034    14.178707     19.73432    33.264388    8.5871638    12.612127     22.30075    14.235163 
  213200    183.18752     59213823            0     59214536    12.683304    22.410361    14.179113    19.732851    33.266471    8.6277844    12.612127     22.30075    14.235163 
  213400    202.67565     59213905            0     59214694    12.683301    22.410366    14.178647    19.732577     33.26698    8.5811321    12.612127     22.30075    14.235163 
  213600    257.33013     59212590            0     59213591    12.683322    22.410355    14.178738    19.734684    33.265836    8.5902805    12.612127     22.30075    14.235163 
  213800    201.19679     59212030            0     59212814      12.6833    22.410328    14.178483    19.732485    33.263188    8.5647664    12.612127     22.30075    14.235163 
  214000    210.72702     59212264            0     59213084    12.683277    22.410389    14.178793    19.730149    33.269252     8.595709    12.612127     22.30075    14.235163 
  214200     325.3133     59212853            0     59214120    12.683302    22.410386    14.178751     19.73267    33.268939    8.5915241    12.612127     22.30075    14.235163 
  214400    219.21316     59211868            0     59212721    12.683344    22.410369    14.178948    19.736848     33.26725     8.611213    12.612127     22.30075    14.235163 
  214600    322.05541     59212146            0     59213400    12.683282    22.410309    14.178726    19.730665    33.261235     8.589059    12.612127     22.30075    14.235163 
  214800    170.84091     59211682            0     59212348    12.683314    22.410331    14.178983     19.73386    33.263477    8.6147335    12.612127     22.30075    14.235163 
  215000    420.24721     59211444            0     59213080    12.683296    22.410351    14.179032     19.73201    33.265477    8.6196804    12.612127     22.30075    14.235163 
  215200    147.55796     59211973            0     59212547    12.683323    22.410346    14.179236    19.734794     33.26498    8.6400557    12.612127     22.30075    14.235163 
  215400     332.1305     59210931            0     59212224    12.683315    22.410354    14.179028     19.73392    33.265731    8.6192236    12.612127     22.30075    14.235163 
  215600      483.369     59211671            0     59213553    12.683342    22.410377    14.178951    19.736698    33.268017    8.6115924    12.612127     22.30075    14.235163 
  215800    324.95487     59212124            0     59213389    12.683329    22.410366    14.179302    19.735376    33.266916    8.6467111    12.612127     22.30075    14.235163 
  216000    197.50725     59212465            0     59213234    12.683356    22.410269    14.178578    19.738035    33.257236    8.5742124    12.612127     22.30075    14.235163 
  216200    315.09511     59212971            0     59214198    12.683298    22.410399    14.178902    19.732282    33.270299    8.6066726    12.612127     22.30075    14.235163 
  216400    265.68989     59211033            0     59212068    12.683308    22.410345     14.17879    19.733293    33.264822    8.5954439    12.612127     22.30075    14.235163 
  216600    340.21509     59211211            0     59212536    12.683319    22.410325     14.17901    19.734298    33.262878    8.6174112    12.612127     22.30075    14.235163 
  216800    125.28988     59212427            0     59212914    12.683297    22.410324    14.178715    19.732175    33.262797    8.5879951    12.612127     22.30075    14.235163 
  217000    268.35971     59212205            0     59213250     12.68336    22.410352    14.178697    19.738426    33.265536    8.5861866    12.612127     22.30075    14.235163 
  217200    253.61316     59212114            0     59213101    12.683316     22.41035    14.179329    19.734088    33.265326    8.6493826    12.612127     22.30075    14.235163 
  217400    109.36997     59211524            0     59211950    12.683311    22.410349    14.178806    19.733554    33.265247    8.5970327    12.612127     22.30075    14.235163 
  217600    377.13793     59211343            0     59212811     12.68333    22.410326    14.179037    19.735404     33.26293    8.6201875    12.612127     22.30075    14.235163 
  217800    365.11123     59211789            0     59213210    12.683311    22.410374     14.17911    19.733533    33.267721    8.6274957    12.612127     22.30075    14.235163 
  218000    262.20935     59213244            0     59214265    12.683312    22.410346    14.178772    19.733651    33.264939    8.5936247    12.612127     22.30075    14.235163 
  218200    250.21228     59212170            0     59213144    12.683307    22.410362    14.179101    19.733103    33.266529    8.6265732    12.612127     22.30075    14.235163 
  218400    290.01999     59211680            0     59212809    12.683343    22.410362    14.178614    19.736719    33.266537    8.5778324    12.612127     22.30075    14.235163 
  218600    286.76581     59211960            0     59213077     12.68337    22.410346    14.178798    19.739409    33.264934     8.596231    12.612127     22.30075    14.235163 
  218800    247.05755     59212411            0     59213373     12.68329     22.41037    14.178646    19.731405    33.267397    8.5810678    12.612127     22.30075    14.235163 
  219000    120.96429     59212233            0     59212704    12.683335     22.41038    14.178543     19.73595     33.26837    8.5707323    12.612127     22.30075    14.235163 
  219200    188.68284     59212802            0     59213537    12.683295     22.41029    14.178425     19.73196    33.259396    8.5589634    12.612127     22.30075    14.235163 
  219400    295.90347     59212816            0     59213968    12.683299    22.410386    14.179029    19.732351    33.268922    8.6193352    12.612127     22.30075    14.235163 
  219600    178.80311     59211233            0     59211929    12.683316    22.410353    14.179105    19.734008    33.265674     8.626973    12.612127     22.30075    14.235163 
  219800    138.33493     59212262            0     59212800    12.683329    22.410359     14.17902    19.735362    33.266253    8.6184569    12.612127     22.30075    14.235163 
  220000    163.78915     59211229            0     59211867    12.683315    22.410353    14.179005    19.733991    33.265675    8.6169844    12.612127     22.30075    14.235163 
  220200    260.44674     59211655            0     59212669    12.683283    22.410384     14.17905    19.730717     33.26873    8.6214487    12.612127     22.30075    14.235163 
  220400    208.47893     59214428            0     59215240     12.68331    22.410356    14.178582    19.733402    33.265957    8.5746592    12.612127     22.30075    14.235163 
  220600    187.78934     59212388            0     59213119    12.683307    22.410343    14.179039    19.733099    33.264675    8.6203674    12.612127     22.30075    14.235163 
  220800    300.04738     59212141            0     59213309    12.683317    22.410369    14.179191    19.734122    33.267302    8.6355971    12.612127     22.30075    14.235163 
  221000     286.2923     59211889            0     59213004    12.683312    22.410333    14.179072    19.733636    33.263672     8.623642    12.612127     22.30075    14.235163 
  221200    123.17858     59212502            0     59212982     12.68331    22.410345    14.179195    19.733412    33.264879    8.6359681    12.612127     22.30075    14.235163 
  221400    288.54787     59211231            0     59212354    12.683319    22.410354    14.179178    19.734332    33.265772    8.6342948    12.612127     22.30075    14.235163 
  221600    217.51341     59211709            0     59212556    12.683305    22.410354    14.178702    19.732926    33.265772    8.5866082    12.612127     22.30075    14.235163 
  221800    238.89466     59212795            0     59213725     12.68332    22.410378    14.179391    19.734487    33.268155    8.6556258    12.612127     22.30075    14.235163 
  222000    226.03031     59212192            0     59213072    12.683351    22.410343    14.179018    19.737577     33.26462    8.6182332    12.612127     22.30075    14.235163 
  222200    402.92738     59210802            0     59212371    12.683322    22.410353    14.179182    19.734646    33.265648    8.6346845    12.612127     22.30075    14.235163 
  222400    200.91735     59211562            0     59212344    12.683325    22.410357    14.178829    19.734961    33.266055    8.5993678    12.612127     22.30075    14.235163 
  222600    237.29827     59211119            0     59212043    12.683325    22.410354    14.178817    19.734908    33.265725    8.5981628    12.612127     22.30075    14.235163 
  222800    338.85133     59211486            0     59212805    12.683327    22.410362    14.178955    19.735112     33.26658    8.6119775    12.612127     22.30075    14.235163 
  223000    284.00645     59211413            0     59212518    12.683322    22.410366    14.179008    19.734627    33.266931    8.6172617    12.612127     22.30075    14.235163 
  223200    207.68823     59210571            0     59211380    12.683337    22.410357    14.179005    19.736178    33.266101     8.616995    12.612127     22.30075    14.235163 
  223400    240.70373     59211870            0     59212807     12.68332    22.410422    14.178995    19.734429    33.272598    8.6159921    12.612127     22.30075    14.235163 
  223600    195.99555     59212127            0     59212890     12.68332    22.410346    14.179326    19.734418     33.26499    8.6490872    12.612127     22.30075    14.235163 
  223800    328.56136     59212126            0     59213405    12.683316    22.410353    14.178449    19.734043    33.265632     8.561302    12.612127     22.30075    14.235163 
  224000    131.83196     59211679            0     59212193    12.683274    22.410377    14.178812    19.729817    33.268096    8.5976861    12.612127     22.30075    14.235163 
  224200    189.95497     59212771            0     59213510    12.683302    22.410371    14.178526    19.732671    33.267474    8.5690282    12.612127     22.30075    14.235163 
  224400    183.88972     59213017            0     59213733    12.683347    22.410351    14.178875    19.737143    33.265427    8.6039986    12.612127     22.30075    14.235163 
  224600    140.97762     59214176            0     59214725    12.683349    22.410376    14.178957    19.737373    33.267974    8.6121492    12.612127     22.30075    14.235163 
  224800    290.53081     59212596            0     59213727    12.683366     22.41036    14.179046    19.739023    33.266339    8.6210249    12.612127     22.30075    14.235163 
  225000     313.8959     59213290            0     59214512    12.683307    22.410347    14.178847    19.733123    33.265037    8.6011688    12.612127     22.30075    14.235163 
  225200    148.74753     59215015            0     59215594     12.68332    22.410342    14.178909    19.734454    33.264581    8.6073449    12.612127     22.30075    14.235163 
  225400    156.65051     59214251            0     59214861    12.683305    22.410341    14.179009    19.732964    33.264477    8.6173827    12.612127     22.30075    14.235163 
  225600    106.97153     59212230            0     59212646    12.683295    22.410328    14.179362    19.731926     33.26311     8.652665    12.612127     22.30075    14.235163 
  225800    233.82854     59212543            0     59213453    12.683314    22.410353    14.179153     19.73386     33.26568    8.6317954    12.612127     22.30075    14.235163 
  226000    296.17468     59211264            0     59212417    12.683308    22.410336    14.178731    19.733217    33.263922    8.5895602    12.612127     22.30075    14.235163 
  226200    176.39183     59212767            0     59213454    12.683287    22.410354    14.178882    19.731135    33.265791    8.6046642    12.612127     22.30075    14.235163 
  226400    347.99032     59210916            0     59212271    12.683335    22.410338    14.179045      19.7359    33.264169    8.6209765    12.612127     22.30075    14.235163 
  226600    103.69528     59211510            0     59211914    12.683298    22.410358    14.179078    19.732214    33.266192    8.6242938    12.612127     22.30075    14.235163 
  226800    297.11024     59211849            0     59213006    12.683293    22.410372    14.178711    19.731726    33.267565    8.5875165    12.612127     22.30075    14.235163 
  227000     227.2012     59211447            0     59212332    12.683344     22.41039    14.178606    19.736835    33.269379    8.5770527    12.612127     22.30075    14.235163 
  227200    205.75369     59211715            0     59212516    12.683271    22.410363    14.179033    19.729547    33.266676    8.6197599    12.612127     22.30075    14.235163 
  227400    200.31949     59211177            0     59211957    12.683325    22.410389    14.178953    19.734903    33.269231    8.6117574    12.612127     22.30075    14.235163 
  227600    212.41465     59211776            0     59212603    12.683291    22.410369    14.178879    19.731593    33.267241     8.604383    12.612127     22.30075    14.235163 
  227800    241.71291     59211689            0     59212629    12.683339    22.410341    14.179154    19.736366    33.264417     8.631891    12.612127     22.30075    14.235163 
  228000      307.231     59212184            0     59213380    12.683318    22.410354     14.17907    19.734255    33.265729    8.6235052    12.612127     22.30075    14.235163 
  228200    344.28739     59213777            0     59215117    12.683292     22.41034    14.179146    19.731641    33.264374    8.6310632    12.612127     22.30075    14.235163 
  228400    267.05206     59211284            0     59212324    12.683347    22.410377    14.178955    19.737153    33.268064    8.6119323    12.612127     22.30075    14.235163 
  228600    191.31154     59210804            0     59211549    12.683309    22.410343    14.178835     19.73332    33.264619    8.5999252    12.612127     22.30075    14.235163 
  228800     262.2454     59211512            0     59212533    12.683305    22.410351    14.178827    19.732975     33.26544    8.5991768    12.612127     22.30075    14.235163 
  229000    161.26336     59213070            0     59213697    12.683319     22.41036    14.179262    19.734308    33.266395    8.6426655    12.612127     22.30075    14.235163 
  229200    244.18642     59212554            0     59213505    12.683339    22.410348    14.179356    19.736332    33.265171    8.6520891    12.612127     22.30075    14.235163 
  229400    319.19868     59211667            0     59212910    12.683299    22.410357    14.179118    19.732313    33.266071    8.6283068    12.612127     22.30075    14.235163 
  229600    222.75697     59212053            0     59212921    12.683319     22.41037    14.178897    19.734303    33.267397    8.6061618    12.612127     22.30075    14.235163 
  229800    306.31341     59212198            0     59213391    12.683366    22.410332    14.179154    19.739047     33.26358    8.6318275    12.612127     22.30075    14.235163 
  230000    214.34236     59213144            0     59213978    12.683302    22.410326    14.179012    19.732647    33.262911    8.6176394    12.612127     22.30075    14.235163 
  230200    264.77548     59215538            0     59216568    12.683313    22.410381    14.178942     19.73377    33.268425    8.6106892    12.612127     22.30075    14.235163 
  230400    156.94328     59213184            0     59213795    12.683308     22.41037     14.17871    19.733263    33.267361    8.5874013    12.612127     22.30075    14.235163 
  230600    348.69325     59211380            0     59212737    12.683314    22.410351    14.179079    19.733875    33.265409    8.6243191    12.612127     22.30075    14.235163 
  230800    282.79896     59210733            0     59211834    12.683315    22.410343    14.178917    19.733959    33.264676    8.6081822    12.612127     22.30075    14.235163 
  231000    235.33856     59211731            0     59212647    12.683297    22.410335    14.178761    19.732162    33.263847    8.5925854    12.612127     22.30075    14.235163 
  231200    156.48843     59213024            0     59213634    12.683316    22.410354    14.179161    19.734081    33.265732    8.6325217    12.612127     22.30075    14.235163 
  231400    125.20188     59212058            0     59212546     12.68331    22.410333     14.17884    19.733425    33.263692    8.6004872    12.612127     22.30075    14.235163 
  231600    276.87339     59211531            0     59212609    12.683277    22.410372    14.178988    19.730168    33.267553    8.6152762    12.612127     22.30075    14.235163 
  231800    260.97358     59211715            0     59212731    12.683334    22.410379    14.179071    19.735866    33.268234    8.6235569    12.612127     22.30075    14.235163 
  232000    276.99235     59211531            0     59212609    12.683296    22.410354     14.17874    19.732014    33.265785    8.5904451    12.612127     22.30075    14.235163 
  232200    359.13897     59211055            0     59212453    12.683305    22.410354    14.179125    19.732937    33.265742    8.6290007    12.612127     22.30075    14.235163 
  232400    179.91581     59211924            0     59212625      12.6833    22.410362    14.178874    19.732438    33.266571    8.6038257    12.612127     22.30075    14.235163 
  232600    264.20106     59212440            0     59213468    12.683343    22.410334    14.178859     19.73674    33.263757    8.6024004    12.612127     22.30075    14.235163 
  232800    73.349756     59211731            0     59212016    12.683328    22.410373    14.178806    19.735286    33.267614    8.5970674    12.612127     22.30075    14.235163 
  233000    328.38406     59212754            0     59214033    12.683324    22.410336    14.178824     19.73486    33.263924     8.598845    12.612127     22.30075    14.235163 
  233200    351.97822     59212831            0     59214201    12.683316    22.410353    14.178874    19.734013    33.265682    8.6038888    12.612127     22.30075    14.235163 
  233400    450.58139     59211523            0     59213277    12.683319    22.410379    14.178831    19.734384    33.268259     8.599546    12.612127     22.30075    14.235163 
  233600    158.74076     59212140            0     59212758    12.683321    22.410362    14.178956    19.734593    33.266522     8.612018    12.612127     22.30075    14.235163 
  233800    337.02585     59212023            0     59213335    12.683269    22.410369    14.178626    19.729305    33.267252    8.5790885    12.612127     22.30075    14.235163 
  234000    89.243849     59211186            0     59211533     12.68335    22.410352    14.179049    19.737406    33.265576    8.6213124    12.612127     22.30075    14.235163 
  234200    256.59896     59211060            0     59212059    12.683293    22.410345    14.178952    19.731718    33.264819    8.6116249    12.612127     22.30075    14.235163 
  234400    353.97435     59212163            0     59213541     12.68332    22.410365    14.178638    19.734437     33.26681    8.5801967    12.612127     22.30075    14.235163 
  234600    265.84039     59212380            0     59213415    12.683315    22.410353    14.179007    19.733986    33.265681    8.6171303    12.612127     22.30075    14.235163 
  234800    192.98551     59212108            0     59212859    12.683295    22.410352    14.178915    19.731951    33.265526    8.6079932    12.612127     22.30075    14.235163 
  235000    378.76794     59212298            0     59213773    12.683271    22.410359    14.178989    19.729522    33.266269    8.6153237    12.612127     22.30075    14.235163 
  235200    213.37933     59211862            0     59212693    12.683335    22.410362    14.178929    19.735946     33.26656    8.6093718    12.612127     22.30075    14.235163 
  235400    166.84744     59211783            0     59212432    12.683328    22.410352    14.179014    19.735296    33.265603    8.6178399    12.612127     22.30075    14.235163 
  235600    226.33614     59211889            0     59212770    12.683338    22.410352    14.179036    19.736286    33.265548    8.6200176    12.612127     22.30075    14.235163 
  235800    296.64877     59211820            0     59212975    12.683316    22.410351    14.178846    19.734056     33.26545    8.6010533    12.612127     22.30075    14.235163 
  236000    385.74863     59210380            0     59211882    12.683341    22.410362    14.179157    19.736585    33.266595    8.6322106    12.612127     22.30075    14.235163 
  236200    265.70348     59210776            0     59211810    12.683314     22.41036    14.178937    19.733825    33.266319    8.6101368    12.612127     22.30075    14.235163 
  236400    135.30752     59212410            0     59212936    12.683309    22.410357    14.178629    19.733389    33.266031    8.5793623    12.612127     22.30075    14.235163 
  236600    133.66227     59212058            0     59212578    12.683305    22.410377    14.178948    19.732975    33.268012    8.6112502    12.612127     22.30075    14.235163 
  236800    312.72824     59212672            0     59213889    12.683344    22.410353    14.179045    19.736884    33.265651    8.6209742    12.612127     22.30075    14.235163 
  237000     409.0851     59212729            0     59214322     12.68331    22.410351    14.179095    19.733411    33.265452     8.625934    12.612127     22.30075    14.235163 
  237200    223.73941     59211064            0     59211935     12.68334     22.41035    14.178796    19.736479    33.265314    8.5960386    12.612127     22.30075    14.235163 
  237400     203.0915     59212593            0     59213384    12.683363    22.410338    14.178682    19.738729    33.264124    8.5846813    12.612127     22.30075    14.235163 
  237600    163.26709     59210674            0     59211309    12.683307    22.410371    14.179029    19.733109    33.267423    8.6193287    12.612127     22.30075    14.235163 
  237800    173.51116     59211501            0     59212176    12.683299    22.410361    14.178602    19.732373    33.266441    8.5766323    12.612127     22.30075    14.235163 
  238000    339.97755     59210865            0     59212189    12.683288    22.410354    14.178924    19.731207    33.265795    8.6089026    12.612127     22.30075    14.235163 
  238200    307.74217     59211948            0     59213146    12.683329    22.410368    14.178892    19.735352    33.267166    8.6056775    12.612127     22.30075    14.235163 
  238400    180.66444     59211904            0     59212608    12.683339    22.410352    14.178895    19.736353    33.265561      8.60591    12.612127     22.30075    14.235163 
  238600    303.93665     59211845            0     59213028    12.683318    22.410348     14.17899    19.734276    33.265124    8.6154458    12.612127     22.30075    14.235163 
  238800    351.71081     59212031            0     59213401    12.683295     22.41031    14.179016    19.731931    33.261373    8.6180395    12.612127     22.30075    14.235163 
  239000    235.47675     59211479            0     59212395    12.683334    22.410358    14.179024    19.735813    33.266118    8.6188316    12.612127     22.30075    14.235163 
  239200    278.41548     59211622            0     59212706     12.68334    22.410332    14.179106    19.736469    33.263522    8.6270168    12.612127     22.30075    14.235163 
  239400    252.23248     59211743            0     59212725    12.683289    22.410364    14.179244    19.731374    33.266804    8.6408772    12.612127     22.30075    14.235163 
  239600    193.48648     59212594            0     59213347    12.683315    22.410354    14.179233    19.733977    33.265758    8.6397692    12.612127     22.30075    14.235163 
  239800    177.06411     59211335            0     59212024    12.683301    22.410385    14.178518    19.732517    33.268843    8.5682273    12.612127     22.30075    14.235163 
  240000    292.18243     59211672            0     59212809    12.683326    22.410368    14.179083    19.735066    33.267127    8.6247281    12.612127     22.30075    14.235163 
  240200    160.43778     59210183            0     59210807    12.683329    22.410348    14.179042    19.735299    33.265205    8.6206858    12.612127     22.30075    14.235163 
  240400    209.24619     59211224            0     59212038    12.683331    22.410369    14.179062    19.735553    33.267276    8.6226265    12.612127     22.30075    14.235163 
  240600    241.28645     59211180            0     59212120     12.68336    22.410354    14.179156     19.73846    33.265783    8.6321095    12.612127     22.30075    14.235163 
  240800    200.33265     59211776            0     59212556    12.683314    22.410357    14.179055    19.733887    33.266077    8.6219953    12.612127     22.30075    14.235163 
  241000    267.88286     59210970            0     59212013    12.683313    22.410353    14.179176    19.733767    33.265695    8.6340651    12.612127     22.30075    14.235163 
  241200    183.90291     59213218            0     59213934    12.683299    22.410357    14.178952    19.732355    33.266105      8.61163    12.612127     22.30075    14.235163 
  241400    445.86338     59211220            0     59212956    12.683316    22.410353    14.178965    19.734012    33.265682    8.6129181    12.612127     22.30075    14.235163 
  241600    254.93034     59211153            0     59212146     12.68329    22.410307    14.179023    19.731477    33.261037    8.6187775    12.612127     22.30075    14.235163 
  241800    322.52701     59211423            0     59212678    12.683317    22.410352    14.178961    19.734099    33.265522    8.6126009    12.612127     22.30075    14.235163 
  242000    197.53294     59212807            0     59213576    12.683296    22.410368    14.178917     19.73204    33.267148    8.6081735    12.612127     22.30075    14.235163 
  242200    279.38627     59211283            0     59212371    12.683319    22.410369    14.179104    19.734377    33.267247    8.6268745    12.612127     22.30075    14.235163 
  242400    276.93266     59212500            0     59213578    12.683354    22.410372       14.179    19.737811    33.267568    8.6164564    12.612127     22.30075    14.235163 
  242600    165.90786     59210814            0     59211460    12.683328    22.410367    14.178813     19.73527    33.267084    8.5977709    12.612127     22.30075    14.235163 
  242800    303.72432     59212610            0     59213793    12.683323    22.410352    14.179182    19.734757    33.265563    8.6346272    12.612127     22.30075    14.235163 
  243000    233.19938     59212689            0     59213597    12.683319    22.410384    14.179342    19.734367    33.268783    8.6507201    12.612127     22.30075    14.235163 
  243200    359.04822     59212244            0     59213642    12.683332    22.410378    14.179263    19.735609    33.268165    8.6427795    12.612127     22.30075    14.235163 
  243400    283.07799     59211359            0     59212461    12.683327     22.41033    14.179301     19.73517    33.263392    8.6465958    12.612127     22.30075    14.235163 
  243600    142.00516     59211409            0     59211961    12.683327    22.410358    14.178988    19.735114    33.266175    8.6152523    12.612127     22.30075    14.235163 
  243800    125.71816     59211799            0     59212289    12.683334    22.410335    14.178911    19.735868    33.263896    8.6075096    12.612127     22.30075    14.235163 
  244000    403.00078     59211924            0     59213493    12.683316    22.410353    14.178911    19.734014    33.265687     8.607586    12.612127     22.30075    14.235163 
  244200    220.40067     59212631            0     59213489    12.683322    22.410351    14.178681    19.734599    33.265489    8.5845555    12.612127     22.30075    14.235163 
  244400    193.04321     59211697            0     59212448    12.683317    22.410339       14.179    19.734115    33.264276    8.6164756    12.612127     22.30075    14.235163 
  244600    171.32598     59210957            0     59211624    12.683319     22.41035    14.178931    19.734377    33.265406    8.6095466    12.612127     22.30075    14.235163 
  244800    331.89066     59211664            0     59212956    12.683326    22.410323    14.178659     19.73504    33.262665    8.5822974    12.612127     22.30075    14.235163 
  245000    343.56668     59211030            0     59212368    12.683319    22.410314    14.179002    19.734305    33.261793    8.6166568    12.612127     22.30075    14.235163 
  245200    553.93486     59212025            0     59214181     12.68331    22.410357    14.179034    19.733475    33.266035    8.6198132    12.612127     22.30075    14.235163 
  245400    291.75068     59211983            0     59213119    12.683319    22.410365    14.178781    19.734337    33.266809    8.5945591    12.612127     22.30075    14.235163 
  245600    190.89286     59213125            0     59213868    12.683312    22.410363    14.179112     19.73366      33.2667    8.6277121    12.612127     22.30075    14.235163 
  245800    421.35452     59211541            0     59213181    12.683334    22.410363    14.179222    19.735881    33.266658    8.6386278    12.612127     22.30075    14.235163 
  246000    299.94111     59211275            0     59212443    12.683293    22.410338    14.178955    19.731765      33.2642    8.6119942    12.612127     22.30075    14.235163 
  246200    285.99007     59212312            0     59213426     12.68334    22.410395    14.178725     19.73645    33.269861    8.5889347    12.612127     22.30075    14.235163 
  246400    116.33604     59211200            0     59211652    12.683301    22.410387    14.179038    19.732528    33.269014    8.6202849    12.612127     22.30075    14.235163 
  246600    271.47577     59211437            0     59212494    12.683321    22.410353     14.17917    19.734552    33.265696     8.633499    12.612127     22.30075    14.235163 
  246800    146.21714     59212265            0     59212835    12.683339    22.410358    14.178938    19.736349    33.266129    8.6102314    12.612127     22.30075    14.235163 
  247000    190.23191     59212294            0     59213035    12.683317    22.410357    14.178813    19.734127    33.266064    8.5977853    12.612127     22.30075    14.235163 
  247200    329.69992     59211468            0     59212752    12.683308    22.410359    14.178799    19.733268    33.266293    8.5963447    12.612127     22.30075    14.235163 
  247400     201.6726     59212368            0     59213153     12.68334    22.410319    14.178621    19.736497    33.262239    8.5785498    12.612127     22.30075    14.235163 
  247600    199.33803     59210863            0     59211639    12.683319    22.410333     14.17893    19.734305    33.263665    8.6094971    12.612127     22.30075    14.235163 
  247800    272.02231     59211803            0     59212862    12.683241     22.41037    14.179056    19.726501     33.26731    8.6220895    12.612127     22.30075    14.235163 
  248000    207.64527     59211598            0     59212406    12.683301    22.410354    14.179037    19.732498    33.265764    8.6201372    12.612127     22.30075    14.235163 
  248200    160.38908     59211615            0     59212239    12.683343    22.410366    14.179091    19.736781    33.266959    8.6255192    12.612127     22.30075    14.235163 
  248400    226.28425     59211535            0     59212416    12.683293     22.41036    14.178971    19.731761    33.266314    8.6135884    12.612127     22.30075    14.235163 
  248600    143.91542     59211584            0     59212144    12.683348    22.410366    14.178489    19.737271    33.266997    8.5653032    12.612127     22.30075    14.235163 
  248800    265.90979     59211510            0     59212545    12.683305    22.410372    14.178696    19.732995    33.267574    8.5860717    12.612127     22.30075    14.235163 
  249000    189.49648     59211484            0     59212221    12.683308     22.41034    14.178732     19.73327    33.264391    8.5896029    12.612127     22.30075    14.235163 
  249200    244.12484     59213095            0     59214045    12.683325    22.410363    14.178536    19.734954     33.26661    8.5700855    12.612127     22.30075    14.235163 
  249400     272.4954     59212381            0     59213442     12.68333    22.410352    14.178654    19.735482    33.265583    8.5818618    12.612127     22.30075    14.235163 
  249600    136.83034     59211947            0     59212480    12.683277    22.410346    14.179043     19.73013    33.264969    8.6208006    12.612127     22.30075    14.235163 
  249800    158.87715     59213272            0     59213891    12.683314    22.410327    14.178751    19.733895    33.263066    8.5915665    12.612127     22.30075    14.235163 
  250000    264.19436     59212184            0     59213212    12.683313    22.410383    14.178919    19.733757    33.268661     8.608352    12.612127     22.30075    14.235163 
  250200    252.35121     59211797            0     59212779    12.683349    22.410375    14.178938    19.737316    33.267844    8.6103026    12.612127     22.30075    14.235163 
  250400    255.14905     59211887            0     59212880    12.683313    22.410364    14.178887    19.733726    33.266794    8.6051955    12.612127     22.30075    14.235163 
  250600    258.28436     59211389            0     59212394    12.683298    22.410348    14.178972    19.732226     33.26511    8.6136248    12.612127     22.30075    14.235163 
  250800    205.02544     59212022            0     59212820    12.683311    22.410376    14.178657    19.733498    33.267911    8.5821493    12.612127     22.30075    14.235163 
  251000     198.0572     59212300            0     59213071    12.683282    22.410343    14.178716     19.73066    33.264626    8.5880862    12.612127     22.30075    14.235163 
  251200    215.27014     59211718            0     59212556    12.683299    22.410396    14.179107    19.732334    33.270002    8.6271849    12.612127     22.30075    14.235163 
  251400    460.06365     59210614            0     59212405    12.683317     22.41035    14.178911    19.734196    33.265319    8.6075334    12.612127     22.30075    14.235163 
  251600    181.93827     59212446            0     59213154    12.683316    22.410353    14.178703    19.734049    33.265616     8.586726    12.612127     22.30075    14.235163 
  251800    246.47489     59212349            0     59213308    12.683311    22.410347    14.178848    19.733582    33.265051    8.6012511    12.612127     22.30075    14.235163 
  252000    354.93418     59210762            0     59212144    12.683346    22.410334    14.178796     19.73701    33.263718    8.5960425    12.612127     22.30075    14.235163 
  252200    192.80546     59211984            0     59212735     12.68333    22.410368    14.179309     19.73541    33.267114    8.6473925    12.612127     22.30075    14.235163 
  252400    165.83682     59212650            0     59213296    12.683314    22.410346    14.179343    19.733868    33.264913    8.6508244    12.612127     22.30075    14.235163 
  252600    204.53111     59211370            0     59212167    12.683337    22.410372    14.179176    19.736179      33.2676    8.6340583    12.612127     22.30075    14.235163 
  252800     156.8701     59211270            0     59211881    12.683299    22.410304    14.178767    19.732376    33.260724    8.5931257    12.612127     22.30075    14.235163 
  253000    222.11637     59211553            0     59212418    12.683333    22.410389    14.178843    19.735721    33.269293    8.6008003    12.612127     22.30075    14.235163 
  253200    244.10653     59210767            0     59211717    12.683309    22.410384    14.179012    19.733378    33.268778    8.6177029    12.612127     22.30075    14.235163 
  253400    356.82354     59212114            0     59213503    12.683339    22.410361    14.178931    19.736373    33.266465     8.609579    12.612127     22.30075    14.235163 
  253600    199.55305     59211441            0     59212218    12.683312    22.410369     14.17888    19.733677    33.267232    8.6044376    12.612127     22.30075    14.235163 
  253800    326.81614     59212402            0     59213674    12.683303     22.41034    14.179182    19.732712     33.26438    8.6346391    12.612127     22.30075    14.235163 
  254000     239.7848     59211892            0     59212825    12.683314    22.410353    14.178932    19.733842    33.265625    8.6096676    12.612127     22.30075    14.235163 
  254200     127.5806     59211288            0     59211784    12.683325    22.410346    14.179008    19.734924     33.26497     8.617304    12.612127     22.30075    14.235163 
  254400    263.95122     59211699            0     59212727    12.683343    22.410328     14.17901    19.736762    33.263118    8.6174381    12.612127     22.30075    14.235163 
  254600    353.24838     59212636            0     59214011    12.683316    22.410353     14.17915    19.734006    33.265682     8.631442    12.612127     22.30075    14.235163 
  254800    208.15417     59211507            0     59212317    12.683357    22.410351    14.179047    19.738174     33.26545    8.6211556    12.612127     22.30075    14.235163 
  255000    241.03655     59211899            0     59212838    12.683308    22.410354    14.179051    19.733197    33.265731    8.6215333    12.612127     22.30075    14.235163 
  255200    305.82826     59212476            0     59213666    12.683351    22.410351     14.17879    19.737556    33.265486    8.5954725    12.612127     22.30075    14.235163 
  255400    319.01708     59212578            0     59213819    12.683335    22.410354    14.178734    19.735913    33.265768    8.5898129    12.612127     22.30075    14.235163 
  255600    234.28826     59211603            0     59212515    12.683309    22.410346     14.17902    19.733359    33.264957    8.6184796    12.612127     22.30075    14.235163 
  255800     185.3598     59212001            0     59212723    12.683316    22.410353     14.17917    19.734064    33.265638     8.633458    12.612127     22.30075    14.235163 
  256000    192.27267     59212313            0     59213061    12.683328    22.410344    14.178802    19.735215    33.264773    8.5966166    12.612127     22.30075    14.235163 
  256200     149.3678     59211931            0     59212512    12.683305    22.410386    14.178983    19.732916    33.268952    8.6147265    12.612127     22.30075    14.235163 
  256400    174.80576     59211733            0     59212413     12.68333    22.410358    14.179046    19.735479    33.266171    8.6210547    12.612127     22.30075    14.235163 
  256600    361.45809     59212338            0     59213746    12.683337    22.410377    14.179082    19.736129    33.268015    8.6246259    12.612127     22.30075    14.235163 
  256800    162.14105     59211165            0     59211796    12.683383    22.410364    14.179007    19.740729    33.266804    8.6171436    12.612127     22.30075    14.235163 
  257000    173.08567     59211583            0     59212257    12.683312    22.410354    14.179166    19.733637     33.26571     8.633026    12.612127     22.30075    14.235163 
  257200    109.59495     59212302            0     59212728     12.68335    22.410372    14.179021    19.737407     33.26758    8.6185533    12.612127     22.30075    14.235163 
  257400    189.95118     59212187            0     59212927    12.683317    22.410347    14.178839     19.73412    33.265061    8.6003375    12.612127     22.30075    14.235163 
  257600    230.84603     59211297            0     59212196    12.683328    22.410378    14.178836    19.735281    33.268173    8.6001026    12.612127     22.30075    14.235163 
  257800    451.00097     59212406            0     59214162    12.683315    22.410355     14.17905     19.73395    33.265877    8.6214308    12.612127     22.30075    14.235163 
  258000    177.46922     59211490            0     59212181    12.683339    22.410346    14.178866     19.73632    33.264942    8.6030177    12.612127     22.30075    14.235163 
  258200    171.60635     59212231            0     59212899    12.683319    22.410347    14.179162     19.73431    33.265038    8.6327156    12.612127     22.30075    14.235163 
  258400    275.36963     59210787            0     59211859    12.683274    22.410356    14.179127    19.729887    33.265913    8.6291377    12.612127     22.30075    14.235163 
  258600     283.6061     59210270            0     59211374    12.683302    22.410374    14.178799    19.732611    33.267796    8.5963624    12.612127     22.30075    14.235163 
  258800    338.76761     59212450            0     59213768    12.683318    22.410351    14.178821    19.734284    33.265502    8.5985626    12.612127     22.30075    14.235163 
  259000    153.25731     59210782            0     59211379    12.683341    22.410348    14.179026    19.736544     33.26513    8.6190916    12.612127     22.30075    14.235163 
  259200    221.05147     59211516            0     59212377    12.683313    22.410356    14.178977    19.733788     33.26599    8.6142023    12.612127     22.30075    14.235163 
  259400    200.36214     59212444            0     59213224     12.68329    22.410356    14.178962    19.731411    33.265962    8.6126601    12.612127     22.30075    14.235163 
  259600    90.909459     59211329            0     59211683     12.68333    22.410356    14.179028    19.735459    33.265931    8.6192509    12.612127     22.30075    14.235163 
  259800    186.09808     59211840            0     59212565    12.683335    22.410354    14.178743    19.735901    33.265751    8.5907745    12.612127     22.30075    14.235163 
  260000    204.58519     59211341            0     59212137    12.683294    22.410354    14.179118    19.731892    33.265771    8.6282335    12.612127     22.30075    14.235163 
  260200    220.53465     59212891            0     59213749    12.683304    22.410376    14.178908     19.73283    33.267935    8.6072338    12.612127     22.30075    14.235163 
  260400     205.4735     59211440            0     59212240    12.683323    22.410361    14.179005     19.73471    33.266423    8.6170028    12.612127     22.30075    14.235163 
  260600    171.56723     59211076            0     59211744    12.683318    22.410343    14.178911    19.734255    33.264614    8.6075334    12.612127     22.30075    14.235163 
  260800    329.51106     59211016            0     59212299    12.683311    22.410342    14.179094    19.733593    33.264573    8.6259005    12.612127     22.30075    14.235163 
  261000    277.01623     59211575            0     59212653    12.683292    22.410394    14.179099    19.731669     33.26976    8.6263331    12.612127     22.30075    14.235163 
  261200    162.46586     59213368            0     59214001    12.683303     22.41033    14.178773    19.732762    33.263375    8.5937361    12.612127     22.30075    14.235163 
  261400    98.255157     59211870            0     59212253     12.68332    22.410307    14.178659     19.73442    33.261012    8.5823428    12.612127     22.30075    14.235163 
  261600    315.43687     59212133            0     59213361     12.68334    22.410387    14.178761    19.736406    33.269046    8.5925784    12.612127     22.30075    14.235163 
  261800    152.45606     59211830            0     59212423    12.683333    22.410355    14.178758    19.735789     33.26582    8.5922263    12.612127     22.30075    14.235163 
  262000    250.37886     59212720            0     59213695    12.683315    22.410352    14.178724    19.733906    33.265509    8.5888828    12.612127     22.30075    14.235163 
  262200    228.91649     59213214            0     59214105    12.683328    22.410387    14.179214    19.735256    33.269042    8.6378363    12.612127     22.30075    14.235163 
  262400    233.16395     59212566            0     59213474    12.683315    22.410354    14.179304    19.733993    33.265718    8.6468702    12.612127     22.30075    14.235163 
  262600    304.99923     59211281            0     59212469    12.683284    22.410348    14.178991    19.730875     33.26514    8.6155449    12.612127     22.30075    14.235163 
  262800    325.00391     59211733            0     59212998    12.683316    22.410353    14.178831    19.734013    33.265682    8.5995491    12.612127     22.30075    14.235163 
  263000    206.34251     59211044            0     59211848    12.683332     22.41038     14.17916    19.735631     33.26836    8.6325145    12.612127     22.30075    14.235163 
  263200     170.0214     59211612            0     59212273    12.683307    22.410335    14.178915    19.733196    33.263864    8.6080009    12.612127     22.30075    14.235163 
  263400    243.71761     59211014            0     59211963    12.683297    22.410362    14.179054     19.73216    33.266576    8.6218436    12.612127     22.30075    14.235163 
  263600     140.2155     59210819            0     59211364    12.683322     22.41034    14.178971    19.734696    33.264332    8.6136039    12.612127     22.30075    14.235163 
  263800    321.71423     59210212            0     59211464    12.683316    22.410353    14.178965    19.734051    33.265656    8.6129881    12.612127     22.30075    14.235163 
  264000    286.16149     59211666            0     59212780     12.68329    22.410334    14.178984    19.731463    33.263805    8.6148954    12.612127     22.30075    14.235163 
  264200    168.20506     59212142            0     59212797    12.683322    22.410291    14.178659    19.734638    33.259504    8.5823006    12.612127     22.30075    14.235163 
  264400    177.72068     59212837            0     59213529    12.683319     22.41036    14.178683    19.734328    33.266355    8.5847904    12.612127     22.30075    14.235163 
  264600    290.21928     59211518            0     59212648    12.683314    22.410349    14.179126    19.733849    33.265285    8.6291128    12.612127     22.30075    14.235163 
  264800    209.05274     59212184            0     59212998    12.683308    22.410364    14.179127    19.733209     33.26677    8.6291536    12.612127     22.30075    14.235163 
  265000    370.79227     59212114            0     59213558    12.683302    22.410349    14.178891    19.732693     33.26524    8.6055193    12.612127     22.30075    14.235163 
  265200    209.00941     59213330            0     59214143    12.683287    22.410347    14.178526    19.731131    33.265025    8.5690048    12.612127     22.30075    14.235163 
  265400    230.60994     59211964            0     59212861    12.683292    22.410354    14.178947    19.731683    33.265807    8.6111773    12.612127     22.30075    14.235163 
  265600    302.64522     59210792            0     59211970    12.683334    22.410352    14.178777    19.735872    33.265581    8.5941234    12.612127     22.30075    14.235163 
  265800    190.57599     59211411            0     59212153    12.683314    22.410295    14.179082    19.733857    33.259878    8.6246745    12.612127     22.30075    14.235163 
  266000    164.68316     59211359            0     59212000    12.683304    22.410341    14.178763    19.732881    33.264483    8.5927902    12.612127     22.30075    14.235163 
  266200    219.37151     59211672            0     59212526    12.683274    22.410356    14.178818    19.729806    33.265978    8.5982523    12.612127     22.30075    14.235163 
  266400     374.7332     59211151            0     59212610    12.683317    22.410357    14.179005    19.734143    33.266051    8.6169499    12.612127     22.30075    14.235163 
  266600    257.75286     59212557            0     59213560    12.683306    22.410337    14.178718    19.733086    33.264041    8.5882694    12.612127     22.30075    14.235163 
  266800    223.18629     59210602            0     59211471    12.683321    22.410366     14.17902    19.734543    33.266914    8.6185104    12.612127     22.30075    14.235163 
  267000    264.65268     59211737            0     59212767    12.683334    22.410326    14.179052    19.735894    33.262954    8.6216831    12.612127     22.30075    14.235163 
  267200    230.24602     59213097            0     59213993    12.683301    22.410334    14.178871    19.732575    33.263752    8.6035778    12.612127     22.30075    14.235163 
  267400    340.16923     59211635            0     59212959    12.683355    22.410339     14.17918    19.737939    33.264287    8.6344835    12.612127     22.30075    14.235163 
  267600    87.765426     59211916            0     59212258    12.683351     22.41034    14.178732    19.737561    33.264381     8.589641    12.612127     22.30075    14.235163 
  267800     252.7676     59211347            0     59212331    12.683317      22.4104    14.179069    19.734154    33.270311    8.6233836    12.612127     22.30075    14.235163 
  268000     311.0534     59211636            0     59212847    12.683333    22.410327    14.178837     19.73577    33.263104    8.6001188    12.612127     22.30075    14.235163 
  268200    277.74878     59211242            0     59212323    12.683316    22.410353    14.179062    19.734018    33.265682    8.6226782    12.612127     22.30075    14.235163 
  268400     207.3598     59212048            0     59212856    12.683315    22.410319    14.179218    19.733906    33.262298    8.6383159    12.612127     22.30075    14.235163 
  268600     218.3905     59211717            0     59212568    12.683308    22.410354    14.178949    19.733206    33.265804    8.6113982    12.612127     22.30075    14.235163 
  268800    192.03436     59211641            0     59212389    12.683322    22.410363    14.179156    19.734631     33.26667    8.6320564    12.612127     22.30075    14.235163 
  269000    213.69183     59210234            0     59211066    12.683333     22.41034    14.178899    19.735765    33.264318    8.6063808    12.612127     22.30075    14.235163 
  269200    313.77687     59211689            0     59212911    12.683319    22.410356     14.17898    19.734321    33.265938      8.61448    12.612127     22.30075    14.235163 
  269400     241.4271     59211253            0     59212192    12.683314    22.410352    14.178975    19.733813    33.265525     8.613948    12.612127     22.30075    14.235163 
  269600    300.10288     59211640            0     59212809    12.683319    22.410353    14.178787    19.734334    33.265674    8.5951168    12.612127     22.30075    14.235163 
  269800    254.37598     59211900            0     59212890    12.683384    22.410339    14.178854     19.74087    33.264276    8.6018259    12.612127     22.30075    14.235163 
  270000     241.7696     59211265            0     59212207      12.6833    22.410347    14.179019     19.73246    33.265102    8.6183285    12.612127     22.30075    14.235163 
  270200    272.37558     59211825            0     59212886    12.683366     22.41035    14.178985    19.739095    33.265382    8.6149384    12.612127     22.30075    14.235163 
  270400    288.99215     59210965            0     59212090    12.683311    22.410354    14.178886    19.733558    33.265715    8.6050796    12.612127     22.30075    14.235163 
  270600    152.98583     59210955            0     59211550    12.683316    22.410353    14.179002    19.734013    33.265682    8.6166984    12.612127     22.30075    14.235163 
  270800    343.61211     59211862            0     59213200    12.683323    22.410355    14.178981    19.734708    33.265868    8.6145736    12.612127     22.30075    14.235163 
  271000    340.49151     59210854            0     59212180    12.683316     22.41036    14.179106    19.734073    33.266336    8.6271022    12.612127     22.30075    14.235163 
  271200    158.57748     59210721            0     59211338    12.683326    22.410377    14.178901    19.735009    33.268075     8.606573    12.612127     22.30075    14.235163 
  271400    398.11711     59211340            0     59212890    12.683297    22.410385    14.178768    19.732117    33.268859    8.5932545    12.612127     22.30075    14.235163 
  271600    105.16841     59210867            0     59211276    12.683342    22.410363    14.179068    19.736615    33.266703     8.623295    12.612127     22.30075    14.235163 
  271800    196.59289     59210265            0     59211031     12.68336    22.410353    14.178952    19.738492    33.265707     8.611642    12.612127     22.30075    14.235163 
  272000    206.65132     59210174            0     59210978    12.683317    22.410355    14.179014    19.734128     33.26587    8.6178123    12.612127     22.30075    14.235163 
  272200    213.36206     59212464            0     59213295    12.683327    22.410356    14.179084    19.735153    33.265989    8.6248316    12.612127     22.30075    14.235163 
  272400    164.13925     59212791            0     59213430    12.683319    22.410356    14.179034    19.734335    33.265912    8.6198972    12.612127     22.30075    14.235163 
  272600    246.11859     59211108            0     59212067    12.683361    22.410349    14.179047     19.73851    33.265292    8.6211604    12.612127     22.30075    14.235163 
  272800    142.61733     59212209            0     59212764    12.683333    22.410327    14.178998    19.735798    33.263022    8.6162305    12.612127     22.30075    14.235163 
  273000    128.76973     59211954            0     59212455    12.683339    22.410352    14.179154    19.736342    33.265544    8.6318914    12.612127     22.30075    14.235163 
  273200    297.66928     59211338            0     59212496    12.683324    22.410354    14.179065    19.734898    33.265737    8.6229706    12.612127     22.30075    14.235163 
  273400    100.32197     59210660            0     59211050    12.683304    22.410351    14.179025    19.732856    33.265491    8.6189565    12.612127     22.30075    14.235163 
  273600    166.28538     59211514            0     59212161    12.683312    22.410361    14.178814    19.733601    33.266462    8.5978349    12.612127     22.30075    14.235163 
  273800    180.50819     59212281            0     59212984     12.68332    22.410356    14.178903    19.734429    33.265918    8.6067826    12.612127     22.30075    14.235163 
  274000    173.68049     59211162            0     59211838    12.683308    22.410342    14.178966    19.733198    33.264601    8.6131014    12.612127     22.30075    14.235163 
  274200    195.38623     59211379            0     59212140    12.683269     22.41034    14.179042    19.729342    33.264352    8.6206595    12.612127     22.30075    14.235163 
  274400    187.54339     59211722            0     59212452    12.683322    22.410335    14.179043     19.73463    33.263877    8.6207424    12.612127     22.30075    14.235163 
  274600    301.10059     59211014            0     59212187    12.683351    22.410374    14.178702    19.737549    33.267767    8.5866973    12.612127     22.30075    14.235163 
  274800    338.10482     59211496            0     59212812    12.683268     22.41039    14.178744    19.729229    33.269403    8.5908199    12.612127     22.30075    14.235163 
  275000     150.2632     59212213            0     59212798    12.683309    22.410349     14.17876    19.733335    33.265293    8.5924339    12.612127     22.30075    14.235163 
  275200    219.00882     59210334            0     59211187    12.683314    22.410356       14.179    19.733879    33.265961    8.6164964    12.612127     22.30075    14.235163 
  275400    189.24435     59212067            0     59212804    12.683332    22.410354    14.178946    19.735613    33.265744    8.6111017    12.612127     22.30075    14.235163 
  275600    301.98457     59211133            0     59212309    12.683312    22.410346    14.179173    19.733671    33.264939    8.6337313    12.612127     22.30075    14.235163 
  275800    228.47576     59211785            0     59212674    12.683317    22.410353    14.179068    19.734116     33.26565    8.6232491    12.612127     22.30075    14.235163 
  276000    388.02378     59211115            0     59212626    12.683307    22.410364    14.178954    19.733118    33.266728    8.6118613    12.612127     22.30075    14.235163 
  276200    263.15726     59211409            0     59212433    12.683321    22.410358    14.179051    19.734515    33.266177    8.6215219    12.612127     22.30075    14.235163 
  276400    196.11422     59211147            0     59211910    12.683349    22.410329     14.17898    19.737318    33.263279    8.6144474    12.612127     22.30075    14.235163 
  276600    296.72351     59211299            0     59212454    12.683308    22.410339    14.178822    19.733235    33.264264    8.5986829    12.612127     22.30075    14.235163 
  276800    150.06012     59211202            0     59211786    12.683322    22.410356     14.17887    19.734633    33.265916    8.6034159    12.612127     22.30075    14.235163 
  277000    234.10717     59212160            0     59213071     12.68331    22.410339    14.179133    19.733496    33.264221    8.6297484    12.612127     22.30075    14.235163 
  277200    216.00244     59211184            0     59212025     12.68332    22.410345    14.178987      19.7344    33.264901     8.615136    12.612127     22.30075    14.235163 
  277400    163.63563     59213077            0     59213714    12.683307    22.410343    14.179069    19.733111    33.264705    8.6233538    12.612127     22.30075    14.235163 
  277600    230.80161     59212128            0     59213026    12.683301    22.410363    14.178819    19.732571     33.26668    8.5983519    12.612127     22.30075    14.235163 
  277800    244.68983     59212125            0     59213078    12.683327    22.410352    14.179007    19.735126    33.265589    8.6171826    12.612127     22.30075    14.235163 
  278000    68.782871     59210897            0     59211164    12.683369    22.410349    14.178756    19.739339    33.265307    8.5920592    12.612127     22.30075    14.235163 
  278200    191.00806     59211599            0     59212343    12.683322    22.410352    14.178959     19.73466    33.265597    8.6123299    12.612127     22.30075    14.235163 
  278400    210.05841     59210892            0     59211709    12.683321    22.410326    14.178858    19.734584    33.262951     8.602299    12.612127     22.30075    14.235163 
  278600    295.67061     59211844            0     59212995    12.683314    22.410375    14.178779    19.733856    33.267811    8.5943945    12.612127     22.30075    14.235163 
  278800    237.38769     59210990            0     59211914    12.683321    22.410353    14.178924    19.734583    33.265678    8.6088829    12.612127     22.30075    14.235163 
  279000    300.50597     59211699            0     59212869    12.683313    22.410354    14.179101    19.733767    33.265776    8.6265523    12.612127     22.30075    14.235163 
  279200    93.514792     59212104            0     59212468    12.683323    22.410364    14.179029    19.734775    33.266746    8.6193963    12.612127     22.30075    14.235163 
  279400    279.26296     59211286            0     59212374    12.683326    22.410343    14.179078    19.735013    33.264694    8.6243085    12.612127     22.30075    14.235163 
  279600    219.66938     59211794            0     59212649    12.683308    22.410346    14.178742    19.733276    33.264955    8.5906733    12.612127     22.30075    14.235163 
  279800    270.25938     59212235            0     59213287    12.683309    22.410352    14.179085    19.733308    33.265602    8.6249856    12.612127     22.30075    14.235163 
  280000    225.14426     59211185            0     59212061     12.68329    22.410324    14.178918    19.731454    33.262731    8.6082104    12.612127     22.30075    14.235163 
  280200    487.06577     59210721            0     59212617    12.683325    22.410353    14.179104    19.734969    33.265685    8.6268528    12.612127     22.30075    14.235163 
  280400    94.045195     59210872            0     59211238    12.683245    22.410383    14.178941    19.726961    33.268649    8.6105196    12.612127     22.30075    14.235163 
  280600    385.40647     59211639            0     59213139    12.683311    22.410341    14.179084    19.733526    33.264417     8.624877    12.612127     22.30075    14.235163 
  280800    232.13247     59211292            0     59212196     12.68333    22.410337    14.179027    19.735448    33.264055    8.6191401    12.612127     22.30075    14.235163 
  281000    178.38296     59212914            0     59213609    12.683317    22.410353    14.179201    19.734154    33.265673    8.6365959    12.612127     22.30075    14.235163 
  281200    185.43669     59211329            0     59212051    12.683316    22.410354    14.178985    19.734057    33.265719     8.614961    12.612127     22.30075    14.235163 
  281400    299.92041     59212012            0     59213179    12.683284    22.410377    14.179131    19.730796    33.268045    8.6295881    12.612127     22.30075    14.235163 
  281600    307.32216     59212201            0     59213397    12.683324    22.410371    14.179108    19.734891    33.267438    8.6272306    12.612127     22.30075    14.235163 
  281800    178.28408     59211308            0     59212002    12.683316    22.410356    14.179179    19.734042     33.26599    8.6343767    12.612127     22.30075    14.235163 
  282000    359.49703     59211233            0     59212633    12.683321    22.410366    14.178916    19.734507     33.26698    8.6080962    12.612127     22.30075    14.235163 
  282200    268.23819     59211459            0     59212503    12.683306    22.410336    14.178985     19.73307    33.263971    8.6149965    12.612127     22.30075    14.235163 
  282400    212.28919     59211322            0     59212148    12.683335    22.410352    14.179042    19.735947    33.265539    8.6206736    12.612127     22.30075    14.235163 
  282600    262.69493     59211065            0     59212088    12.683293    22.410319    14.178853    19.731732    33.262223    8.6017126    12.612127     22.30075    14.235163 
  282800    277.09103     59211344            0     59212423    12.683338    22.410369    14.178853    19.736281    33.267307    8.6017417    12.612127     22.30075    14.235163 
  283000    201.75044     59211426            0     59212211    12.683306    22.410354    14.178953    19.733019    33.265738    8.6118063    12.612127     22.30075    14.235163 
  283200    262.98052     59211166            0     59212190    12.683274    22.410354    14.178777    19.729828    33.265739    8.5941317    12.612127     22.30075    14.235163 
  283400    237.70809     59211758            0     59212684    12.683316    22.410356     14.17891    19.734017    33.265939    8.6074231    12.612127     22.30075    14.235163 
  283600     267.3634     59211571            0     59212612    12.683367    22.410346    14.179187    19.739149    33.264955    8.6351469    12.612127     22.30075    14.235163 
  283800    258.40055     59211601            0     59212607    12.683297    22.410354    14.179208    19.732103    33.265788    8.6372685    12.612127     22.30075    14.235163 
  284000    155.22997     59212381            0     59212986    12.683316    22.410353    14.178844    19.734037    33.265698    8.6008491    12.612127     22.30075    14.235163 
  284200    163.92076     59210374            0     59211012    12.683343    22.410301    14.179003    19.736763    33.260495    8.6167894    12.612127     22.30075    14.235163 
  284400    220.80646     59211804            0     59212664    12.683334    22.410381    14.178846    19.735835    33.268472    8.6010343    12.612127     22.30075    14.235163 
  284600    267.90877     59211960            0     59213003    12.683294    22.410341    14.178823    19.731827    33.264422    8.5987321    12.612127     22.30075    14.235163 
  284800    250.91939     59211169            0     59212146    12.683301    22.410351    14.178763    19.732546     33.26541    8.5927626    12.612127     22.30075    14.235163 
  285000    152.70098     59210520            0     59211115      12.6833     22.41034    14.179148    19.732461    33.264382    8.6312664    12.612127     22.30075    14.235163 
  285200    164.18881     59211083            0     59211722    12.683336    22.410366     14.17893    19.736047    33.266953    8.6094394    12.612127     22.30075    14.235163 
  285400    285.89364     59210907            0     59212020    12.683326    22.410365    14.178868    19.735054    33.266812    8.6032382    12.612127     22.30075    14.235163 
  285600    187.94829     59210798            0     59211530    12.683265    22.410385    14.178998    19.728922    33.268896    8.6162996    12.612127     22.30075    14.235163 
  285800    204.02609     59211769            0     59212563    12.683333    22.410326    14.178944    19.735783    33.262923     8.610895    12.612127     22.30075    14.235163 
  286000    314.98518     59212576            0     59213802    12.683311    22.410353    14.179011    19.733593    33.265705     8.617609    12.612127     22.30075    14.235163 
  286200    239.22443     59211422            0     59212353    12.683337    22.410352    14.179171    19.736112    33.265518     8.633564    12.612127     22.30075    14.235163 
  286400    250.17818     59210355            0     59211329    12.683329    22.410364    14.178954    19.735377    33.266737     8.611852    12.612127     22.30075    14.235163 
  286600    322.27858     59211394            0     59212649    12.683327    22.410352     14.17899    19.735116    33.265594    8.6154901    12.612127     22.30075    14.235163 
  286800    307.97172     59210779            0     59211978    12.683316    22.410355    14.178932    19.734013     33.26586    8.6096946    12.612127     22.30075    14.235163 
  287000    384.98348     59210824            0     59212323    12.683316    22.410353    14.179012    19.733998    33.265678     8.617622    12.612127     22.30075    14.235163 
  287200     251.9334     59211771            0     59212752    12.683333     22.41036    14.179062     19.73571    33.266404    8.6226714    12.612127     22.30075    14.235163 
  287400    236.06658     59212180            0     59213099    12.683347    22.410353     14.17898    19.737104    33.265699     8.614481    12.612127     22.30075    14.235163 
  287600    331.67249     59211258            0     59212549    12.683379    22.410346    14.178828    19.740331       33.265    8.5992277    12.612127     22.30075    14.235163 
  287800    284.99221     59211102            0     59212212     12.68334    22.410378    14.178877    19.736438    33.268135    8.6041585    12.612127     22.30075    14.235163 
  288000    173.99967     59211694            0     59212371    12.683308     22.41034    14.178868    19.733256    33.264387    8.6032311    12.612127     22.30075    14.235163 
  288200    193.74486     59211268            0     59212022    12.683298    22.410358    14.178865    19.732221    33.266182    8.6029785    12.612127     22.30075    14.235163 
  288400    230.87411     59211240            0     59212139     12.68332    22.410345    14.178989    19.734409    33.264903    8.6153757    12.612127     22.30075    14.235163 
  288600    178.88986     59211520            0     59212216    12.683302    22.410354    14.178765    19.732663    33.265791    8.5929004    12.612127     22.30075    14.235163 
  288800    313.20605     59212239            0     59213459    12.683317    22.410358    14.178873    19.734139    33.266139    8.6037125    12.612127     22.30075    14.235163 
  289000    118.49148     59211040            0     59211501    12.683337    22.410351    14.178892    19.736148    33.265489     8.605697    12.612127     22.30075    14.235163 
  289200    353.12691     59211688            0     59213063    12.683303    22.410345     14.17882     19.73272    33.264842    8.5984815    12.612127     22.30075    14.235163 
  289400    270.08647     59210156            0     59211207    12.683288    22.410356     14.17901    19.731288    33.265977    8.6174842    12.612127     22.30075    14.235163 
  289600    317.13969     59210963            0     59212198    12.683316    22.410353    14.179062    19.734012    33.265683     8.622665    12.612127     22.30075    14.235163 
  289800    192.42047     59211279            0     59212028    12.683299    22.410372    14.179038    19.732393    33.267582    8.6202121    12.612127     22.30075    14.235163 
  290000    332.68647     59211234            0     59212529    12.683316    22.410353     14.17899    19.734014    33.265682    8.6155069    12.612127     22.30075    14.235163 
  290200    196.16565     59210952            0     59211716    12.683283    22.410352    14.178821    19.730713    33.265579    8.5985906    12.612127     22.30075    14.235163 
  290400    247.48626     59211604            0     59212567    12.683305    22.410345    14.179033    19.732962    33.264852    8.6197439    12.612127     22.30075    14.235163 
  290600    163.81396     59211976            0     59212613    12.683272    22.410361    14.178939    19.729652    33.266452    8.6103203    12.612127     22.30075    14.235163 
  290800     358.8915     59211675            0     59213072     12.68331    22.410375    14.178973    19.733445    33.267865    8.6137929    12.612127     22.30075    14.235163 
  291000    275.86085     59211830            0     59212904    12.683352     22.41041    14.178858    19.737631    33.271378    8.6022795    12.612127     22.30075    14.235163 
  291200     239.4197     59211142            0     59212074    12.683313    22.410371    14.178885    19.733789     33.26742     8.604973    12.612127     22.30075    14.235163 
  291400    216.52124     59211331            0     59212174    12.683295    22.410354    14.179128    19.731938    33.265763    8.6292212    12.612127     22.30075    14.235163 
  291600    293.22611     59211398            0     59212540    12.683291    22.410393     14.17915    19.731542    33.269625    8.6314497    12.612127     22.30075    14.235163 
  291800    219.65263     59211894            0     59212749    12.683329     22.41037    14.179046    19.735368    33.267341    8.6210355    12.612127     22.30075    14.235163 
  292000    229.34444     59211498            0     59212391    12.683316    22.410354    14.179099    19.734033     33.26571    8.6263763    12.612127     22.30075    14.235163 
  292200    137.26428     59210806            0     59211340    12.683317    22.410351    14.179042    19.734178    33.265477    8.6206673    12.612127     22.30075    14.235163 
  292400    217.93127     59210966            0     59211814    12.683303    22.410355    14.179042    19.732796    33.265872    8.6206552    12.612127     22.30075    14.235163 
  292600    128.20454     59213761            0     59214260    12.683314    22.410355    14.179074    19.733808    33.265844    8.6238354    12.612127     22.30075    14.235163 
  292800    94.904259     59211864            0     59212234    12.683296    22.410322    14.179183       19.732    33.262517    8.6347857    12.612127     22.30075    14.235163 
  293000    191.27687     59212570            0     59213315     12.68332    22.410343    14.178943    19.734409    33.264611     8.610737    12.612127     22.30075    14.235163 
  293200    206.75184     59212305            0     59213109    12.683312     22.41036    14.179174    19.733679    33.266339    8.6338983    12.612127     22.30075    14.235163 
  293400     167.8426     59211169            0     59211822    12.683337    22.410355    14.179083    19.736161    33.265895    8.6247582    12.612127     22.30075    14.235163 
  293600    193.74681     59211623            0     59212378    12.683297     22.41033    14.178888    19.732101     33.26335    8.6052452    12.612127     22.30075    14.235163 
  293800    164.01524     59212160            0     59212799    12.683338    22.410335    14.178878    19.736262    33.263857    8.6042977    12.612127     22.30075    14.235163 
  294000    335.87469     59211646            0     59212954    12.683351    22.410328    14.178966    19.737548    33.263207    8.6131037    12.612127     22.30075    14.235163 
  294200    245.48605     59212241            0     59213197    12.683315    22.410355    14.179095    19.733954    33.265875    8.6259978    12.612127     22.30075    14.235163 
  294400    283.57242     59210884            0     59211988    12.683322    22.410356    14.179043    19.734697     33.26591    8.6207265    12.612127     22.30075    14.235163 
  294600    90.841501     59212390            0     59212744    12.683325    22.410354     14.17881    19.734968    33.265714    8.5974553    12.612127     22.30075    14.235163 
  294800    198.86281     59212464            0     59213238    12.683316    22.410353    14.178855    19.734077    33.265639    8.6019548    12.612127     22.30075    14.235163 
  295000    177.78597     59211679            0     59212371    12.683314    22.410418    14.178788    19.733818    33.272138    8.5952863    12.612127     22.30075    14.235163 
  295200    349.29906     59210457            0     59211817     12.68332    22.410365      14.1791    19.734417    33.266831    8.6264946    12.612127     22.30075    14.235163 
  295400    162.03955     59211749            0     59212380    12.683301    22.410355     14.17895    19.732583    33.265839    8.6114449    12.612127     22.30075    14.235163 
  295600    309.24667     59211887            0     59213091     12.68334    22.410323     14.17882    19.736402    33.262618    8.5984551    12.612127     22.30075    14.235163 
  295800    194.66126     59210448            0     59211206    12.683316    22.410353    14.178894    19.734003    33.265699    8.6058381    12.612127     22.30075    14.235163 
  296000    332.10143     59211418            0     59212710    12.683316    22.410353    14.179069    19.734012    33.265682    8.6234006    12.612127     22.30075    14.235163 
  296200    210.41469     59210922            0     59211741    12.683329     22.41034    14.179126    19.735321    33.264311    8.6290891    12.612127     22.30075    14.235163 
  296400    291.00743     59212422            0     59213555    12.683289    22.410388     14.17926     19.73133    33.269169    8.6424466    12.612127     22.30075    14.235163 
  296600    213.91106     59212011            0     59212844    12.683351    22.410351    14.178984    19.737513    33.265493    8.6148393    12.612127     22.30075    14.235163 
  296800    292.26782     59212987            0     59214125    12.683293    22.410355     14.17918    19.731757    33.265853    8.6344217    12.612127     22.30075    14.235163 
  297000    191.59365     59210816            0     59211562    12.683288    22.410343    14.179073    19.731206     33.26464    8.6237312    12.612127     22.30075    14.235163 
  297200    192.62056     59211403            0     59212153    12.683291    22.410352    14.178965    19.731553     33.26553    8.6129232    12.612127     22.30075    14.235163 
  297400    306.69829     59211259            0     59212453     12.68331    22.410361    14.178953    19.733492    33.266499    8.6117109    12.612127     22.30075    14.235163 
  297600    311.01907     59211861            0     59213072    12.683303    22.410357    14.179009    19.732733    33.266025    8.6173826    12.612127     22.30075    14.235163 
  297800    369.66634     59211490            0     59212930    12.683282    22.410348    14.179106    19.730681     33.26518    8.6271049    12.612127     22.30075    14.235163 
  298000    124.13052     59211293            0     59211777    12.683321    22.410353       14.179    19.734584    33.265648      8.61647    12.612127     22.30075    14.235163 
  298200    209.90038     59211231            0     59212048    12.683316    22.410353    14.178907    19.734024    33.265681    8.6072007    12.612127     22.30075    14.235163 
  298400    252.36655     59210441            0     59211424    12.683301    22.410321    14.178953    19.732531    33.262438    8.6117905    12.612127     22.30075    14.235163 
  298600    143.00558     59211704            0     59212261    12.683315    22.410368    14.179154    19.733989    33.267206    8.6319163    12.612127     22.30075    14.235163 
  298800    313.64461     59211470            0     59212691    12.683266    22.410382    14.178964    19.729035    33.268582     8.612856    12.612127     22.30075    14.235163 
  299000    173.97057     59212211            0     59212888    12.683317    22.410356    14.179118    19.734173    33.265936    8.6282944    12.612127     22.30075    14.235163 
  299200    285.62692     59211148            0     59212260     12.68333    22.410382    14.179027    19.735494    33.268569    8.6191506    12.612127     22.30075    14.235163 
  299400    224.10742     59211818            0     59212690     12.68334    22.410382    14.178827    19.736404    33.268514    8.5991072    12.612127     22.30075    14.235163 
  299600    339.69563     59210356            0     59211678    12.683311    22.410331    14.178996    19.733532    33.263469    8.6160398    12.612127     22.30075    14.235163 
  299800    305.59056     59211978            0     59213168     12.68329    22.410363    14.179026    19.731451     33.26664    8.6190301    12.612127     22.30075    14.235163 
  300000    79.358746     59212449            0     59212757    12.683316    22.410353     14.17903    19.734014    33.265677    8.6194655    12.612127     22.30075    14.235163 
  300200    305.56725     59211883            0     59213073    12.683314    22.410329    14.179081    19.733806    33.263212    8.6245215    12.612127     22.30075    14.235163 
  300400    335.97491     59210702            0     59212010    12.683327     22.41037    14.179172    19.735133    33.267397    8.6336941    12.612127     22.30075    14.235163 
  300600    239.54311     59211791            0     59212724    12.683326    22.410365    14.178908    19.735057    33.266866    8.6072591    12.612127     22.30075    14.235163 
  300800     189.1554     59211688            0     59212425    12.683353    22.410347    14.179106    19.737711    33.265059    8.6270533    12.612127     22.30075    14.235163 
  301000    182.35864     59212139            0     59212848    12.683317    22.410343    14.178908    19.734105    33.264633    8.6072421    12.612127     22.30075    14.235163 
  301200    299.20758     59212646            0     59213811      12.6833    22.410341    14.178943    19.732415    33.264445    8.6107988    12.612127     22.30075    14.235163 
  301400    238.67196     59211755            0     59212684    12.683347    22.410342     14.17887    19.737141     33.26456    8.6034411    12.612127     22.30075    14.235163 
  301600    142.12801     59212447            0     59213000    12.683318    22.410378    14.179074    19.734256    33.268165    8.6239103    12.612127     22.30075    14.235163 
  301800    173.62015     59210807            0     59211483    12.683312    22.410342    14.178933    19.733666    33.264567    8.6098056    12.612127     22.30075    14.235163 
  302000    238.48235     59212276            0     59213204    12.683318    22.410347    14.178922    19.734245    33.265033    8.6086415    12.612127     22.30075    14.235163 
  302200    216.47253     59212003            0     59212846    12.683317    22.410353    14.179104    19.734128    33.265676    8.6268406    12.612127     22.30075    14.235163 
  302400    104.99791     59212152            0     59212561    12.683299    22.410356    14.179216    19.732388    33.265925    8.6380527    12.612127     22.30075    14.235163 
  302600    236.79816     59211525            0     59212447    12.683336    22.410364    14.178915    19.736032    33.266779    8.6079357    12.612127     22.30075    14.235163 
  302800    274.90459     59211597            0     59212667    12.683316    22.410354    14.178882    19.734032    33.265711    8.6046875    12.612127     22.30075    14.235163 
  303000    450.87136     59212611            0     59214366    12.683327    22.410367    14.178883    19.735124    33.267043    8.6047061    12.612127     22.30075    14.235163 
  303200    246.53574     59211739            0     59212699    12.683309    22.410362    14.178871    19.733335     33.26652    8.6035702    12.612127     22.30075    14.235163 
  303400    223.44681     59210584            0     59211453    12.683316    22.410353    14.178965    19.734012     33.26568    8.6129472    12.612127     22.30075    14.235163 
  303600    320.52595     59210979            0     59212227    12.683312    22.410361    14.179131    19.733602    33.266489    8.6295162    12.612127     22.30075    14.235163 
  303800      106.101     59211772            0     59212185    12.683322    22.410336      14.1791    19.734661    33.263914    8.6264287    12.612127     22.30075    14.235163 
  304000     170.4467     59212300            0     59212964    12.683337    22.410334    14.178734    19.736196    33.263735    8.5898122    12.612127     22.30075    14.235163 
  304200    327.92855     59210784            0     59212061    12.683321    22.410361     14.17893    19.734513    33.266447    8.6095005    12.612127     22.30075    14.235163 
  304400    362.80428     59211660            0     59213072     12.68334    22.410377    14.178961    19.736465    33.268066    8.6125165    12.612127     22.30075    14.235163 
  304600    125.09586     59211477            0     59211964    12.683297    22.410371    14.178776    19.732179    33.267462    8.5940257    12.612127     22.30075    14.235163 
  304800    278.82647     59212253            0     59213338    12.683319    22.410352    14.179007    19.734332    33.265558    8.6171302    12.612127     22.30075    14.235163 
  305000    308.72148     59212141            0     59213343    12.683328    22.410352    14.179063    19.735218    33.265606    8.6227394    12.612127     22.30075    14.235163 
  305200    152.48844     59211402            0     59211996    12.683352     22.41036     14.17875     19.73766    33.266393    8.5914349    12.612127     22.30075    14.235163 
  305400    229.96235     59211347            0     59212242     12.68332    22.410344    14.179098    19.734462    33.264796    8.6262155    12.612127     22.30075    14.235163 
  305600    223.53197     59211686            0     59212556    12.683322    22.410356    14.179331    19.734649    33.265919    8.6495773    12.612127     22.30075    14.235163 
  305800    132.38965     59211915            0     59212430     12.68333    22.410347    14.179248    19.735494    33.265066     8.641247    12.612127     22.30075    14.235163 
  306000    456.00073     59211727            0     59213502    12.683318     22.41035    14.179035    19.734251    33.265348    8.6199431    12.612127     22.30075    14.235163 
  306200    224.11278     59210701            0     59211573    12.683316    22.410353    14.178918    19.734031    33.265647    8.6082086    12.612127     22.30075    14.235163 
  306400    274.11676     59211241            0     59212308     12.68333    22.410323    14.178911    19.735461    33.262635    8.6075085    12.612127     22.30075    14.235163 
  306600    317.66342     59211640            0     59212876    12.683316    22.410353    14.178945    19.734016    33.265682    8.6109237    12.612127     22.30075    14.235163 
  306800    215.00488     59211525            0     59212362    12.683343    22.410352    14.178839    19.736716    33.265527    8.6003297    12.612127     22.30075    14.235163 
  307000    178.88942     59212380            0     59213076     12.68333    22.410346    14.179135    19.735399     33.26498    8.6299662    12.612127     22.30075    14.235163 
  307200    183.32165     59210750            0     59211464    12.683306    22.410354      14.1791    19.733075    33.265771    8.6264693    12.612127     22.30075    14.235163 
  307400    125.41186     59210911            0     59211399    12.683316    22.410353    14.178823    19.734014    33.265673     8.598745    12.612127     22.30075    14.235163 
  307600    120.22619     59210822            0     59211291    12.683315    22.410353    14.178822    19.733986    33.265652    8.5986527    12.612127     22.30075    14.235163 
  307800    266.26021     59211494            0     59212530    12.683331    22.410356    14.178951    19.735554    33.265968    8.6115945    12.612127     22.30075    14.235163 
  308000    199.27306     59211549            0     59212325    12.683281    22.410347    14.178963     19.73056     33.26504    8.6127333    12.612127     22.30075    14.235163 
  308200    198.33821     59212168            0     59212941    12.683316    22.410353    14.178646    19.734019    33.265688    8.5810889    12.612127     22.30075    14.235163 
  308400    360.17541     59211534            0     59212936    12.683318    22.410348    14.178945    19.734263    33.265187     8.610952    12.612127     22.30075    14.235163 
  308600    179.44142     59211022            0     59211721    12.683318    22.410341    14.179042    19.734229    33.264492    8.6206802    12.612127     22.30075    14.235163 
  308800     219.5152     59211207            0     59212061    12.683353    22.410342    14.179143    19.737787    33.264556    8.6308077    12.612127     22.30075    14.235163 
  309000    118.50848     59211125            0     59211586    12.683339    22.410391    14.178796    19.736358    33.269493    8.5960195    12.612127     22.30075    14.235163 
  309200    261.27314     59211606            0     59212623    12.683296    22.410343     14.17898     19.73207    33.264675    8.6144675    12.612127     22.30075    14.235163 
  309400    308.44676     59210888            0     59212089    12.683312    22.410334    14.178748    19.733634    33.263798    8.5912284    12.612127     22.30075    14.235163 
  309600    375.14479     59212295            0     59213755    12.683344    22.410357    14.179039     19.73686    33.266018    8.6203846    12.612127     22.30075    14.235163 
  309800    240.87275     59210696            0     59211634    12.683324    22.410342    14.178778    19.734805    33.264519    8.5942074    12.612127     22.30075    14.235163 
  310000    193.55184     59212601            0     59213355     12.68335    22.410317    14.178962    19.737404    33.262106    8.6126855    12.612127     22.30075    14.235163 
  310200    184.94012     59212539            0     59213259    12.683321    22.410345    14.178819    19.734578    33.264872    8.5983568    12.612127     22.30075    14.235163 
  310400    298.53596     59211657            0     59212819    12.683311    22.410342     14.17919    19.733597    33.264508    8.6354563    12.612127     22.30075    14.235163 
  310600    310.72613     59211092            0     59212302    12.683328    22.410355    14.179083    19.735211    33.265864    8.6247732    12.612127     22.30075    14.235163 
  310800    219.36988     59211833            0     59212687    12.683321    22.410355    14.178945    19.734554    33.265897    8.6109349    12.612127     22.30075    14.235163 
  311000    163.90232     59211316            0     59211954     12.68328    22.410354    14.179003    19.730495    33.265733     8.616757    12.612127     22.30075    14.235163 
  311200    255.77383     59212101            0     59213097     12.68331    22.410345    14.179098    19.733456     33.26482    8.6263105    12.612127     22.30075    14.235163 
  311400    328.88139     59212201            0     59213481    12.683336    22.410338    14.178985    19.736061    33.264196    8.6150008    12.612127     22.30075    14.235163 
  311600    279.33986     59211800            0     59212888    12.683315     22.41035    14.179092    19.733897    33.265315    8.6256507    12.612127     22.30075    14.235163 
  311800    261.62693     59212800            0     59213818    12.683313    22.410359    14.178955     19.73371    33.266287    8.6119717    12.612127     22.30075    14.235163 
  312000    267.70728     59212227            0     59213269    12.683316    22.410353    14.179178    19.734009    33.265648    8.6342275    12.612127     22.30075    14.235163 
  312200    195.28338     59213390            0     59214151    12.683291    22.410364    14.179177    19.731544    33.266791    8.6342143    12.612127     22.30075    14.235163 
  312400    215.40022     59211887            0     59212726     12.68331    22.410367    14.179337    19.733435    33.267069    8.6502025    12.612127     22.30075    14.235163 
  312600     160.7331     59211244            0     59211870    12.683311    22.410361    14.179063    19.733597    33.266502    8.6227385    12.612127     22.30075    14.235163 
  312800    374.53644     59211848            0     59213306    12.683316    22.410353    14.178708    19.734035     33.26568    8.5872185    12.612127     22.30075    14.235163 
  313000    158.56095     59211304            0     59211921    12.683339    22.410375    14.179293    19.736377    33.267857    8.6458017    12.612127     22.30075    14.235163 
  313200    252.85849     59211289            0     59212273    12.683315    22.410351    14.178957    19.733902    33.265493    8.6121185    12.612127     22.30075    14.235163 
  313400      200.145     59212393            0     59213172    12.683295    22.410351    14.179271    19.731909     33.26542    8.6435954    12.612127     22.30075    14.235163 
  313600    251.15424     59211932            0     59212910    12.683316    22.410353    14.178821    19.734044    33.265623    8.5985881    12.612127     22.30075    14.235163 
  313800    203.22866     59210923            0     59211714    12.683261    22.410369    14.178987     19.72859    33.267216    8.6151345    12.612127     22.30075    14.235163 
  314000     192.2302     59212759            0     59213507    12.683295    22.410354    14.179043    19.731987    33.265795    8.6207663    12.612127     22.30075    14.235163 
  314200    223.19461     59211022            0     59211891    12.683315    22.410354    14.178844    19.733964    33.265723    8.6008092    12.612127     22.30075    14.235163 
  314400    215.65438     59212583            0     59213423    12.683317    22.410353    14.178919    19.734144     33.26566    8.6083588    12.612127     22.30075    14.235163 
  314600    177.66653     59210938            0     59211629      12.6833    22.410348     14.17885    19.732468    33.265125    8.6014994    12.612127     22.30075    14.235163 
  314800    302.13395     59211071            0     59212247    12.683311    22.410361    14.179036    19.733509    33.266495    8.6200141    12.612127     22.30075    14.235163 
  315000    435.68152     59211523            0     59213219    12.683298    22.410352    14.179075    19.732238    33.265582     8.623928    12.612127     22.30075    14.235163 
  315200    345.23518     59211316            0     59212660     12.68331    22.410361     14.17911    19.733415    33.266497    8.6274714    12.612127     22.30075    14.235163 
  315400    316.47159     59210929            0     59212161    12.683305    22.410362    14.178804    19.732904    33.266578    8.5968245    12.612127     22.30075    14.235163 
  315600    268.23428     59212328            0     59213372    12.683312    22.410348    14.178923    19.733671    33.265159    8.6087469    12.612127     22.30075    14.235163 
  315800    135.50417     59211344            0     59211871    12.683315    22.410348    14.178765    19.733968    33.265188    8.5929346    12.612127     22.30075    14.235163 
  316000    344.94749     59211749            0     59213092    12.683349    22.410362    14.178897    19.737395    33.266545    8.6061871    12.612127     22.30075    14.235163 
  316200    240.63394     59211361            0     59212297    12.683317    22.410357    14.179196    19.734113    33.266032    8.6360196    12.612127     22.30075    14.235163 
  316400    236.65173     59211352            0     59212273    12.683324    22.410364    14.179048    19.734895    33.266721    8.6213021    12.612127     22.30075    14.235163 
  316600     309.2511     59210716            0     59211919    12.683336    22.410379    14.178939    19.736047    33.268243    8.6103116    12.612127     22.30075    14.235163 
  316800    231.16519     59212298            0     59213197    12.683331    22.410356    14.179048    19.735548    33.265978    8.6212438    12.612127     22.30075    14.235163 
  317000    324.45418     59212324            0     59213587    12.683315    22.410341    14.179201    19.733943    33.264438    8.6366043    12.612127     22.30075    14.235163 
  317200    357.99346     59211589            0     59212982    12.683327    22.410353    14.178844    19.735186    33.265669    8.6008332    12.612127     22.30075    14.235163 
  317400    177.85728     59210930            0     59211622    12.683308    22.410354    14.179097    19.733221    33.265721    8.6261256    12.612127     22.30075    14.235163 
  317600    166.35606     59212431            0     59213078    12.683336    22.410352    14.179175    19.736021    33.265571    8.6339414    12.612127     22.30075    14.235163 
  317800    253.35129     59212011            0     59212997    12.683312    22.410361    14.178938    19.733652    33.266458    8.6102163    12.612127     22.30075    14.235163 
  318000    233.44786     59210852            0     59211761    12.683305    22.410364    14.179058    19.732926    33.266746    8.6222922    12.612127     22.30075    14.235163 
  318200    186.73266     59211390            0     59212117    12.683331    22.410336    14.179119    19.735527    33.263947    8.6284061    12.612127     22.30075    14.235163 
  318400     159.5175     59211298            0     59211919     12.68333    22.410375    14.178965    19.735464    33.267829    8.6130064    12.612127     22.30075    14.235163 
  318600    282.30004     59211260            0     59212359    12.683334     22.41033    14.178765    19.735799    33.263378     8.592933    12.612127     22.30075    14.235163 
  318800    240.53326     59212646            0     59213582    12.683281    22.410336    14.179101    19.730579    33.263931    8.6265934    12.612127     22.30075    14.235163 
  319000    183.93646     59211576            0     59212292    12.683316    22.410353    14.178984    19.733998    33.265691     8.614855    12.612127     22.30075    14.235163 
  319200    388.61658     59211206            0     59212719    12.683327     22.41038    14.178936    19.735141    33.268342    8.6100859    12.612127     22.30075    14.235163 
  319400    251.08708     59210841            0     59211819     12.68332    22.410341     14.17896    19.734467    33.264422    8.6124669    12.612127     22.30075    14.235163 
  319600    218.40235     59211444            0     59212294    12.683296    22.410346    14.179083    19.732023    33.264944    8.6247605    12.612127     22.30075    14.235163 
  319800      185.366     59212398            0     59213119    12.683309    22.410362    14.178989    19.733353    33.266517    8.6153391    12.612127     22.30075    14.235163 
  320000    291.51618     59211096            0     59212231    12.683267    22.410342    14.178842    19.729144    33.264517     8.600615    12.612127     22.30075    14.235163 
  320200    230.10606     59211284            0     59212180    12.683285    22.410344    14.179013    19.730966    33.264713    8.6177704    12.612127     22.30075    14.235163 
  320400    178.42849     59211918            0     59212613    12.683317    22.410355    14.179035    19.734136    33.265895      8.62001    12.612127     22.30075    14.235163 
  320600    246.38837     59211748            0     59212707    12.683329    22.410358    14.179001    19.735299    33.266199    8.6165827    12.612127     22.30075    14.235163 
  320800    171.76144     59211396            0     59212065    12.683312    22.410307    14.179162    19.733613    33.261042    8.6326873    12.612127     22.30075    14.235163 
  321000     319.3445     59211261            0     59212504    12.683312    22.410342    14.179039     19.73367    33.264525    8.6203285    12.612127     22.30075    14.235163 
  321200    177.65698     59212075            0     59212767    12.683314    22.410352    14.179024    19.733856    33.265515    8.6188559    12.612127     22.30075    14.235163 
  321400     259.6076     59211135            0     59212145    12.683309    22.410329    14.178919    19.733366     33.26325    8.6083513    12.612127     22.30075    14.235163 
  321600    173.94855     59210836            0     59211513    12.683311    22.410366    14.178796    19.733559    33.266982    8.5960082    12.612127     22.30075    14.235163 
  321800    173.15174     59210918            0     59211592    12.683321    22.410354    14.178795    19.734584    33.265716    8.5959821    12.612127     22.30075    14.235163 
  322000    151.54353     59210907            0     59211497    12.683318    22.410333    14.178928    19.734224    33.263611    8.6092791    12.612127     22.30075    14.235163 
  322200    166.62529     59210408            0     59211057    12.683321    22.410352    14.179004    19.734574    33.265566    8.6168625    12.612127     22.30075    14.235163 
  322400    229.38649     59212601            0     59213494    12.683316    22.410353    14.179244    19.733998    33.265658    8.6408965    12.612127     22.30075    14.235163 
  322600    270.63592     59211178            0     59212231    12.683316    22.410353    14.179093    19.734012     33.26568    8.6257891    12.612127     22.30075    14.235163 
  322800      164.301     59212522            0     59213162    12.683315    22.410352    14.178767    19.733904    33.265514    8.5931069    12.612127     22.30075    14.235163 
  323000    293.15203     59210700            0     59211842    12.683304    22.410348    14.178974    19.732892    33.265175    8.6138762    12.612127     22.30075    14.235163 
  323200    323.68896     59211248            0     59212508    12.683295    22.410357    14.179015    19.731943    33.266067     8.617948    12.612127     22.30075    14.235163 
  323400    131.14439     59212016            0     59212527    12.683315    22.410344    14.179223     19.73395    33.264749    8.6387227    12.612127     22.30075    14.235163 
  323600    281.55626     59211968            0     59213064     12.68331    22.410347    14.179145    19.733476    33.265107     8.630986    12.612127     22.30075    14.235163 
  323800    343.93974     59211915            0     59213254    12.683343    22.410328    14.179046    19.736767    33.263152    8.6210718    12.612127     22.30075    14.235163 
  324000    274.43681     59211781            0     59212849    12.683309    22.410355    14.178879    19.733386    33.265885    8.6043506    12.612127     22.30075    14.235163 
  324200    268.30394     59211020            0     59212064    12.683315    22.410354    14.179057    19.733972    33.265769    8.6221837    12.612127     22.30075    14.235163 
  324400    249.06834     59210709            0     59211679    12.683329    22.410372    14.179042    19.735396    33.267517     8.620614    12.612127     22.30075    14.235163 
  324600    213.89083     59211390            0     59212222    12.683316    22.410353    14.179118    19.734011    33.265682    8.6282419    12.612127     22.30075    14.235163 
  324800    133.78974     59212945            0     59213465    12.683298    22.410354    14.178828    19.732245    33.265778    8.5992145    12.612127     22.30075    14.235163 
  325000    171.31501     59211700            0     59212367    12.683336    22.410352    14.178946    19.736007    33.265594    8.6110227    12.612127     22.30075    14.235163 
  325200    187.21278     59211882            0     59212611    12.683324    22.410366    14.178865    19.734821     33.26692     8.602953    12.612127     22.30075    14.235163 
  325400    217.73833     59211730            0     59212578    12.683297    22.410348    14.178941    19.732165    33.265189    8.6105331    12.612127     22.30075    14.235163 
  325600    90.580697     59210939            0     59211291    12.683315    22.410345    14.178802    19.733931    33.264832     8.596677    12.612127     22.30075    14.235163 
  325800    169.67112     59212784            0     59213445    12.683318    22.410344     14.17881    19.734274    33.264749    8.5974688    12.612127     22.30075    14.235163 
  326000     295.4903     59212060            0     59213210    12.683307    22.410378    14.178949    19.733188    33.268116    8.6113223    12.612127     22.30075    14.235163 
  326200    107.29751     59211192            0     59211610    12.683335    22.410367    14.179062     19.73599    33.267097    8.6226857    12.612127     22.30075    14.235163 
  326400    243.41148     59211244            0     59212191    12.683312    22.410353    14.178898    19.733671    33.265704    8.6062448    12.612127     22.30075    14.235163 
  326600    258.23217     59212058            0     59213063    12.683301     22.41033    14.179088    19.732525    33.263385    8.6252777    12.612127     22.30075    14.235163 
  326800    212.81523     59211026            0     59211855    12.683335    22.410342    14.179002    19.735985    33.264516    8.6166815    12.612127     22.30075    14.235163 
  327000    163.11646     59211236            0     59211871      12.6833    22.410353    14.178934    19.732423    33.265643    8.6098931    12.612127     22.30075    14.235163 
  327200    266.06688     59211039            0     59212075    12.683306    22.410354    14.178999    19.733077    33.265735    8.6163712    12.612127     22.30075    14.235163 
  327400    214.28831     59211189            0     59212023    12.683354    22.410375    14.178925    19.737855    33.267846    8.6089598    12.612127     22.30075    14.235163 
  327600    248.46112     59210872            0     59211839    12.683317    22.410351    14.178887    19.734184    33.265439    8.6051367    12.612127     22.30075    14.235163 
  327800    208.32224     59212965            0     59213776    12.683297    22.410354    14.178925    19.732127    33.265789    8.6089547    12.612127     22.30075    14.235163 
  328000     304.1914     59210649            0     59211834    12.683339    22.410352    14.179135    19.736383    33.265552    8.6300075    12.612127     22.30075    14.235163 
  328200    228.72899     59211401            0     59212291    12.683317     22.41038    14.178797    19.734174    33.268359    8.5961205    12.612127     22.30075    14.235163 
  328400    208.23433     59212521            0     59213332    12.683313    22.410354    14.179143    19.733705    33.265733    8.6307217    12.612127     22.30075    14.235163 
  328600    523.28249     59211101            0     59213138    12.683349    22.410352    14.179006    19.737378     33.26555    8.6170655    12.612127     22.30075    14.235163 
  328800    281.26697     59211408            0     59212503    12.683316    22.410353    14.179154    19.734013    33.265681     8.631889    12.612127     22.30075    14.235163 
  329000    238.80145     59211082            0     59212012     12.68332    22.410346    14.178881    19.734415    33.264911    8.6045901    12.612127     22.30075    14.235163 
  329200     118.3726     59211322            0     59211783    12.683319    22.410359    14.179066    19.734372    33.266258     8.623097    12.612127     22.30075    14.235163 
  329400    154.28395     59210538            0     59211139     12.68331    22.410356    14.179015    19.733491    33.265954    8.6180018    12.612127     22.30075    14.235163 
  329600    370.78109     59211179            0     59212622    12.683313    22.410365    14.178988    19.733724    33.266872    8.6153023    12.612127     22.30075    14.235163 
  329800    211.57189     59211626            0     59212450     12.68331    22.410352      14.1789    19.733415    33.265523    8.6064943    12.612127     22.30075    14.235163 
  330000    178.81059     59212079            0     59212775    12.683306    22.410317    14.178903    19.733071    33.262097    8.6067613    12.612127     22.30075    14.235163 
  330200    191.61703     59210956            0     59211702    12.683316    22.410353    14.178879    19.734013    33.265682     8.604403    12.612127     22.30075    14.235163 
  330400    128.37191     59211533            0     59212033    12.683316    22.410353    14.179048    19.734026    33.265673    8.6212516    12.612127     22.30075    14.235163 
  330600    244.80775     59212551            0     59213504     12.68335    22.410351    14.179014    19.737442    33.265492    8.6178479    12.612127     22.30075    14.235163 
  330800    149.04329     59212100            0     59212680    12.683314    22.410314    14.178769    19.733892    33.261761    8.5933108    12.612127     22.30075    14.235163 
  331000    207.00183     59212256            0     59213062    12.683304     22.41036    14.178712    19.732878      33.2664    8.5876035    12.612127     22.30075    14.235163 
  331200    158.57552     59210972            0     59211590    12.683307    22.410372    14.178876     19.73312    33.267567    8.6040234    12.612127     22.30075    14.235163 
  331400     340.8206     59211628            0     59212955    12.683315    22.410343    14.178834    19.733957    33.264616    8.5998206    12.612127     22.30075    14.235163 
  331600    268.45574     59211612            0     59212657    12.683307    22.410358    14.178991     19.73317    33.266119    8.6155818    12.612127     22.30075    14.235163 
  331800    304.89556     59211155            0     59212342    12.683316    22.410353     14.17875     19.73401     33.26568    8.5914908    12.612127     22.30075    14.235163 
  332000    235.92074     59210882            0     59211801    12.683331    22.410372    14.178936    19.735565    33.267554    8.6100457    12.612127     22.30075    14.235163 
  332200    250.76349     59211620            0     59212596    12.683306    22.410324    14.179102    19.733055    33.262801    8.6266872    12.612127     22.30075    14.235163 
  332400    341.06495     59211168            0     59212495    12.683309    22.410346    14.178793    19.733375    33.264963    8.5957499    12.612127     22.30075    14.235163 
  332600    214.03969     59211404            0     59212238    12.683311    22.410355    14.178908    19.733502    33.265908    8.6072524    12.612127     22.30075    14.235163 
  332800    139.10002     59210482            0     59211024    12.683342    22.410352    14.178919    19.736644     33.26553    8.6083351    12.612127     22.30075    14.235163 
  333000    203.14917     59210986            0     59211777    12.683337    22.410352    14.178969    19.736106    33.265565    8.6133524    12.612127     22.30075    14.235163 
  333200    94.391364     59212176            0     59212543     12.68328    22.410356    14.178794    19.730473    33.265936    8.5958488    12.612127     22.30075    14.235163 
  333400    239.02968     59211368            0     59212299    12.683347    22.410351    14.178959     19.73719    33.265506    8.6123437    12.612127     22.30075    14.235163 
  333600    186.94387     59211134            0     59211862    12.683326     22.41035    14.178929     19.73509    33.265339      8.60938    12.612127     22.30075    14.235163 
  333800    197.77819     59211776            0     59212546    12.683318    22.410382    14.179367    19.734249    33.268545    8.6531617    12.612127     22.30075    14.235163 
  334000    192.12716     59211760            0     59212508    12.683326    22.410369    14.179025    19.735053    33.267274    8.6189617    12.612127     22.30075    14.235163 
  334200     219.9094     59211616            0     59212472    12.683317    22.410349    14.178824    19.734168    33.265269    8.5988098    12.612127     22.30075    14.235163 
  334400    293.73361     59211564            0     59212707    12.683341    22.410352    14.178798    19.736499    33.265525    8.5962368    12.612127     22.30075    14.235163 
  334600    170.86023     59211184            0     59211849     12.68333    22.410324    14.178887    19.735422    33.262727    8.6051235    12.612127     22.30075    14.235163 
  334800     281.9013     59211232            0     59212330    12.683316    22.410353    14.179181    19.734041    33.265681    8.6345742    12.612127     22.30075    14.235163 
  335000     175.2354     59211949            0     59212631    12.683313     22.41037    14.178985    19.733701    33.267378    8.6150045    12.612127     22.30075    14.235163 
  335200    209.94819     59210799            0     59211617    12.683309    22.410348     14.17903    19.733366    33.265147    8.6194377    12.612127     22.30075    14.235163 
  335400    193.56386     59211809            0     59212563    12.683314    22.410345    14.179255    19.733896    33.264899    8.6419848    12.612127     22.30075    14.235163 
  335600    262.39789     59210952            0     59211973    12.683319    22.410352    14.178926    19.734378    33.265577    8.6090073    12.612127     22.30075    14.235163 
  335800    257.97921     59211530            0     59212534    12.683317    22.410353     14.17886    19.734102    33.265673    8.6024218    12.612127     22.30075    14.235163 
  336000     334.3043     59210764            0     59212066    12.683334    22.410367    14.178897    19.735813    33.267033    8.6061571    12.612127     22.30075    14.235163 
  336200    414.29151     59211899            0     59213512    12.683331    22.410323    14.179071    19.735521    33.262695    8.6235625    12.612127     22.30075    14.235163 
  336400    270.77665     59211540            0     59212594    12.683299    22.410357    14.178697    19.732355    33.266064    8.5861972    12.612127     22.30075    14.235163 
  336600    119.09994     59211115            0     59211579    12.683316    22.410353    14.178759    19.734008    33.265675       8.5924    12.612127     22.30075    14.235163 
  336800    195.54664     59212007            0     59212769     12.68331    22.410364    14.178794    19.733408    33.266713    8.5958823    12.612127     22.30075    14.235163 
  337000    364.48844     59211112            0     59212531    12.683316    22.410353    14.179019    19.734012    33.265682    8.6183293    12.612127     22.30075    14.235163 
  337200    326.63529     59212211            0     59213483    12.683315    22.410353       14.179     19.73397    33.265684    8.6164644    12.612127     22.30075    14.235163 
  337400    227.70585     59211465            0     59212351    12.683322    22.410338    14.179124    19.734617    33.264183    8.6288875    12.612127     22.30075    14.235163 
  337600    205.20687     59211773            0     59212572    12.683297    22.410355    14.178841    19.732117    33.265827    8.6005348    12.612127     22.30075    14.235163 
  337800    211.98285     59211500            0     59212326    12.683297    22.410324    14.179055    19.732168    33.262796    8.6220088    12.612127     22.30075    14.235163 
  338000    96.024498     59210674            0     59211047    12.683324    22.410356    14.178917    19.734897    33.265994    8.6081096    12.612127     22.30075    14.235163 
  338200    257.56011     59210166            0     59211168    12.683316    22.410354    14.178989    19.734089    33.265801    8.6153863    12.612127     22.30075    14.235163 
  338400    91.925191     59211855            0     59212213    12.683326    22.410392    14.179157    19.735013    33.269588    8.6321581    12.612127     22.30075    14.235163 
  338600    270.10666     59211629            0     59212681    12.683339    22.410382    14.179039    19.736361    33.268547    8.6203882    12.612127     22.30075    14.235163 
  338800    113.97194     59211889            0     59212332    12.683314    22.410353    14.179143    19.733855    33.265688    8.6307226    12.612127     22.30075    14.235163 
  339000     192.4581     59211826            0     59212575    12.683316     22.41035    14.178717    19.734033    33.265399    8.5881486    12.612127     22.30075    14.235163 
  339200    165.17246     59212195            0     59212838     12.68334    22.410352    14.178722    19.736443    33.265547    8.5886464    12.612127     22.30075    14.235163 
  339400    98.459775     59211378            0     59211762    12.683325    22.410297    14.178904    19.734937     33.26006    8.6069056    12.612127     22.30075    14.235163 
  339600    198.51976     59212694            0     59213466    12.683276     22.41037    14.178979    19.730004     33.26735    8.6143212    12.612127     22.30075    14.235163 
  339800     83.99511     59210761            0     59211088    12.683314    22.410351    14.178917    19.733873    33.265467    8.6082039    12.612127     22.30075    14.235163 
  340000    155.49994     59212364            0     59212970    12.683317    22.410359    14.179172    19.734122    33.266289    8.6336608    12.612127     22.30075    14.235163 
  340200    291.39495     59211276            0     59212410    12.683305    22.410338    14.179084    19.732965    33.264112     8.624895    12.612127     22.30075    14.235163 
  340400     240.3762     59211131            0     59212066    12.683325    22.410359    14.179008    19.734952     33.26623    8.6172166    12.612127     22.30075    14.235163 
  340600    358.37542     59211810            0     59213205    12.683308    22.410352    14.178728    19.733233    33.265554    8.5892949    12.612127     22.30075    14.235163 
  340800    343.05965     59211394            0     59212729    12.683316    22.410353    14.178936    19.734071    33.265668    8.6100726    12.612127     22.30075    14.235163 
  341000    246.43648     59210617            0     59211576    12.683302    22.410362    14.178863     19.73261    33.266598    8.6027046    12.612127     22.30075    14.235163 
  341200    240.21281     59211071            0     59212006    12.683283    22.410367    14.178877     19.73075    33.267015    8.6041303    12.612127     22.30075    14.235163 
  341400    270.27822     59211576            0     59212628    12.683326    22.410329    14.178839    19.735064     33.26322     8.600403    12.612127     22.30075    14.235163 
  341600    194.66245     59212276            0     59213034    12.683316    22.410353     14.17893    19.734014    33.265679    8.6095037    12.612127     22.30075    14.235163 
  341800    346.43445     59211748            0     59213097    12.683315    22.410353    14.179015    19.733915    33.265687    8.6179942    12.612127     22.30075    14.235163 
  342000    288.51462     59211311            0     59212434    12.683312     22.41034    14.178974    19.733679    33.264384    8.6138235    12.612127     22.30075    14.235163 
  342200      277.104     59210912            0     59211990    12.683323    22.410344    14.179094    19.734721    33.264779    8.6258257    12.612127     22.30075    14.235163 
  342400    140.26635     59212878            0     59213424    12.683316    22.410353    14.178759    19.734016    33.265675    8.5923309    12.612127     22.30075    14.235163 
  342600    162.80472     59211907            0     59212540    12.683313    22.410349    14.178764     19.73374     33.26524    8.5928357    12.612127     22.30075    14.235163 
  342800     164.5842     59210185            0     59210826    12.683359    22.410366    14.179002    19.738381    33.266987    8.6166799    12.612127     22.30075    14.235163 
  343000    280.89772     59211230            0     59212323    12.683313    22.410349    14.178926     19.73371    33.265216    8.6090746    12.612127     22.30075    14.235163 
  343200    164.84352     59211420            0     59212061    12.683338    22.410348    14.179164    19.736208    33.265207     8.632827    12.612127     22.30075    14.235163 
  343400    250.69364     59210563            0     59211538    12.683325    22.410337    14.178996     19.73493    33.264088    8.6160184    12.612127     22.30075    14.235163 
  343600    195.86643     59211680            0     59212442    12.683326    22.410352    14.179145    19.735029     33.26554    8.6309666    12.612127     22.30075    14.235163 
  343800    284.96096     59211976            0     59213086    12.683334    22.410385    14.179053    19.735819    33.268867    8.6217844    12.612127     22.30075    14.235163 
  344000    339.30056     59211944            0     59213265    12.683314     22.41035    14.179151    19.733834    33.265382    8.6315735    12.612127     22.30075    14.235163 
  344200    221.90605     59211708            0     59212572    12.683373    22.410358    14.178923    19.739771    33.266189    8.6088025    12.612127     22.30075    14.235163 
  344400     252.2445     59211338            0     59212320    12.683315    22.410353    14.179017    19.733991    33.265683    8.6181775    12.612127     22.30075    14.235163 
  344600    139.45979     59212934            0     59213477    12.683305    22.410354    14.178798    19.732965     33.26574    8.5962596    12.612127     22.30075    14.235163 
  344800    147.63285     59211523            0     59212098    12.683317    22.410353    14.179081    19.734126    33.265657    8.6246072    12.612127     22.30075    14.235163 
  345000    209.75628     59211024            0     59211840    12.683325    22.410341    14.178939    19.734978    33.264412    8.6103488    12.612127     22.30075    14.235163 
  345200    264.47379     59211734            0     59212764    12.683377    22.410381    14.178962    19.740187    33.268439    8.6126984    12.612127     22.30075    14.235163 
  345400    408.55119     59210957            0     59212547    12.683322    22.410344    14.178913    19.734688     33.26471    8.6077085    12.612127     22.30075    14.235163 
  345600    256.93268     59211835            0     59212835    12.683326    22.410333    14.178879    19.735054    33.263624    8.6043371    12.612127     22.30075    14.235163 
  345800    363.26543     59210896            0     59212310    12.683316    22.410353    14.178796    19.734013    33.265682    8.5960483    12.612127     22.30075    14.235163 
  346000    356.57477     59211510            0     59212898    12.683306    22.410399    14.179017    19.733009    33.270287    8.6181805    12.612127     22.30075    14.235163 
  346200    323.49876     59211103            0     59212362    12.683317    22.410353    14.178936    19.734102    33.265624    8.6100151    12.612127     22.30075    14.235163 
  346400     214.5913     59211456            0     59212291    12.683315    22.410353    14.178743    19.733984    33.265687    8.5907824    12.612127     22.30075    14.235163 
  346600    155.92704     59211402            0     59212009    12.683311    22.410327    14.179001    19.733557    33.263031    8.6165535    12.612127     22.30075    14.235163 
  346800    195.04985     59210776            0     59211535    12.683316    22.410353    14.178774    19.734011    33.265687    8.5939006    12.612127     22.30075    14.235163 
  347000    346.10686     59210425            0     59211773    12.683329    22.410363    14.179036    19.735329     33.26662    8.6201043    12.612127     22.30075    14.235163 
  347200    291.62538     59212262            0     59213397     12.68328      22.4104    14.178794    19.730408    33.270386    8.5958963    12.612127     22.30075    14.235163 
  347400    206.33842     59212036            0     59212839    12.683304    22.410355    14.179113    19.732886    33.265837    8.6277726    12.612127     22.30075    14.235163 
  347600    237.81705     59211916            0     59212842    12.683312    22.410366    14.179041    19.733667    33.266974    8.6205629    12.612127     22.30075    14.235163 
  347800     211.6964     59211796            0     59212620    12.683319    22.410347    14.179292    19.734336    33.265045    8.6457032    12.612127     22.30075    14.235163 
  348000    197.31432     59210963            0     59211731    12.683276    22.410342    14.179082     19.73003    33.264582    8.6246647    12.612127     22.30075    14.235163 
  348200    148.19191     59211389            0     59211966    12.683335    22.410356    14.178966    19.735958    33.265993    8.6131047    12.612127     22.30075    14.235163 
  348400    313.82365     59212590            0     59213812    12.683316    22.410359    14.178813    19.734065    33.266215    8.5977588    12.612127     22.30075    14.235163 
  348600    191.07913     59211959            0     59212703    12.683314    22.410353    14.178895    19.733887    33.265624    8.6059761    12.612127     22.30075    14.235163 
  348800    166.90227     59212607            0     59213257    12.683318    22.410348    14.178946    19.734296    33.265132    8.6110545    12.612127     22.30075    14.235163 
  349000    251.45462     59211029            0     59212008    12.683316    22.410336    14.178926    19.734007    33.263909    8.6090307    12.612127     22.30075    14.235163 
  349200    255.38253     59211444            0     59212438    12.683295    22.410357    14.179076    19.731932    33.266033    8.6240627    12.612127     22.30075    14.235163 
  349400    174.19671     59210977            0     59211655    12.683316    22.410353     14.17895    19.734019    33.265681    8.6114334    12.612127     22.30075    14.235163 
  349600    128.18144     59211309            0     59211808    12.683331    22.410371    14.178809     19.73553    33.267409    8.5973106    12.612127     22.30075    14.235163 
  349800    155.57575     59211176            0     59211782    12.683341      22.4104    14.178786    19.736499     33.27032    8.5950027    12.612127     22.30075    14.235163 
  350000    243.64718     59210888            0     59211837    12.683296    22.410364    14.178993    19.732091    33.266746    8.6157316    12.612127     22.30075    14.235163 
  350200    217.40301     59210709            0     59211556    12.683301    22.410322    14.179062    19.732514    33.262564    8.6226599    12.612127     22.30075    14.235163 
  350400     288.1769     59211663            0     59212785    12.683279    22.410352    14.179014     19.73034    33.265573    8.6178196    12.612127     22.30075    14.235163 
  350600     255.6159     59211471            0     59212466    12.683316    22.410352    14.179243    19.734062    33.265603     8.640799    12.612127     22.30075    14.235163 
  350800    282.67804     59210658            0     59211759    12.683338     22.41033    14.178865    19.736229    33.263323    8.6029105    12.612127     22.30075    14.235163 
  351000    227.72203     59211905            0     59212792    12.683329    22.410333    14.178933    19.735345    33.263696    8.6098063    12.612127     22.30075    14.235163 
  351200    241.36589     59210629            0     59211569    12.683354    22.410371    14.179099    19.737849    33.267448    8.6263797    12.612127     22.30075    14.235163 
  351400    349.74689     59210994            0     59212356    12.683305    22.410331    14.178803     19.73298    33.263426    8.5967208    12.612127     22.30075    14.235163 
  351600    277.28164     59211976            0     59213056    12.683318    22.410353    14.179165    19.734198    33.265701    8.6329435    12.612127     22.30075    14.235163 
  351800    269.82316     59211010            0     59212061    12.683314    22.410354    14.179041    19.733861    33.265808     8.620566    12.612127     22.30075    14.235163 
  352000    389.97509     59211428            0     59212946    12.683306    22.410354    14.179153    19.733089    33.265732    8.6317616    12.612127     22.30075    14.235163 
  352200    190.63443     59210810            0     59211552    12.683302     22.41033     14.17906    19.732693    33.263377    8.6224372    12.612127     22.30075    14.235163 
  352400    182.34201     59212249            0     59212959    12.683314    22.410358    14.178942    19.733818    33.266207    8.6106185    12.612127     22.30075    14.235163 
  352600    199.71919     59211494            0     59212271    12.683268    22.410356    14.179135    19.729255    33.265953    8.6299306    12.612127     22.30075    14.235163 
  352800     284.9859     59211889            0     59212999    12.683342    22.410356    14.179131    19.736657    33.265936    8.6295996    12.612127     22.30075    14.235163 
  353000    129.62759     59211262            0     59211767    12.683323     22.41036    14.178801    19.734706    33.266352     8.596504    12.612127     22.30075    14.235163 
  353200    181.86074     59211615            0     59212323    12.683316    22.410353    14.179112    19.734045    33.265617    8.6276868    12.612127     22.30075    14.235163 
  353400    287.13619     59211066            0     59212184    12.683334    22.410332    14.178786    19.735832    33.263585    8.5950274    12.612127     22.30075    14.235163 
  353600    237.36506     59210549            0     59211473    12.683308    22.410309    14.179036    19.733227    33.261232    8.6200546    12.612127     22.30075    14.235163 
  353800    222.62906     59211690            0     59212557    12.683357    22.410371    14.178976    19.738135    33.267487    8.6140848    12.612127     22.30075    14.235163 
  354000    256.44033     59210845            0     59211843    12.683316    22.410353    14.178976    19.734029    33.265687    8.6141014    12.612127     22.30075    14.235163 
  354200    286.38485     59210342            0     59211457    12.683315    22.410354    14.179056    19.733968    33.265759    8.6220888    12.612127     22.30075    14.235163 
  354400    140.41517     59211160            0     59211706    12.683321     22.41034    14.178977     19.73455    33.264331    8.6141989    12.612127     22.30075    14.235163 
  354600    184.17947     59211669            0     59212386    12.683311    22.410355    14.178725    19.733573    33.265893    8.5889582    12.612127     22.30075    14.235163 
  354800    265.19274     59210483            0     59211516    12.683307    22.410322     14.17909    19.733142    33.262527    8.6254568    12.612127     22.30075    14.235163 
  355000    264.72371     59212781            0     59213812    12.683319    22.410353    14.179049    19.734363     33.26566    8.6213771    12.612127     22.30075    14.235163 
  355200    190.83072     59210749            0     59211492    12.683315    22.410353    14.178944    19.733933    33.265682    8.6108964    12.612127     22.30075    14.235163 
  355400    221.40329     59211491            0     59212353    12.683292    22.410364    14.178941      19.7316    33.266722    8.6105531    12.612127     22.30075    14.235163 
  355600    143.15388     59210683            0     59211240    12.683284    22.410364    14.179067    19.730874     33.26679    8.6231709    12.612127     22.30075    14.235163 
  355800    243.05104     59211634            0     59212580    12.683338    22.410358    14.178919    19.736239    33.266177    8.6083799    12.612127     22.30075    14.235163 
  356000    261.14372     59212192            0     59213208    12.683343    22.410396    14.178698    19.736774    33.269913    8.5862017    12.612127     22.30075    14.235163 
  356200    227.02312     59212467            0     59213351    12.683329    22.410335    14.179032     19.73534    33.263889    8.6196155    12.612127     22.30075    14.235163 
  356400    158.30038     59210559            0     59211175    12.683312    22.410357    14.178883    19.733694    33.266087    8.6047947    12.612127     22.30075    14.235163 
  356600    235.49209     59210601            0     59211517    12.683318    22.410359    14.178849    19.734264    33.266236    8.6013291    12.612127     22.30075    14.235163 
  356800    71.583777     59211448            0     59211726     12.68331    22.410393    14.179026    19.733478    33.269621    8.6191103    12.612127     22.30075    14.235163 
  357000    135.32402     59211180            0     59211707    12.683295     22.41036    14.179021    19.731925     33.26639    8.6185269    12.612127     22.30075    14.235163 
  357200    203.74125     59211310            0     59212103    12.683295    22.410337    14.179042    19.731953    33.264057    8.6206578    12.612127     22.30075    14.235163 
  357400    218.72228     59212665            0     59213516    12.683307    22.410389    14.178856    19.733112     33.26925    8.6020622    12.612127     22.30075    14.235163 
  357600     373.4714     59212176            0     59213630    12.683329     22.41033    14.178819    19.735353    33.263341    8.5983232    12.612127     22.30075    14.235163 
  357800    147.63176     59212701            0     59213275    12.683303    22.410383    14.178761    19.732771    33.268683    8.5925529    12.612127     22.30075    14.235163 
  358000    217.18269     59211458            0     59212304    12.683321    22.410344    14.178793    19.734528    33.264729    8.5957355    12.612127     22.30075    14.235163 
  358200    157.32254     59211145            0     59211758     12.68332    22.410341    14.178907    19.734489    33.264448    8.6071239    12.612127     22.30075    14.235163 
  358400    217.29756     59213012            0     59213858     12.68332    22.410344    14.178947    19.734478     33.26477    8.6111401    12.612127     22.30075    14.235163 
  358600    182.69758     59211770            0     59212482    12.683292    22.410355    14.178735    19.731671    33.265811    8.5899092    12.612127     22.30075    14.235163 
  358800    311.75424     59212104            0     59213318    12.683283    22.410305    14.178836    19.730776    33.260858    8.6000297    12.612127     22.30075    14.235163 
  359000    187.08281     59212092            0     59212820    12.683313    22.410355    14.179236    19.733731    33.265867     8.640073    12.612127     22.30075    14.235163 
  359200    182.91113     59211593            0     59212305    12.683315    22.410339    14.178951    19.733957    33.264255    8.6115976    12.612127     22.30075    14.235163 
  359400    105.08575     59211806            0     59212215    12.683317    22.410351    14.179101    19.734105    33.265501    8.6265815    12.612127     22.30075    14.235163 
  359600    374.47866     59211822            0     59213280    12.683309    22.410361    14.179318    19.733361    33.266492    8.6483164    12.612127     22.30075    14.235163 
  359800    211.29694     59211086            0     59211909    12.683321     22.41035    14.178827    19.734571    33.265313    8.5991642    12.612127     22.30075    14.235163 
  360000    300.76954     59211801            0     59212972    12.683375    22.410361    14.178859    19.739991    33.266472    8.6023663    12.612127     22.30075    14.235163 
  360200    326.54285     59211050            0     59212321    12.683292     22.41035    14.178939    19.731599    33.265332    8.6103218    12.612127     22.30075    14.235163 
  360400    290.14839     59211837            0     59212966    12.683316    22.410353     14.17923    19.734012    33.265682    8.6394289    12.612127     22.30075    14.235163 
  360600    201.79494     59211721            0     59212507    12.683316    22.410353    14.179021     19.73403    33.265623    8.6186068    12.612127     22.30075    14.235163 
  360800    203.89053     59211413            0     59212207    12.683305    22.410354    14.178875    19.732943    33.265742    8.6039315    12.612127     22.30075    14.235163 
  361000    181.06116     59211886            0     59212591    12.683293    22.410362    14.178868    19.731697    33.266598    8.6032307    12.612127     22.30075    14.235163 
  361200    198.82232     59212005            0     59212779    12.683316    22.410353    14.178815    19.734012    33.265682    8.5979376    12.612127     22.30075    14.235163 
  361400    353.34352     59211101            0     59212477    12.683316    22.410354    14.179015    19.734082    33.265739    8.6180096    12.612127     22.30075    14.235163 
  361600    152.50316     59211981            0     59212575    12.683312     22.41035    14.178872     19.73363    33.265388    8.6036049    12.612127     22.30075    14.235163 
  361800    247.85209     59212296            0     59213261    12.683316    22.410353    14.178932    19.734012    33.265683      8.60967    12.612127     22.30075    14.235163 
  362000    201.70315     59210828            0     59211614    12.683316    22.410353    14.178772    19.734016    33.265683    8.5936113    12.612127     22.30075    14.235163 
  362200    266.76017     59211477            0     59212516    12.683315    22.410352    14.179081    19.733915    33.265541    8.6245968    12.612127     22.30075    14.235163 
  362400    147.40341     59210755            0     59211328     12.68337    22.410285    14.178877    19.739438    33.258861    8.6041846    12.612127     22.30075    14.235163 
  362600    219.76664     59211074            0     59211929    12.683301    22.410351    14.178915     19.73259    33.265431    8.6079096    12.612127     22.30075    14.235163 
  362800     213.7803     59211779            0     59212611    12.683297     22.41035    14.179249    19.732166    33.265339    8.6414039    12.612127     22.30075    14.235163 
  363000    296.74778     59211201            0     59212357    12.683313    22.410358    14.178956    19.733721    33.266206    8.6120767    12.612127     22.30075    14.235163 
  363200    143.19909     59212374            0     59212932    12.683268     22.41036    14.178862    19.729211    33.266325    8.6026096    12.612127     22.30075    14.235163 
  363400     261.6889     59211699            0     59212718    12.683327     22.41033    14.178822     19.73516    33.263407    8.5986241    12.612127     22.30075    14.235163 
  363600    227.10233     59212118            0     59213002    12.683325    22.410363    14.179001    19.734954    33.266634    8.6166078    12.612127     22.30075    14.235163 
  363800    248.92099     59210566            0     59211535    12.683318    22.410353    14.178925    19.734235    33.265638    8.6089638    12.612127     22.30075    14.235163 
  364000    315.02352     59211650            0     59212877    12.683338    22.410349    14.178893    19.736266    33.265262     8.605717    12.612127     22.30075    14.235163 
  364200    225.31417     59211545            0     59212422    12.683312    22.410368    14.179122    19.733656    33.267168    8.6286856    12.612127     22.30075    14.235163 
  364400    305.06979     59212162            0     59213350    12.683302    22.410375    14.178699     19.73262    33.267813    8.5863445    12.612127     22.30075    14.235163 
  364600    346.79031     59212624            0     59213974    12.683317    22.410362    14.178804    19.734158    33.266595    8.5968878    12.612127     22.30075    14.235163 
  364800    149.78541     59211165            0     59211748    12.683302    22.410375    14.178957    19.732672    33.267857    8.6121293    12.612127     22.30075    14.235163 
  365000    225.50278     59211167            0     59212045    12.683344    22.410352    14.178987    19.736843    33.265537    8.6151792    12.612127     22.30075    14.235163 
  365200    263.70763     59211666            0     59212693    12.683317    22.410351    14.178963    19.734127    33.265456    8.6127216    12.612127     22.30075    14.235163 
  365400    444.07507     59211214            0     59212943    12.683264    22.410357    14.178996    19.728812    33.266025     8.616053    12.612127     22.30075    14.235163 
  365600    211.14499     59210970            0     59211792    12.683304    22.410362    14.179026    19.732816    33.266551    8.6190954    12.612127     22.30075    14.235163 
  365800    332.72626     59210920            0     59212215    12.683324    22.410345    14.179027    19.734876     33.26483    8.6191957    12.612127     22.30075    14.235163 
  366000    349.49799     59211785            0     59213145     12.68336    22.410357    14.179157      19.7384    33.266042    8.6321265    12.612127     22.30075    14.235163 
  366200    242.42981     59210720            0     59211663    12.683297    22.410373    14.178875    19.732152    33.267621    8.6039768    12.612127     22.30075    14.235163 
  366400    204.24457     59210978            0     59211773    12.683295    22.410424    14.179032    19.731936     33.27275    8.6196313    12.612127     22.30075    14.235163 
  366600    148.57965     59210660            0     59211238    12.683316    22.410353    14.179016    19.734012    33.265683    8.6180857    12.612127     22.30075    14.235163 
  366800    294.57213     59211025            0     59212172    12.683302    22.410379    14.179068    19.732601    33.268253    8.6233131    12.612127     22.30075    14.235163 
  367000    259.69842     59210596            0     59211607    12.683341    22.410361    14.178959    19.736586    33.266472    8.6123691    12.612127     22.30075    14.235163 
  367200    112.97906     59211488            0     59211928    12.683315    22.410355    14.179091    19.733969    33.265887    8.6255297    12.612127     22.30075    14.235163 
  367400    190.14691     59211232            0     59211973     12.68333    22.410345    14.178922    19.735481    33.264904     8.608701    12.612127     22.30075    14.235163 
  367600    164.41618     59211747            0     59212387    12.683329    22.410355    14.179012    19.735334    33.265811    8.6176599    12.612127     22.30075    14.235163 
  367800      265.937     59211409            0     59212444    12.683336    22.410337    14.178753    19.736022    33.264016    8.5917137    12.612127     22.30075    14.235163 
  368000    359.56182     59211454            0     59212854    12.683309    22.410364    14.178836    19.733393    33.266778    8.6000394    12.612127     22.30075    14.235163 
  368200    229.07409     59210937            0     59211828    12.683303    22.410347    14.179075    19.732712    33.265044    8.6239216    12.612127     22.30075    14.235163 
  368400    187.92463     59212067            0     59212798    12.683291    22.410379    14.178989    19.731582    33.268247    8.6153314    12.612127     22.30075    14.235163 
  368600     162.1287     59210393            0     59211024     12.68331    22.410364    14.178963    19.733401    33.266773    8.6128001    12.612127     22.30075    14.235163 
  368800     129.5204     59212276            0     59212780    12.683319     22.41035    14.179082    19.734322    33.265405    8.6246736    12.612127     22.30075    14.235163 
  369000    119.30377     59211188            0     59211653    12.683326    22.410345    14.179055    19.735077    33.264833    8.6219858    12.612127     22.30075    14.235163 
  369200    210.83826     59211864            0     59212685    12.683339    22.410362    14.179224    19.736317     33.26654    8.6388517    12.612127     22.30075    14.235163 
  369400    257.90669     59211793            0     59212797    12.683315    22.410352    14.179218    19.733939    33.265574    8.6382365    12.612127     22.30075    14.235163 
  369600    190.93728     59211238            0     59211981    12.683303    22.410356     14.17885    19.732788    33.265965    8.6014225    12.612127     22.30075    14.235163 
  369800    242.06215     59211557            0     59212500    12.683306     22.41033    14.178879    19.733021    33.263344     8.604332    12.612127     22.30075    14.235163 
  370000    147.69527     59211226            0     59211801    12.683318    22.410386     14.17887    19.734257     33.26894     8.603407    12.612127     22.30075    14.235163 
  370200    261.99114     59212593            0     59213613    12.683332    22.410337    14.179045     19.73564    33.264048     8.620967    12.612127     22.30075    14.235163 
  370400    174.05299     59210964            0     59211642    12.683292    22.410358    14.178949     19.73163    33.266145    8.6113215    12.612127     22.30075    14.235163 
  370600    258.99085     59212016            0     59213024     12.68331    22.410355     14.17907    19.733453    33.265861    8.6235121    12.612127     22.30075    14.235163 
  370800    268.85042     59211413            0     59212459    12.683306    22.410353    14.178862    19.733018    33.265684    8.6026683    12.612127     22.30075    14.235163 
  371000    119.27228     59212693            0     59213158    12.683373    22.410373    14.179042    19.739727    33.267674    8.6206321    12.612127     22.30075    14.235163 
  371200    173.68124     59210952            0     59211628    12.683316    22.410335    14.178898    19.734074    33.263885    8.6062449    12.612127     22.30075    14.235163 
  371400    248.08824     59211623            0     59212589    12.683314    22.410357    14.178992    19.733822    33.266022    8.6157058    12.612127     22.30075    14.235163 
  371600    184.89929     59210990            0     59211710    12.683327    22.410332    14.178904    19.735103    33.263555    8.6069047    12.612127     22.30075    14.235163 
  371800    243.72192     59210464            0     59211413    12.683337    22.410352    14.178844    19.736197     33.26556    8.6008407    12.612127     22.30075    14.235163 
  372000    186.41727     59211376            0     59212102    12.683335    22.410382    14.178985    19.735907    33.268581     8.614939    12.612127     22.30075    14.235163 
  372200    238.18357     59211148            0     59212076    12.683314    22.410351    14.178931    19.733829    33.265499    8.6095884    12.612127     22.30075    14.235163 
  372400    103.07833     59211622            0     59212023    12.683316    22.410353    14.178969    19.734066    33.265678    8.6133547    12.612127     22.30075    14.235163 
  372600    327.19605     59211315            0     59212589    12.683316    22.410328    14.179217    19.734086    33.263117    8.6381751    12.612127     22.30075    14.235163 
  372800    81.998707     59212638            0     59212957    12.683315    22.410356    14.179117    19.733977    33.265936    8.6281595    12.612127     22.30075    14.235163 
  373000    362.88218     59211597            0     59213010    12.683268    22.410352    14.179196    19.729277    33.265593     8.636034    12.612127     22.30075    14.235163 
  373200    245.99916     59211334            0     59212292    12.683286    22.410355    14.179023    19.731092    33.265849    8.6187278    12.612127     22.30075    14.235163 
  373400    257.65452     59211158            0     59212161    12.683315    22.410353    14.178974    19.733983    33.265637    8.6138607    12.612127     22.30075    14.235163 
  373600    263.05303     59210933            0     59211957    12.683305    22.410357    14.178835    19.732991    33.266035    8.5999656    12.612127     22.30075    14.235163 
  373800    299.08888     59210987            0     59212152    12.683313    22.410341    14.178939    19.733759    33.264445    8.6103274    12.612127     22.30075    14.235163 
  374000    259.06387     59211757            0     59212766    12.683315    22.410351    14.179123    19.733922    33.265497    8.6288052    12.612127     22.30075    14.235163 
  374200    221.13921     59211893            0     59212754    12.683314    22.410344    14.178941    19.733869    33.264718     8.610547    12.612127     22.30075    14.235163 
  374400    178.82593     59211490            0     59212186    12.683368     22.41033     14.17912    19.739277    33.263391    8.6284911    12.612127     22.30075    14.235163 
  374600    238.35208     59212180            0     59213108    12.683313    22.410367    14.178952    19.733724    33.267095    8.6116272    12.612127     22.30075    14.235163 
  374800    236.08439     59211448            0     59212367    12.683315    22.410363    14.178921    19.733915    33.266679    8.6085473    12.612127     22.30075    14.235163 
  375000    270.71728     59211079            0     59212133    12.683295    22.410337    14.178769    19.731908    33.264052    8.5933415    12.612127     22.30075    14.235163 
  375200    238.86801     59211933            0     59212863    12.683317    22.410357     14.17896    19.734182    33.266102    8.6124799    12.612127     22.30075    14.235163 
  375400    198.60651     59210991            0     59211764    12.683303    22.410378    14.179017    19.732745    33.268199    8.6181334    12.612127     22.30075    14.235163 
  375600    221.67978     59211940            0     59212803    12.683316     22.41036    14.178918    19.734059    33.266346    8.6082823    12.612127     22.30075    14.235163 
  375800    181.67065     59210838            0     59211546    12.683316    22.410353    14.179047    19.734092    33.265679    8.6212032    12.612127     22.30075    14.235163 
  376000     425.5853     59211425            0     59213082    12.683316    22.410353    14.178964    19.734038    33.265631    8.6128725    12.612127     22.30075    14.235163 
  376200     369.6142     59211712            0     59213151    12.683316    22.410353    14.179064    19.734013    33.265681    8.6228652    12.612127     22.30075    14.235163 
  376400    201.85816     59210667            0     59211453    12.683345    22.410361    14.179015    19.736982    33.266496    8.6179377    12.612127     22.30075    14.235163 
  376600    207.11436     59210879            0     59211685    12.683316    22.410353     14.17896    19.734012    33.265682     8.612451    12.612127     22.30075    14.235163 
  376800    302.34659     59211312            0     59212489    12.683313    22.410358    14.179094    19.733715    33.266182    8.6258231    12.612127     22.30075    14.235163 
  377000    324.42679     59211274            0     59212537    12.683311    22.410314    14.179118    19.733547    33.261725     8.628222    12.612127     22.30075    14.235163 
  377200     133.4697     59210533            0     59211052    12.683304    22.410325    14.178994     19.73287    33.262861    8.6158494    12.612127     22.30075    14.235163 
  377400    188.64805     59212225            0     59212960    12.683327    22.410335    14.179163    19.735174    33.263828     8.632732    12.612127     22.30075    14.235163 
  377600    271.16154     59212359            0     59213414    12.683315    22.410348    14.178986    19.733918    33.265166    8.6150159    12.612127     22.30075    14.235163 
  377800    252.19319     59210813            0     59211795    12.683273    22.410339    14.178973    19.729785    33.264275    8.6137399    12.612127     22.30075    14.235163 
  378000    287.93457     59211238            0     59212359    12.683353    22.410391     14.17908    19.737738    33.269446    8.6244523    12.612127     22.30075    14.235163 
  378200    262.93585     59212552            0     59213576    12.683303    22.410327    14.179137    19.732698    33.263049    8.6301998    12.612127     22.30075    14.235163 
  378400    229.33115     59211506            0     59212399    12.683298    22.410332    14.178637    19.732203    33.263605    8.5801088    12.612127     22.30075    14.235163 
  378600    242.27983     59211142            0     59212086    12.683315    22.410352      14.1789    19.733956    33.265597    8.6064461    12.612127     22.30075    14.235163 
  378800    221.03459     59211029            0     59211889     12.68332    22.410376    14.179038    19.734433       33.268    8.6202969    12.612127     22.30075    14.235163 
  379000    252.47072     59211717            0     59212700    12.683284    22.410365    14.179166    19.730798    33.266897    8.6330856    12.612127     22.30075    14.235163 
  379200    266.72444     59212028            0     59213067    12.683304    22.410348     14.17876    19.732803    33.265202    8.5924327    12.612127     22.30075    14.235163 
  379400    246.79384     59212291            0     59213252     12.68331    22.410342     14.17905    19.733447    33.264562    8.6215121    12.612127     22.30075    14.235163 
  379600     195.6578     59212256            0     59213018    12.683298    22.410334    14.178888     19.73224    33.263797    8.6052484    12.612127     22.30075    14.235163 
  379800    192.93793     59211274            0     59212025    12.683342    22.410373    14.178869    19.736649    33.267701    8.6033567    12.612127     22.30075    14.235163 
  380000    494.15907     59211220            0     59213144    12.683293    22.410345     14.17904    19.731762    33.264844    8.6204693    12.612127     22.30075    14.235163 
  380200    313.12811     59212142            0     59213361    12.683299    22.410356    14.179197    19.732307    33.266006    8.6361257    12.612127     22.30075    14.235163 
  380400    212.64084     59211608            0     59212436    12.683312    22.410348    14.178951    19.733673    33.265165    8.6115459    12.612127     22.30075    14.235163 
  380600    332.63258     59211245            0     59212540    12.683307    22.410345    14.179034     19.73311    33.264906    8.6198856    12.612127     22.30075    14.235163 
  380800    291.34369     59212633            0     59213768    12.683324     22.41034    14.178831    19.734882    33.264325    8.5995777    12.612127     22.30075    14.235163 
  381000    423.06635     59211174            0     59212821     12.68331    22.410347     14.17909    19.733488    33.265018    8.6254393    12.612127     22.30075    14.235163 
  381200    251.22478     59210754            0     59211732    12.683317    22.410355    14.178917     19.73413    33.265881     8.608107    12.612127     22.30075    14.235163 
  381400    340.32376     59212083            0     59213408    12.683296    22.410354    14.179122    19.732005    33.265807    8.6286652    12.612127     22.30075    14.235163 
  381600    275.20172     59211613            0     59212684    12.683318    22.410353    14.178803    19.734222    33.265628    8.5967747    12.612127     22.30075    14.235163 
  381800    270.21407     59210864            0     59211915    12.683317    22.410384      14.1791    19.734185    33.268765    8.6264401    12.612127     22.30075    14.235163 
  382000    282.52384     59211917            0     59213017    12.683316    22.410353    14.178932    19.734012    33.265682    8.6096662    12.612127     22.30075    14.235163 
  382200    207.02452     59211234            0     59212040    12.683292     22.41037    14.179086    19.731692    33.267375    8.6250425    12.612127     22.30075    14.235163 
  382400    132.65771     59212163            0     59212679    12.683326    22.410342    14.179031    19.735096    33.264535    8.6195136    12.612127     22.30075    14.235163 
  382600    221.79483     59212280            0     59213143    12.683325    22.410358    14.178919    19.734926    33.266207    8.6083111    12.612127     22.30075    14.235163 
  382800    329.04494     59212006            0     59213287    12.683339    22.410341    14.178934    19.736385    33.264438    8.6098548    12.612127     22.30075    14.235163 
  383000    174.81054     59212111            0     59212791    12.683316    22.410354    14.178967     19.73406    33.265733    8.6131583    12.612127     22.30075    14.235163 
  383200    359.45909     59211133            0     59212533    12.683328    22.410346    14.178854    19.735252    33.264941     8.601882    12.612127     22.30075    14.235163 
  383400    295.54387     59210713            0     59211863    12.683303    22.410325     14.17888    19.732697    33.262906    8.6044841    12.612127     22.30075    14.235163 
  383600    113.96238     59212613            0     59213057    12.683301    22.410333     14.17897    19.732541    33.263632    8.6135001    12.612127     22.30075    14.235163 
  383800    162.97068     59211486            0     59212121    12.683297    22.410346    14.179075    19.732101    33.264994    8.6239519    12.612127     22.30075    14.235163 
  384000    106.73319     59210503            0     59210918    12.683296    22.410355    14.178897     19.73209    33.265832    8.6061266    12.612127     22.30075    14.235163 
  384200     300.6243     59211766            0     59212937    12.683293    22.410344    14.178938    19.731714    33.264745    8.6102202    12.612127     22.30075    14.235163 
  384400    159.83209     59210978            0     59211600    12.683295    22.410355    14.178738    19.731971    33.265863    8.5902786    12.612127     22.30075    14.235163 
  384600    171.02425     59212262            0     59212927    12.683317    22.410344     14.17901     19.73413    33.264783    8.6174913    12.612127     22.30075    14.235163 
  384800    138.14641     59211714            0     59212252    12.683326    22.410333    14.179004     19.73502    33.263692     8.616846    12.612127     22.30075    14.235163 
  385000    272.20387     59211392            0     59212452    12.683316    22.410353    14.179025    19.734012    33.265681    8.6189315    12.612127     22.30075    14.235163 
  385200    203.59037     59210981            0     59211774    12.683315    22.410353    14.179053    19.733905     33.26564    8.6217207    12.612127     22.30075    14.235163 
  385400    144.27661     59211183            0     59211745    12.683299    22.410354    14.178817    19.732368    33.265772    8.5981175    12.612127     22.30075    14.235163 
  385600    178.13256     59211840            0     59212534    12.683299    22.410354    14.178916    19.732344    33.265775    8.6080608    12.612127     22.30075    14.235163 
  385800    110.63647     59211790            0     59212221    12.683313    22.410358    14.179067    19.733755    33.266189    8.6231837    12.612127     22.30075    14.235163 
  386000    148.43285     59212550            0     59213128    12.683347    22.410346    14.179084     19.73715    33.264956    8.6249063    12.612127     22.30075    14.235163 
  386200    207.86002     59211074            0     59211883    12.683344    22.410307     14.17891    19.736813    33.261046    8.6074571    12.612127     22.30075    14.235163 
  386400    215.88279     59211769            0     59212609    12.683301    22.410332    14.178847    19.732538    33.263544    8.6011707    12.612127     22.30075    14.235163 
  386600    126.13758     59210985            0     59211476    12.683314    22.410356    14.179084    19.733819    33.265996    8.6248458    12.612127     22.30075    14.235163 
  386800    114.38813     59211668            0     59212113    12.683315    22.410346    14.178826    19.733972    33.264951    8.5990437    12.612127     22.30075    14.235163 
  387000    124.54556     59211439            0     59211924    12.683331    22.410357    14.179023     19.73554    33.266071    8.6187412    12.612127     22.30075    14.235163 
  387200    364.81719     59211296            0     59212716     12.68328    22.410373    14.178993    19.730496    33.267681    8.6157313    12.612127     22.30075    14.235163 
  387400    309.58126     59210541            0     59211746    12.683317    22.410356    14.178853    19.734175    33.265937    8.6017298    12.612127     22.30075    14.235163 
  387600    352.73977     59211370            0     59212744    12.683315    22.410354    14.178758    19.733952    33.265806    8.5922504    12.612127     22.30075    14.235163 
  387800    383.02639     59211000            0     59212491    12.683313    22.410353    14.178904    19.733757    33.265676    8.6068922    12.612127     22.30075    14.235163 
  388000     233.7364     59211855            0     59212765    12.683319    22.410346    14.179114    19.734352    33.264986    8.6278311    12.612127     22.30075    14.235163 
  388200    229.72464     59211919            0     59212813    12.683297    22.410357    14.179156    19.732149    33.266073    8.6321078    12.612127     22.30075    14.235163 
  388400    383.28693     59211053            0     59212546    12.683316    22.410353    14.179107    19.734026    33.265657    8.6271253    12.612127     22.30075    14.235163 
  388600    232.78474     59211325            0     59212231    12.683316    22.410353     14.17893    19.734013    33.265672    8.6094877    12.612127     22.30075    14.235163 
  388800    262.16863     59212146            0     59213167    12.683316    22.410353    14.178708    19.734013    33.265681    8.5872633    12.612127     22.30075    14.235163 
  389000    215.28903     59211697            0     59212536      12.6833    22.410364    14.179062    19.732491    33.266759    8.6226814    12.612127     22.30075    14.235163 
  389200    194.15731     59210852            0     59211608    12.683316    22.410353    14.178835    19.733999    33.265682    8.5999238    12.612127     22.30075    14.235163 
  389400    175.95792     59212086            0     59212771    12.683334     22.41035    14.179003    19.735848    33.265317    8.6167262    12.612127     22.30075    14.235163 
  389600     165.3614     59211257            0     59211901    12.683323     22.41035    14.179049    19.734743    33.265352    8.6213299    12.612127     22.30075    14.235163 
  389800    176.88697     59211088            0     59211776     12.68332    22.410349    14.178802    19.734429     33.26527    8.5966849    12.612127     22.30075    14.235163 
  390000    169.94146     59212298            0     59212960    12.683317    22.410353     14.17875    19.734105    33.265677     8.591407    12.612127     22.30075    14.235163 
  390200    217.08161     59211095            0     59211940    12.683325    22.410335    14.179043    19.734929    33.263861    8.6207134    12.612127     22.30075    14.235163 
  390400    117.84698     59211537            0     59211996    12.683322    22.410353    14.178865     19.73463    33.265618    8.6029783    12.612127     22.30075    14.235163 
  390600     181.6547     59211871            0     59212578    12.683327    22.410353    14.179085    19.735132    33.265616    8.6249335    12.612127     22.30075    14.235163 
  390800    202.13039     59211100            0     59211887    12.683316    22.410353    14.178874     19.73401    33.265682    8.6038711    12.612127     22.30075    14.235163 
  391000    316.49836     59211822            0     59213054    12.683317    22.410347    14.179014    19.734179    33.265096    8.6178993    12.612127     22.30075    14.235163 
  391200    200.97463     59212304            0     59213086    12.683329    22.410371    14.179283    19.735352    33.267492     8.644732    12.612127     22.30075    14.235163 
  391400    177.64435     59211330            0     59212022    12.683321    22.410345    14.179084    19.734518    33.264854    8.6248801    12.612127     22.30075    14.235163 
  391600    194.47232     59211867            0     59212624    12.683306    22.410339    14.178908    19.733003    33.264279    8.6072174    12.612127     22.30075    14.235163 
  391800    180.48777     59211949            0     59212652    12.683303    22.410354    14.178902    19.732712    33.265753    8.6066565    12.612127     22.30075    14.235163 
  392000    213.53209     59211673            0     59212505    12.683331    22.410335    14.178857    19.735519     33.26382    8.6021448    12.612127     22.30075    14.235163 
  392200    190.88157     59211450            0     59212193     12.68327    22.410355    14.179166    19.729416    33.265867    8.6330738    12.612127     22.30075    14.235163 
  392400    148.07598     59211292            0     59211869     12.68331    22.410331    14.178934    19.733429    33.263501    8.6099048    12.612127     22.30075    14.235163 
  392600     124.1395     59211741            0     59212225    12.683322    22.410353    14.178944    19.734653    33.265673    8.6108911    12.612127     22.30075    14.235163 
  392800    128.01864     59212933            0     59213432    12.683341    22.410336    14.178969    19.736498    33.263929    8.6133183    12.612127     22.30075    14.235163 
  393000    279.56856     59211506            0     59212595    12.683297    22.410369    14.178944    19.732161    33.267219    8.6108662    12.612127     22.30075    14.235163 
  393200    179.20135     59211253            0     59211951     12.68332    22.410337    14.178786    19.734399    33.264019     8.595051    12.612127     22.30075    14.235163 
  393400     254.2506     59212404            0     59213394    12.683314     22.41035     14.17918    19.733818    33.265408    8.6344812    12.612127     22.30075    14.235163 
  393600    295.78138     59211911            0     59213063    12.683296    22.410324     14.17872     19.73205    33.262737    8.5884301    12.612127     22.30075    14.235163 
  393800    245.71363     59212328            0     59213284    12.683316    22.410353    14.179121     19.73401    33.265681     8.628565    12.612127     22.30075    14.235163 
  394000    237.66859     59212148            0     59213073    12.683326    22.410351    14.179128    19.735044    33.265425    8.6292827    12.612127     22.30075    14.235163 
  394200    400.30164     59211465            0     59213024     12.68332     22.41035    14.178952    19.734399    33.265356    8.6116179    12.612127     22.30075    14.235163 
  394400    262.12025     59211418            0     59212438    12.683301    22.410372    14.179112    19.732512    33.267583    8.6276859    12.612127     22.30075    14.235163 
  394600    195.32685     59212297            0     59213058    12.683305    22.410354    14.178864    19.732918    33.265737    8.6028814    12.612127     22.30075    14.235163 
  394800     282.1067     59211843            0     59212941     12.68331    22.410371    14.179161    19.733481    33.267454    8.6325806    12.612127     22.30075    14.235163 
  395000    291.34844     59211135            0     59212269    12.683331    22.410339    14.178872    19.735566    33.264275       8.6037    12.612127     22.30075    14.235163 
  395200    243.86148     59211503            0     59212452    12.683316    22.410353    14.178994    19.734001    33.265662    8.6158556    12.612127     22.30075    14.235163 
  395400    140.38726     59213661            0     59214208    12.683313    22.410352    14.178931    19.733745    33.265575    8.6095333    12.612127     22.30075    14.235163 
  395600    361.15274     59211922            0     59213328    12.683313    22.410355    14.178834    19.733795    33.265836    8.5998256    12.612127     22.30075    14.235163 
  395800    117.30246     59211127            0     59211584    12.683292    22.410387     14.17913    19.731599    33.269087    8.6295093    12.612127     22.30075    14.235163 
  396000    425.98756     59210803            0     59212461    12.683324    22.410337    14.179064    19.734805    33.264056    8.6229024    12.612127     22.30075    14.235163 
  396200    190.26432     59211658            0     59212399     12.68332    22.410337    14.178943    19.734417    33.264055    8.6107497    12.612127     22.30075    14.235163 
  396400    284.05936     59211462            0     59212568    12.683319    22.410352    14.179244    19.734348     33.26553    8.6408708    12.612127     22.30075    14.235163 
  396600    265.96543     59211538            0     59212573    12.683316    22.410353    14.178774    19.734014    33.265682    8.5938835    12.612127     22.30075    14.235163 
  396800    285.13071     59212426            0     59213536    12.683316    22.410352    14.178912     19.73409    33.265531    8.6076458    12.612127     22.30075    14.235163 
  397000    103.04889     59211324            0     59211725    12.683307    22.410347    14.179006    19.733139    33.265085    8.6170423    12.612127     22.30075    14.235163 
  397200    271.67718     59212330            0     59213388    12.683304    22.410335    14.178895    19.732871    33.263841    8.6059685    12.612127     22.30075    14.235163 
  397400    414.13895     59212416            0     59214028    12.683316    22.410353    14.178868    19.734012    33.265682    8.6032692    12.612127     22.30075    14.235163 
  397600    180.93162     59210623            0     59211328    12.683292    22.410345    14.179036    19.731637    33.264897    8.6200921    12.612127     22.30075    14.235163 
  397800    193.71419     59211458            0     59212212    12.683336    22.410343    14.179042    19.736069    33.264658    8.6206605    12.612127     22.30075    14.235163 
  398000    296.15661     59211271            0     59212424    12.683336    22.410387    14.178775    19.736057    33.269034    8.5939902    12.612127     22.30075    14.235163 
  398200    219.95806     59211642            0     59212498    12.683287    22.410337     14.17881    19.731162    33.264039    8.5974998    12.612127     22.30075    14.235163 
  398400    229.05688     59212069            0     59212960    12.683295     22.41037     14.17872    19.731939    33.267364    8.5884495    12.612127     22.30075    14.235163 
  398600    257.86642     59211639            0     59212643     12.68331    22.410344    14.178869    19.733415    33.264768    8.6033527    12.612127     22.30075    14.235163 
  398800    177.05186     59212053            0     59212742    12.683316    22.410353    14.178827    19.734012    33.265682    8.5991264    12.612127     22.30075    14.235163 
  399000    209.55248     59212353            0     59213169    12.683308    22.410368     14.17902    19.733252    33.267183    8.6184665    12.612127     22.30075    14.235163 
  399200    217.61233     59212091            0     59212938      12.6833    22.410354    14.178937    19.732422     33.26577    8.6101244    12.612127     22.30075    14.235163 
  399400    407.73448     59211372            0     59212959     12.68332    22.410354    14.178882    19.734491    33.265781     8.604634    12.612127     22.30075    14.235163 
  399600    201.84251     59211762            0     59212548    12.683304    22.410349    14.179083    19.732897    33.265244    8.6247511    12.612127     22.30075    14.235163 
  399800    203.33419     59211505            0     59212296    12.683332    22.410355    14.178796    19.735645    33.265812    8.5960384    12.612127     22.30075    14.235163 
  400000    224.15415     59211396            0     59212268    12.683314    22.410353    14.178861    19.733826    33.265612    8.6025096    12.612127     22.30075    14.235163 
  400200    294.35648     59212126            0     59213272    12.683316    22.410353    14.178924    19.734017    33.265678    8.6088662    12.612127     22.30075    14.235163 
  400400    153.92444     59211601            0     59212200    12.683277    22.410379     14.17908    19.730115    33.268298    8.6244962    12.612127     22.30075    14.235163 
  400600    303.72444     59212392            0     59213575    12.683326    22.410387    14.178917    19.735088    33.269071    8.6081851    12.612127     22.30075    14.235163 
  400800    165.03271     59211389            0     59212031    12.683313    22.410353    14.178933    19.733747    33.265699    8.6097286    12.612127     22.30075    14.235163 
  401000    125.40131     59211811            0     59212300    12.683319    22.410304    14.178886     19.73435    33.260799    8.6050168    12.612127     22.30075    14.235163 
  401200    130.76912     59211621            0     59212130    12.683306    22.410365    14.178885    19.733079    33.266877    8.6049206    12.612127     22.30075    14.235163 
  401400    125.97986     59211390            0     59211881    12.683347    22.410371    14.178925    19.737189     33.26744    8.6089442    12.612127     22.30075    14.235163 
  401600    162.98736     59211662            0     59212296    12.683285    22.410319    14.179002     19.73093    33.262284    8.6166834    12.612127     22.30075    14.235163 
  401800    183.11451     59211288            0     59212000    12.683314    22.410346    14.178975    19.733824    33.264977    8.6139348    12.612127     22.30075    14.235163 
  402000    226.45083     59212352            0     59213233    12.683315    22.410353    14.179202    19.733977    33.265699    8.6366579    12.612127     22.30075    14.235163 
  402200    116.21896     59210006            0     59210458    12.683306    22.410344    14.178924    19.733091    33.264753    8.6088812    12.612127     22.30075    14.235163 
  402400    404.93751     59211672            0     59213248    12.683316    22.410353    14.179217    19.734053    33.265677    8.6381769    12.612127     22.30075    14.235163 
  402600    162.68204     59211220            0     59211853    12.683325    22.410367    14.178994    19.734933    33.267105    8.6159098    12.612127     22.30075    14.235163 
  402800    140.87668     59212464            0     59213013    12.683316    22.410353    14.179113    19.734044    33.265678    8.6277873    12.612127     22.30075    14.235163 
  403000    249.28645     59210294            0     59211265    12.683306    22.410341    14.178913    19.733077    33.264437    8.6077522    12.612127     22.30075    14.235163 
  403200    122.19757     59211193            0     59211668    12.683323    22.410365    14.178903     19.73476    33.266813    8.6067831    12.612127     22.30075    14.235163 
  403400    307.68622     59210735            0     59211932    12.683288    22.410382    14.178971    19.731233    33.268514     8.613537    12.612127     22.30075    14.235163 
  403600     218.6094     59210488            0     59211339    12.683331    22.410325    14.179027    19.735537    33.262867     8.619191    12.612127     22.30075    14.235163 
  403800     281.2462     59211266            0     59212361    12.683323    22.410338    14.179097    19.734769    33.264184     8.626189    12.612127     22.30075    14.235163 
  404000    145.42364     59212301            0     59212867    12.683315    22.410354     14.17896     19.73392    33.265756    8.6124773    12.612127     22.30075    14.235163 
  404200    342.51187     59211486            0     59212819    12.683316    22.410355    14.179038     19.73408    33.265822    8.6202202    12.612127     22.30075    14.235163 
  404400    139.88631     59211768            0     59212313    12.683316    22.410353    14.178676     19.73406    33.265679    8.5840849    12.612127     22.30075    14.235163 
  404600    251.30813     59211113            0     59212092    12.683316    22.410353    14.178894    19.734012    33.265682    8.6058927    12.612127     22.30075    14.235163 
  404800    100.03559     59212156            0     59212545    12.683323    22.410345    14.178891    19.734755    33.264812    8.6055834    12.612127     22.30075    14.235163 
  405000    209.67168     59211108            0     59211924    12.683322    22.410361    14.178901    19.734679    33.266482    8.6065937    12.612127     22.30075    14.235163 
  405200    198.81865     59212804            0     59213578    12.683321    22.410353    14.178851    19.734573    33.265644    8.6015645    12.612127     22.30075    14.235163 
  405400    231.70037     59210611            0     59211513    12.683318    22.410323    14.179057    19.734255    33.262646    8.6221716    12.612127     22.30075    14.235163 
  405600    167.80843     59211839            0     59212492    12.683311    22.410344    14.178988    19.733588    33.264712    8.6152912    12.612127     22.30075    14.235163 
  405800    117.62741     59210786            0     59211244    12.683331    22.410376    14.178896    19.735504    33.267969    8.6060629    12.612127     22.30075    14.235163 
  406000    173.81486     59210660            0     59211337    12.683317    22.410336    14.178912    19.734127     33.26394    8.6076125    12.612127     22.30075    14.235163 
  406200    262.01635     59211488            0     59212508    12.683313    22.410362    14.179066     19.73378    33.266529    8.6230399    12.612127     22.30075    14.235163 
  406400    179.23856     59211571            0     59212269    12.683313    22.410353    14.178877    19.733765    33.265696    8.6041159    12.612127     22.30075    14.235163 
  406600    296.53917     59211370            0     59212524    12.683274    22.410355    14.179088    19.729859    33.265849    8.6252769    12.612127     22.30075    14.235163 
  406800      104.123     59211119            0     59211524    12.683331    22.410352    14.179148    19.735512    33.265601    8.6313008    12.612127     22.30075    14.235163 
  407000    233.88389     59211117            0     59212028    12.683328    22.410328    14.178736     19.73528    33.263143    8.5900436    12.612127     22.30075    14.235163 
  407200    106.74889     59211105            0     59211521    12.683307    22.410354    14.179122    19.733154    33.265727    8.6286809    12.612127     22.30075    14.235163 
  407400    265.79041     59211346            0     59212381    12.683315    22.410353    14.179237    19.733961    33.265686     8.640124    12.612127     22.30075    14.235163 
  407600    257.25085     59210765            0     59211766     12.68332    22.410353      14.1791    19.734401    33.265643    8.6265003    12.612127     22.30075    14.235163 
  407800    233.33084     59212084            0     59212992    12.683287    22.410365    14.179017    19.731194    33.266863    8.6181621    12.612127     22.30075    14.235163 
  408000    247.31985     59211932            0     59212895    12.683303    22.410368    14.178975    19.732722    33.267183     8.613963    12.612127     22.30075    14.235163 
  408200    200.23329     59212222            0     59213001     12.68332    22.410349    14.178857    19.734435    33.265266    8.6021504    12.612127     22.30075    14.235163 
  408400    211.58541     59211201            0     59212025    12.683312    22.410396    14.178963    19.733672    33.269945    8.6127536    12.612127     22.30075    14.235163 
  408600    164.08877     59211904            0     59212542    12.683316    22.410353     14.17899     19.73408    33.265681    8.6155015    12.612127     22.30075    14.235163 
  408800    179.96764     59212483            0     59213184    12.683297     22.41036     14.17882    19.732104    33.266373    8.5984303    12.612127     22.30075    14.235163 
  409000    210.62514     59211006            0     59211826    12.683315    22.410352    14.178979    19.733954    33.265597    8.6143956    12.612127     22.30075    14.235163 
  409200    212.22745     59211231            0     59212058    12.683313    22.410358    14.178991    19.733796    33.266182    8.6155315    12.612127     22.30075    14.235163 
  409400    235.42768     59212348            0     59213264    12.683315    22.410354    14.178897    19.733929    33.265783    8.6061952    12.612127     22.30075    14.235163 
  409600    165.56596     59211039            0     59211683    12.683346    22.410358    14.178942    19.737053    33.266163    8.6106511    12.612127     22.30075    14.235163 
  409800    172.73599     59210969            0     59211642    12.683303    22.410392    14.178824    19.732776    33.269522    8.5988386    12.612127     22.30075    14.235163 
  410000    342.33968     59211754            0     59213087    12.683304    22.410337    14.178735    19.732894    33.264012    8.5899637    12.612127     22.30075    14.235163 
  410200    145.36777     59212736            0     59213302    12.683329    22.410353    14.178847    19.735333    33.265617    8.6011544    12.612127     22.30075    14.235163 
  410400    235.39079     59212227            0     59213143    12.683321    22.410343     14.17919    19.734524    33.264669    8.6354854    12.612127     22.30075    14.235163 
  410600    136.03543     59211107            0     59211636    12.683367    22.410314    14.178761    19.739193    33.261721    8.5925004    12.612127     22.30075    14.235163 
  410800    380.86387     59210926            0     59212409    12.683317    22.410353    14.179026    19.734151    33.265672    8.6190798    12.612127     22.30075    14.235163 
  411000    408.83346     59212370            0     59213962    12.683313    22.410356    14.178919    19.733732    33.266003    8.6083594    12.612127     22.30075    14.235163 
  411200    164.12347     59211540            0     59212179    12.683311    22.410381    14.179028    19.733573    33.268498    8.6192212    12.612127     22.30075    14.235163 
  411400    167.45683     59212270            0     59212922    12.683316    22.410353    14.178829    19.734019     33.26569    8.5993479    12.612127     22.30075    14.235163 
  411600    226.32208     59210414            0     59211295    12.683355    22.410349     14.17906    19.737954    33.265278    8.6224273    12.612127     22.30075    14.235163 
  411800    257.27694     59212854            0     59213856    12.683316    22.410353     14.17918    19.734012    33.265682    8.6344542    12.612127     22.30075    14.235163 
  412000    165.93165     59211290            0     59211936    12.683288    22.410355    14.179067    19.731228    33.265836    8.6232059    12.612127     22.30075    14.235163 
  412200    238.82515     59211183            0     59212113    12.683308    22.410342    14.179022     19.73322    33.264594    8.6186361    12.612127     22.30075    14.235163 
  412400    153.03319     59210939            0     59211534    12.683328    22.410328    14.179056    19.735264    33.263135    8.6220419    12.612127     22.30075    14.235163 
  412600     217.1161     59211041            0     59211886    12.683307     22.41034    14.178959    19.733169    33.264332     8.612363    12.612127     22.30075    14.235163 
  412800    233.33634     59212076            0     59212984    12.683333    22.410348    14.178997    19.735787    33.265143    8.6161545    12.612127     22.30075    14.235163 
  413000    177.99835     59210916            0     59211609    12.683333    22.410336    14.179074    19.735718    33.264008    8.6239121    12.612127     22.30075    14.235163 
  413200    229.02332     59211037            0     59211929    12.683293    22.410405    14.179123    19.731755    33.270861    8.6287792    12.612127     22.30075    14.235163 
  413400    284.47493     59211008            0     59212116    12.683313     22.41034    14.178986    19.733773    33.264376    8.6150168    12.612127     22.30075    14.235163 
  413600    156.92282     59211698            0     59212309    12.683346    22.410366    14.179063    19.737066    33.266982    8.6227297    12.612127     22.30075    14.235163 
  413800    213.90658     59211754            0     59212586    12.683314    22.410356    14.179027    19.733895    33.265914    8.6191247    12.612127     22.30075    14.235163 
  414000       177.65     59211791            0     59212483    12.683353    22.410343    14.179013    19.737795    33.264614    8.6177982    12.612127     22.30075    14.235163 
  414200    225.20931     59210896            0     59211772    12.683318    22.410389    14.179016    19.734239    33.269302     8.618022    12.612127     22.30075    14.235163 
  414400    250.82877     59211449            0     59212425    12.683316    22.410353     14.17911    19.734012    33.265681    8.6274444    12.612127     22.30075    14.235163 
  414600    289.16461     59212828            0     59213954    12.683338    22.410309    14.179004    19.736256    33.261209    8.6169025    12.612127     22.30075    14.235163 
  414800    181.99701     59212509            0     59213218    12.683316    22.410353    14.178897    19.734013    33.265681    8.6062057    12.612127     22.30075    14.235163 
  415000     325.2386     59211020            0     59212286    12.683328    22.410341    14.178835    19.735254    33.264468    8.5999295    12.612127     22.30075    14.235163 
  415200    324.60184     59211384            0     59212648    12.683332    22.410335    14.179102    19.735648    33.263828    8.6266711    12.612127     22.30075    14.235163 
  415400    221.31351     59210682            0     59211543    12.683283    22.410353    14.178881      19.7307    33.265627    8.6045507    12.612127     22.30075    14.235163 
  415600    218.38639     59211438            0     59212289    12.683308     22.41039    14.178986    19.733248    33.269355     8.615099    12.612127     22.30075    14.235163 
  415800     136.9403     59211502            0     59212035    12.683313     22.41036     14.17916    19.733775    33.266387    8.6324648    12.612127     22.30075    14.235163 
  416000    256.72085     59210462            0     59211462    12.683332    22.410313    14.179074    19.735652    33.261671    8.6238667    12.612127     22.30075    14.235163 
  416200    222.65054     59211469            0     59212335    12.683323    22.410386     14.17895    19.734743    33.269003    8.6114593    12.612127     22.30075    14.235163 
  416400    484.25567     59211233            0     59213118    12.683314    22.410359    14.179116    19.733797    33.266265    8.6280451    12.612127     22.30075    14.235163 
  416600    221.49918     59210917            0     59211779    12.683317    22.410353    14.178873    19.734128    33.265655     8.603706    12.612127     22.30075    14.235163 
  416800    135.53517     59211178            0     59211706    12.683339    22.410352    14.178909    19.736302    33.265566    8.6073719    12.612127     22.30075    14.235163 
  417000    484.87924     59211683            0     59213571    12.683268     22.41037    14.178719    19.729252     33.26738    8.5883663    12.612127     22.30075    14.235163 
  417200    186.78941     59211689            0     59212417    12.683319    22.410346    14.178755     19.73431    33.264992    8.5919354    12.612127     22.30075    14.235163 
  417400    95.425606     59211751            0     59212123    12.683351    22.410381    14.178993    19.737521    33.268426    8.6157709    12.612127     22.30075    14.235163 
  417600    257.34755     59211643            0     59212645    12.683344    22.410356    14.178881    19.736891    33.265942    8.6045937    12.612127     22.30075    14.235163 
  417800    364.76611     59211740            0     59213160    12.683322    22.410307     14.17909    19.734655    33.261025    8.6254628    12.612127     22.30075    14.235163 
  418000    102.30396     59211674            0     59212072     12.68331    22.410344    14.178853    19.733411    33.264774     8.601803    12.612127     22.30075    14.235163 
  418200    277.93313     59211777            0     59212859    12.683316    22.410353    14.178883    19.734014    33.265686    8.6047532    12.612127     22.30075    14.235163 
  418400    341.95797     59211291            0     59212623    12.683287    22.410313    14.179056    19.731113    33.261635    8.6220632    12.612127     22.30075    14.235163 
  418600    326.14852     59210696            0     59211966    12.683315    22.410353    14.178914    19.733995    33.265682    8.6079008    12.612127     22.30075    14.235163 
  418800    284.22211     59211261            0     59212368    12.683302    22.410333    14.179026    19.732654    33.263706    8.6190575    12.612127     22.30075    14.235163 
  419000    132.07978     59212469            0     59212983    12.683321    22.410345    14.178952    19.734576    33.264885    8.6116369    12.612127     22.30075    14.235163 
  419200    341.04292     59211867            0     59213195    12.683311    22.410348    14.179029    19.733518    33.265179    8.6193981    12.612127     22.30075    14.235163 
  419400     123.7615     59211120            0     59211602    12.683376     22.41037    14.179149    19.740027    33.267355     8.631409    12.612127     22.30075    14.235163 
  419600    178.15248     59212152            0     59212846    12.683317    22.410355    14.178903    19.734192    33.265822    8.6067648    12.612127     22.30075    14.235163 
  419800    243.25477     59211905            0     59212852    12.683308    22.410355    14.179233    19.733229    33.265835      8.63975    12.612127     22.30075    14.235163 
  420000    285.17855     59211835            0     59212946    12.683317    22.410359    14.178905    19.734122    33.266236    8.6069141    12.612127     22.30075    14.235163 
  420200    123.92114     59212501            0     59212984     12.68329     22.41037    14.179079    19.731463    33.267365    8.6243202    12.612127     22.30075    14.235163 
  420400    92.898335     59210818            0     59211180    12.683309    22.410354    14.178893    19.733381    33.265739    8.6057511    12.612127     22.30075    14.235163 
  420600    127.67914     59212127            0     59212624    12.683288     22.41034    14.179044    19.731264    33.264333    8.6208698    12.612127     22.30075    14.235163 
  420800    225.85922     59212179            0     59213058    12.683328    22.410359    14.178857    19.735222    33.266237    8.6021585    12.612127     22.30075    14.235163 
  421000    210.99111     59211944            0     59212765    12.683316    22.410353    14.178839    19.734018    33.265687    8.6003794    12.612127     22.30075    14.235163 
  421200    256.03526     59211731            0     59212728    12.683306    22.410373    14.179119    19.733038    33.267639    8.6283371    12.612127     22.30075    14.235163 
  421400    437.25061     59211809            0     59213511     12.68331    22.410351    14.179101    19.733416    33.265463    8.6265446    12.612127     22.30075    14.235163 
  421600    155.11346     59211019            0     59211623    12.683342    22.410336    14.179161    19.736627    33.263934     8.632614    12.612127     22.30075    14.235163 
  421800    232.22387     59211242            0     59212146    12.683349    22.410324    14.178784    19.737358    33.262752    8.5948705    12.612127     22.30075    14.235163 
  422000     173.7791     59211915            0     59212592     12.68332    22.410353    14.178774    19.734474    33.265656    8.5938765    12.612127     22.30075    14.235163 
  422200    139.99543     59210378            0     59210923    12.683274    22.410342    14.179049    19.729886    33.264541    8.6213373    12.612127     22.30075    14.235163 
  422400    299.01566     59211660            0     59212824    12.683312    22.410359    14.179184    19.733601    33.266269    8.6348268    12.612127     22.30075    14.235163 
  422600    188.24763     59211897            0     59212629    12.683308    22.410354    14.178994    19.733203    33.265731    8.6158948    12.612127     22.30075    14.235163 
  422800    153.07902     59212424            0     59213020    12.683336    22.410352     14.17937    19.736029    33.265552    8.6535104    12.612127     22.30075    14.235163 
  423000    144.92291     59211865            0     59212429    12.683355     22.41036    14.179096    19.737926    33.266385    8.6260299    12.612127     22.30075    14.235163 
  423200    201.39304     59211932            0     59212716    12.683293    22.410355    14.179034    19.731721    33.265809    8.6198267    12.612127     22.30075    14.235163 
  423400    207.98821     59211268            0     59212078    12.683318    22.410353    14.178893    19.734252    33.265668    8.6057441    12.612127     22.30075    14.235163 
  423600    269.27769     59211765            0     59212813    12.683315    22.410352    14.178759    19.733964    33.265608    8.5923162    12.612127     22.30075    14.235163 
  423800    130.25206     59211324            0     59211831    12.683336    22.410365    14.178937    19.736015    33.266843    8.6101323    12.612127     22.30075    14.235163 
  424000    64.103994     59211223            0     59211473    12.683316    22.410353    14.179039    19.734093    33.265678    8.6203403    12.612127     22.30075    14.235163 
  424200    101.60905     59212149            0     59212544    12.683316    22.410347     14.17884    19.734049    33.265039    8.6004669    12.612127     22.30075    14.235163 
  424400    176.40271     59211940            0     59212627    12.683296    22.410334    14.178981    19.732074     33.26378    8.6145919    12.612127     22.30075    14.235163 
  424600    149.95137     59210989            0     59211573    12.683299    22.410352    14.179064    19.732322     33.26559    8.6228382    12.612127     22.30075    14.235163 
  424800    167.59053     59212143            0     59212796    12.683314    22.410354    14.179114    19.733882    33.265749    8.6278824    12.612127     22.30075    14.235163 
  425000    165.19642     59211571            0     59212214    12.683316    22.410353    14.178987    19.734012    33.265682    8.6151819    12.612127     22.30075    14.235163 
  425200    185.38223     59212196            0     59212918    12.683316    22.410325    14.179029    19.734013    33.262891    8.6193157    12.612127     22.30075    14.235163 
  425400    130.48213     59211134            0     59211642    12.683348    22.410351    14.179037    19.737282      33.2655    8.6201241    12.612127     22.30075    14.235163 
  425600    159.14984     59210837            0     59211456    12.683306    22.410382    14.179007    19.733028    33.268568    8.6172055    12.612127     22.30075    14.235163 
  425800    307.64217     59210928            0     59212126    12.683329    22.410361    14.178843    19.735348     33.26647    8.6007971    12.612127     22.30075    14.235163 
  426000    245.87556     59212068            0     59213025     12.68333    22.410357    14.178932    19.735475    33.266062     8.609668    12.612127     22.30075    14.235163 
  426200    324.96417     59211081            0     59212346    12.683305    22.410315    14.178864     19.73299    33.261861    8.6028651    12.612127     22.30075    14.235163 
  426400    158.77096     59212708            0     59213326    12.683293    22.410355    14.178807     19.73175    33.265809     8.597122    12.612127     22.30075    14.235163 
  426600    202.08491     59211434            0     59212221    12.683299    22.410327    14.179129    19.732387    33.263048    8.6293222    12.612127     22.30075    14.235163 
  426800    239.11456     59211067            0     59211998    12.683315    22.410353    14.179031    19.733981    33.265664    8.6196014    12.612127     22.30075    14.235163 
  427000    92.212819     59211394            0     59211753    12.683347    22.410301    14.178977    19.737136    33.260449    8.6141489    12.612127     22.30075    14.235163 
  427200    185.85023     59212074            0     59212797    12.683296    22.410361    14.178987    19.732088    33.266445     8.615128    12.612127     22.30075    14.235163 
  427400     247.9421     59211480            0     59212445    12.683279    22.410355    14.178908    19.730312    33.265901    8.6072345    12.612127     22.30075    14.235163 
  427600    171.00744     59211467            0     59212133    12.683319    22.410346    14.179089    19.734372     33.26497    8.6253142    12.612127     22.30075    14.235163 
  427800    195.99508     59210889            0     59211652    12.683301    22.410342     14.17903    19.732508    33.264553     8.619481    12.612127     22.30075    14.235163 
  428000    177.93418     59212090            0     59212783    12.683313    22.410362    14.179237    19.733713    33.266522    8.6401211    12.612127     22.30075    14.235163 
  428200    164.81613     59212175            0     59212817    12.683316    22.410353    14.178967    19.734013    33.265682    8.6131455    12.612127     22.30075    14.235163 
  428400     238.6786     59211083            0     59212012    12.683319    22.410358    14.179111     19.73437    33.266199    8.6276068    12.612127     22.30075    14.235163 
  428600    120.72303     59211684            0     59212154     12.68333    22.410336    14.179018    19.735403    33.263983    8.6182595    12.612127     22.30075    14.235163 
  428800    231.80058     59211787            0     59212689    12.683337    22.410352    14.179108    19.736189    33.265561    8.6272423    12.612127     22.30075    14.235163 
  429000    151.61357     59211560            0     59212150    12.683313    22.410349    14.178835    19.733762    33.265286    8.5999576    12.612127     22.30075    14.235163 
  429200    177.13713     59211587            0     59212276    12.683318    22.410349    14.179318    19.734235    33.265214     8.648264    12.612127     22.30075    14.235163 
  429400    448.60782     59210853            0     59212599    12.683316    22.410353    14.178959    19.734014    33.265682     8.612371    12.612127     22.30075    14.235163 
  429600     339.2813     59212282            0     59213603    12.683322    22.410354    14.179087    19.734635     33.26578    8.6252062    12.612127     22.30075    14.235163 
  429800    447.29631     59211990            0     59213731    12.683316    22.410353    14.178843    19.734009    33.265679    8.6007211    12.612127     22.30075    14.235163 
  430000    278.20242     59211590            0     59212673    12.683278    22.410335    14.178739    19.730285    33.263896    8.5903492    12.612127     22.30075    14.235163 
  430200    272.55231     59212539            0     59213600    12.683296    22.410354     14.17891     19.73206     33.26579    8.6074641    12.612127     22.30075    14.235163 
  430400    302.93407     59211221            0     59212401    12.683327    22.410356    14.178887    19.735159    33.265953     8.605177    12.612127     22.30075    14.235163 
  430600    339.79092     59210705            0     59212028    12.683291    22.410363    14.178978    19.731595    33.266705     8.614305    12.612127     22.30075    14.235163 
  430800    210.38184     59212592            0     59213411    12.683316    22.410353    14.178998     19.73401    33.265679     8.616297    12.612127     22.30075    14.235163 
  431000    277.11716     59211375            0     59212454    12.683308    22.410354    14.178975    19.733234    33.265725    8.6139111    12.612127     22.30075    14.235163 
  431200    199.84087     59211305            0     59212082    12.683295    22.410352    14.179052    19.731954    33.265512    8.6216718    12.612127     22.30075    14.235163 
  431400    252.17936     59211928            0     59212909    12.683312    22.410352    14.178925    19.733614    33.265597    8.6089704    12.612127     22.30075    14.235163 
  431600    116.24583     59211802            0     59212254    12.683331    22.410381    14.178897    19.735501    33.268446    8.6061919    12.612127     22.30075    14.235163 
  431800    173.46784     59210937            0     59211612    12.683289    22.410308    14.178981    19.731377    33.261193    8.6145312    12.612127     22.30075    14.235163 
  432000    246.07588     59212531            0     59213489     12.68332    22.410355    14.179163    19.734402    33.265854    8.6327386    12.612127     22.30075    14.235163 
  432200     247.8408     59211377            0     59212342    12.683331    22.410376     14.17901    19.735547    33.267932    8.6175018    12.612127     22.30075    14.235163 
  432400    345.86468     59210920            0     59212267    12.683308    22.410342    14.179171    19.733275    33.264559    8.6335236    12.612127     22.30075    14.235163 
  432600    402.64053     59211688            0     59213255    12.683284    22.410354    14.179127    19.730805    33.265759    8.6291428    12.612127     22.30075    14.235163 
  432800      169.447     59212240            0     59212900    12.683312    22.410354    14.178767    19.733616    33.265711    8.5931312    12.612127     22.30075    14.235163 
  433000    140.09022     59211398            0     59211943    12.683329    22.410327    14.178831    19.735357    33.263099    8.5996001    12.612127     22.30075    14.235163 
  433200     257.2162     59210409            0     59211411     12.68334    22.410317    14.178956    19.736449    33.262053    8.6120682    12.612127     22.30075    14.235163 
  433400    211.88711     59211256            0     59212081    12.683317    22.410351    14.179021     19.73411    33.265487    8.6185674    12.612127     22.30075    14.235163 
  433600    101.00349     59212250            0     59212643    12.683343    22.410328    14.178821    19.736721    33.263162    8.5985909    12.612127     22.30075    14.235163 
  433800    256.28143     59211835            0     59212833    12.683327    22.410367    14.178931    19.735191    33.267042    8.6095298    12.612127     22.30075    14.235163 
  434000    174.94967     59211633            0     59212314    12.683275    22.410355    14.179067    19.729932    33.265908     8.623135    12.612127     22.30075    14.235163 
  434200    254.47485     59210953            0     59211944    12.683334    22.410351    14.178918    19.735883    33.265466    8.6082501    12.612127     22.30075    14.235163 
  434400    189.15238     59211272            0     59212008    12.683315    22.410355    14.178854    19.733909    33.265853    8.6018768    12.612127     22.30075    14.235163 
  434600    247.97274     59211713            0     59212678    12.683304    22.410337    14.178942     19.73281    33.264016    8.6106824    12.612127     22.30075    14.235163 
  434800    329.54685     59211545            0     59212828     12.68335    22.410351    14.178914     19.73741    33.265485    8.6079056    12.612127     22.30075    14.235163 
  435000    217.78775     59212071            0     59212918    12.683312    22.410377    14.178838    19.733676     33.26805    8.6002745    12.612127     22.30075    14.235163 
  435200     206.3211     59211613            0     59212417    12.683316    22.410353    14.178843     19.73406     33.26564    8.6007396    12.612127     22.30075    14.235163 
  435400    248.15206     59211763            0     59212729    12.683303    22.410378     14.17893    19.732773    33.268129    8.6094441    12.612127     22.30075    14.235163 
  435600    148.27306     59211140            0     59211718    12.683316    22.410353    14.178942    19.734016    33.265676     8.610684    12.612127     22.30075    14.235163 
  435800    374.09283     59211681            0     59213137    12.683316    22.410353    14.179056    19.734016    33.265681    8.6221016    12.612127     22.30075    14.235163 
  436000    217.31179     59210619            0     59211465    12.683333    22.410345    14.179101    19.735771    33.264829    8.6265458    12.612127     22.30075    14.235163 
  436200    252.21356     59211239            0     59212221     12.68331    22.410356    14.179025     19.73347    33.265942    8.6189415    12.612127     22.30075    14.235163 
  436400    135.27955     59212472            0     59212999    12.683314    22.410376    14.178864    19.733883    33.267962    8.6028825    12.612127     22.30075    14.235163 
  436600    196.20751     59211622            0     59212386    12.683339    22.410366    14.179255    19.736321    33.266943    8.6419987    12.612127     22.30075    14.235163 
  436800    228.74763     59211603            0     59212494    12.683287    22.410345    14.179082    19.731117    33.264852    8.6246824    12.612127     22.30075    14.235163 
  437000     208.2821     59210906            0     59211717    12.683306    22.410338    14.179157    19.733025    33.264171    8.6322041    12.612127     22.30075    14.235163 
  437200    231.04984     59212133            0     59213032    12.683312    22.410359     14.17892    19.733662    33.266275    8.6084143    12.612127     22.30075    14.235163 
  437400    413.86621     59211161            0     59212773    12.683337    22.410353    14.179252    19.736194    33.265708    8.6416447    12.612127     22.30075    14.235163 
  437600    322.21194     59210448            0     59211702    12.683304    22.410354       14.179    19.732809    33.265801     8.616494    12.612127     22.30075    14.235163 
  437800    235.73235     59211404            0     59212322    12.683328    22.410364     14.17886    19.735228    33.266793    8.6024995    12.612127     22.30075    14.235163 
  438000    189.10082     59212057            0     59212793    12.683326    22.410361    14.179195    19.735077    33.266466     8.635935    12.612127     22.30075    14.235163 
  438200    177.16344     59211002            0     59211691    12.683316    22.410353    14.178911    19.734012    33.265682    8.6075977    12.612127     22.30075    14.235163 
  438400    171.45113     59211372            0     59212040    12.683315    22.410348     14.17911    19.733992    33.265113    8.6274653    12.612127     22.30075    14.235163 
  438600    243.19556     59211148            0     59212094    12.683316    22.410361    14.179022    19.734028    33.266497    8.6186293    12.612127     22.30075    14.235163 
  438800    106.17493     59210990            0     59211403    12.683316    22.410353    14.178939    19.734023    33.265681    8.6103641    12.612127     22.30075    14.235163 
  439000    203.18351     59211019            0     59211810    12.683314    22.410353    14.179012    19.733852    33.265692    8.6176229    12.612127     22.30075    14.235163 
  439200    339.79276     59211194            0     59212517    12.683329    22.410326    14.178889    19.735327    33.262986    8.6053931    12.612127     22.30075    14.235163 
  439400    150.14813     59211117            0     59211702    12.683292    22.410342    14.178989    19.731625    33.264569    8.6153407    12.612127     22.30075    14.235163 
  439600    103.20838     59211387            0     59211789    12.683332     22.41033    14.178982    19.735653    33.263381    8.6146697    12.612127     22.30075    14.235163 
  439800    135.17939     59210331            0     59210857    12.683316    22.410353    14.179011    19.734037    33.265681    8.6175838    12.612127     22.30075    14.235163 
  440000    301.01551     59211655            0     59212827    12.683326    22.410341    14.178898    19.735048    33.264479    8.6062424    12.612127     22.30075    14.235163 
  440200    208.08654     59210949            0     59211759    12.683314    22.410354    14.178857     19.73388    33.265786    8.6021487    12.612127     22.30075    14.235163 
  440400    132.26729     59211427            0     59211941    12.683301    22.410355    14.179023      19.7325    33.265873    8.6187599    12.612127     22.30075    14.235163 
  440600     273.8731     59210335            0     59211401    12.683278    22.410347    14.179107     19.73029    33.265086    8.6271598    12.612127     22.30075    14.235163 
  440800    320.02317     59211851            0     59213097    12.683341    22.410365     14.17915    19.736511    33.266816    8.6315022    12.612127     22.30075    14.235163 
  441000    111.14898     59211627            0     59212060    12.683316    22.410353    14.179296    19.734021    33.265696    8.6460889    12.612127     22.30075    14.235163 
  441200    488.22659     59211539            0     59213440    12.683315    22.410354     14.17912    19.733996    33.265714    8.6285054    12.612127     22.30075    14.235163 
  441400    88.807353     59212023            0     59212369    12.683319    22.410323    14.179173    19.734371    33.262656    8.6337469    12.612127     22.30075    14.235163 
  441600    196.38135     59212128            0     59212892    12.683315    22.410358    14.179048     19.73397    33.266182    8.6212268    12.612127     22.30075    14.235163 
  441800    358.88554     59211296            0     59212693     12.68332    22.410352    14.179173    19.734485    33.265512    8.6338043    12.612127     22.30075    14.235163 
  442000    136.58227     59211494            0     59212026    12.683309    22.410356    14.179078    19.733362    33.265942     8.624253    12.612127     22.30075    14.235163 
  442200    198.35967     59212077            0     59212849    12.683305    22.410354    14.178791    19.732901    33.265741    8.5955823    12.612127     22.30075    14.235163 
  442400    183.42395     59211950            0     59212664    12.683316    22.410353     14.17911    19.734011    33.265682    8.6274277    12.612127     22.30075    14.235163 
  442600    198.91858     59210377            0     59211151    12.683301    22.410305    14.179031    19.732502    33.260859    8.6195332    12.612127     22.30075    14.235163 
  442800    78.848143     59211690            0     59211997     12.68329    22.410358    14.178957    19.731433    33.266189    8.6121518    12.612127     22.30075    14.235163 
  443000    104.60653     59211251            0     59211658    12.683327    22.410351    14.178954    19.735195     33.26549    8.6118444    12.612127     22.30075    14.235163 
  443200    107.32636     59211444            0     59211862    12.683324     22.41036    14.178764    19.734832    33.266335    8.5928813    12.612127     22.30075    14.235163 
  443400    184.65084     59210617            0     59211335    12.683307    22.410358    14.178867     19.73319    33.266206    8.6031282    12.612127     22.30075    14.235163 
  443600    181.43154     59210148            0     59210854    12.683322    22.410344    14.179011    19.734694    33.264771    8.6176092    12.612127     22.30075    14.235163 
  443800    320.93925     59210460            0     59211710    12.683287    22.410341    14.178889    19.731135    33.264503    8.6053073    12.612127     22.30075    14.235163 
  444000    212.54312     59212992            0     59213820    12.683299    22.410371    14.179152    19.732324    33.267503    8.6316661    12.612127     22.30075    14.235163 
  444200    262.82515     59212250            0     59213273    12.683339    22.410338    14.178867    19.736393    33.264176    8.6031587    12.612127     22.30075    14.235163 
  444400    212.14394     59212472            0     59213298    12.683256    22.410357    14.179028    19.728037    33.266078    8.6192454    12.612127     22.30075    14.235163 
  444600    210.02533     59211508            0     59212326    12.683324    22.410362    14.178847    19.734862    33.266522    8.6011152    12.612127     22.30075    14.235163 
  444800    400.46135     59210816            0     59212375    12.683324    22.410331    14.179122    19.734856    33.263503     8.628704    12.612127     22.30075    14.235163 
  445000    169.54295     59211742            0     59212402     12.68334    22.410391    14.179029    19.736453    33.269413     8.619342    12.612127     22.30075    14.235163 
  445200     188.9978     59211842            0     59212578    12.683316    22.410355    14.178937    19.734062    33.265841    8.6101747    12.612127     22.30075    14.235163 
  445400    147.51706     59210547            0     59211121    12.683291    22.410343    14.179027    19.731541    33.264698    8.6191618    12.612127     22.30075    14.235163 
  445600    253.54605     59210935            0     59211922    12.683324    22.410353    14.179063    19.734818    33.265641    8.6227966    12.612127     22.30075    14.235163 
  445800    174.97069     59212410            0     59213091    12.683304    22.410343    14.178915    19.732848    33.264687    8.6079328    12.612127     22.30075    14.235163 
  446000    88.657977     59211312            0     59211657    12.683305    22.410349    14.179065    19.732906    33.265252    8.6229478    12.612127     22.30075    14.235163 
  446200    134.30231     59211249            0     59211772     12.68334    22.410326    14.179036    19.736405    33.262927     8.620044    12.612127     22.30075    14.235163 
  446400    311.61153     59211610            0     59212823    12.683313    22.410353    14.178919    19.733746    33.265696    8.6083934    12.612127     22.30075    14.235163 
  446600    156.47507     59211341            0     59211950    12.683324    22.410336    14.179127     19.73485    33.263994    8.6291747    12.612127     22.30075    14.235163 
  446800    164.53048     59211068            0     59211709     12.68331    22.410354    14.178916    19.733464    33.265716     8.608029    12.612127     22.30075    14.235163 
  447000    96.871867     59211877            0     59212254     12.68332    22.410357    14.179091    19.734451    33.266069    8.6255724    12.612127     22.30075    14.235163 
  447200     287.2575     59211734            0     59212853    12.683318    22.410357    14.178897    19.734209    33.266019    8.6061279    12.612127     22.30075    14.235163 
  447400     269.5044     59211459            0     59212508    12.683315    22.410354    14.178852    19.733946    33.265792    8.6016674    12.612127     22.30075    14.235163 
  447600    251.65985     59211474            0     59212454    12.683327    22.410353    14.178952     19.73513    33.265629    8.6116292    12.612127     22.30075    14.235163 
  447800    156.56619     59210925            0     59211534    12.683302    22.410376    14.178895    19.732605    33.267982    8.6059066    12.612127     22.30075    14.235163 
  448000    332.12487     59211049            0     59212342    12.683348    22.410349    14.178872    19.737218    33.265243    8.6036752    12.612127     22.30075    14.235163 
  448200    86.799004     59211917            0     59212255    12.683309    22.410326    14.179088    19.733368    33.262908    8.6252169    12.612127     22.30075    14.235163 
  448400    257.88449     59211765            0     59212769    12.683316    22.410353    14.178956    19.734012    33.265681    8.6120137    12.612127     22.30075    14.235163 
  448600     222.1648     59211016            0     59211881    12.683312    22.410343    14.178993    19.733685    33.264618    8.6157827    12.612127     22.30075    14.235163 
  448800    151.39179     59211659            0     59212248    12.683338    22.410377    14.179101    19.736202    33.268087    8.6265411    12.612127     22.30075    14.235163 
  449000    180.45473     59211624            0     59212326    12.683315    22.410315    14.178865     19.73394    33.261888    8.6029974    12.612127     22.30075    14.235163 
  449200    133.37361     59211778            0     59212297    12.683331    22.410323    14.179097    19.735522    33.262696    8.6261848    12.612127     22.30075    14.235163 
  449400    316.68331     59212641            0     59213874    12.683316    22.410353    14.179066    19.734012    33.265684    8.6230299    12.612127     22.30075    14.235163 
  449600    326.73892     59211040            0     59212311    12.683305    22.410375    14.178975    19.732969     33.26789    8.6139139    12.612127     22.30075    14.235163 
  449800    218.61566     59211480            0     59212331    12.683299    22.410348     14.17884    19.732389    33.265158    8.6004411    12.612127     22.30075    14.235163 
  450000    216.49669     59211533            0     59212376    12.683334    22.410342    14.179078    19.735892    33.264549     8.624292    12.612127     22.30075    14.235163 
  450200    177.70381     59210998            0     59211690    12.683334    22.410352    14.178838    19.735884    33.265575    8.6002821    12.612127     22.30075    14.235163 
  450400    188.60776     59211240            0     59211974    12.683265    22.410385    14.178799    19.728898    33.268828    8.5963627    12.612127     22.30075    14.235163 
  450600    213.40088     59211489            0     59212319    12.683312    22.410356    14.178888     19.73366    33.265981    8.6052684    12.612127     22.30075    14.235163 
  450800    251.30309     59212130            0     59213109    12.683295    22.410374    14.178983    19.731914    33.267809    8.6147306    12.612127     22.30075    14.235163 
  451000     265.8066     59211430            0     59212465    12.683318    22.410368    14.178937     19.73421    33.267119    8.6101296    12.612127     22.30075    14.235163 
  451200    180.40534     59210433            0     59211135    12.683309     22.41033    14.178802    19.733326    33.263388    8.5966341    12.612127     22.30075    14.235163 
  451400    231.01335     59210748            0     59211647    12.683364    22.410368    14.179041    19.738855    33.267127    8.6205589    12.612127     22.30075    14.235163 
  451600    218.91872     59211534            0     59212386    12.683315    22.410333    14.178959    19.733952     33.26363    8.6123716    12.612127     22.30075    14.235163 
  451800     111.5743     59211747            0     59212182    12.683316    22.410353    14.178699    19.734013    33.265681    8.5862977    12.612127     22.30075    14.235163 
  452000    259.67454     59211086            0     59212097    12.683362    22.410375    14.179059    19.738602    33.267812    8.6223408    12.612127     22.30075    14.235163 
  452200    279.28143     59210810            0     59211897    12.683316    22.410353    14.178876    19.734017    33.265671    8.6040631    12.612127     22.30075    14.235163 
  452400    158.06281     59211536            0     59212152    12.683316    22.410363    14.179137       19.734    33.266651    8.6302089    12.612127     22.30075    14.235163 
  452600    195.18215     59210624            0     59211384    12.683337    22.410316    14.179017    19.736107    33.261962    8.6181331    12.612127     22.30075    14.235163 
  452800    482.94765     59211607            0     59213487    12.683318    22.410353    14.179175     19.73421    33.265649    8.6339898    12.612127     22.30075    14.235163 
  453000     227.0251     59211671            0     59212555    12.683333    22.410343    14.179296    19.735742    33.264647    8.6460551    12.612127     22.30075    14.235163 
  453200    295.22492     59211508            0     59212657    12.683345    22.410356    14.179008    19.736962    33.265986    8.6172455    12.612127     22.30075    14.235163 
  453400    284.12555     59210376            0     59211482    12.683334    22.410352    14.179056    19.735829    33.265581    8.6220935    12.612127     22.30075    14.235163 
  453600    199.15238     59211689            0     59212464    12.683318    22.410356    14.178791    19.734222    33.265917     8.595591    12.612127     22.30075    14.235163 
  453800    256.93197     59212381            0     59213381    12.683288    22.410352    14.178844    19.731272    33.265555    8.6008577    12.612127     22.30075    14.235163 
  454000    211.92384     59212306            0     59213131    12.683331    22.410369    14.179209    19.735504    33.267308    8.6373641    12.612127     22.30075    14.235163 
  454200    225.21813     59211224            0     59212101    12.683306    22.410364    14.178912    19.733037    33.266728    8.6076609    12.612127     22.30075    14.235163 
  454400    194.92909     59212342            0     59213101    12.683317    22.410353    14.179105    19.734142    33.265674    8.6269468    12.612127     22.30075    14.235163 
  454600    246.68032     59211026            0     59211986    12.683316    22.410353    14.179085    19.734034    33.265638    8.6250021    12.612127     22.30075    14.235163 
  454800    297.87914     59211770            0     59212929    12.683316    22.410353    14.179101    19.734015     33.26567    8.6265748    12.612127     22.30075    14.235163 
  455000    149.57555     59211460            0     59212043    12.683338    22.410316     14.17908    19.736206    33.261949    8.6244467    12.612127     22.30075    14.235163 
  455200    284.96421     59211360            0     59212470    12.683316    22.410353    14.179031    19.734012    33.265681    8.6195359    12.612127     22.30075    14.235163 
  455400    165.16916     59211252            0     59211895    12.683332    22.410352    14.178991    19.735617    33.265592    8.6155854    12.612127     22.30075    14.235163 
  455600     226.5839     59211244            0     59212126    12.683349    22.410351    14.178968    19.737376    33.265446    8.6132176    12.612127     22.30075    14.235163 
  455800    212.91071     59211356            0     59212185      12.6833    22.410358    14.179052    19.732456    33.266191    8.6216912    12.612127     22.30075    14.235163 
  456000    150.61742     59211480            0     59212067    12.683324    22.410346    14.178949    19.734866    33.264931    8.6113745    12.612127     22.30075    14.235163 
  456200    102.53654     59210664            0     59211063    12.683315    22.410361    14.178959    19.733948    33.266496    8.6123432    12.612127     22.30075    14.235163 
  456400     241.2976     59210974            0     59211913    12.683315    22.410353    14.179054    19.733963    33.265685      8.62188    12.612127     22.30075    14.235163 
  456600     285.7483     59211926            0     59213038    12.683314    22.410353    14.178892    19.733845    33.265691    8.6056196    12.612127     22.30075    14.235163 
  456800     223.1657     59211619            0     59212488    12.683328     22.41033    14.178919     19.73529    33.263309    8.6083519    12.612127     22.30075    14.235163 
  457000    260.98335     59211712            0     59212728    12.683337    22.410352    14.178905    19.736101    33.265566    8.6069423    12.612127     22.30075    14.235163 
  457200    191.72818     59211731            0     59212477    12.683315    22.410352    14.178944    19.733997    33.265561    8.6108663    12.612127     22.30075    14.235163 
  457400    272.83871     59210912            0     59211974    12.683308    22.410354    14.178826    19.733244    33.265746    8.5990536    12.612127     22.30075    14.235163 
  457600    107.29324     59211300            0     59211718    12.683316    22.410353    14.179159    19.734012    33.265682    8.6324042    12.612127     22.30075    14.235163 
  457800    379.74283     59210809            0     59212288    12.683315    22.410378    14.179163    19.733984    33.268188    8.6327273    12.612127     22.30075    14.235163 
  458000    94.517442     59211103            0     59211471    12.683315    22.410358     14.17876    19.733939    33.266122    8.5924285    12.612127     22.30075    14.235163 
  458200    179.42205     59211525            0     59212224    12.683319    22.410358    14.178799    19.734369    33.266188    8.5964018    12.612127     22.30075    14.235163 
  458400    90.315465     59212013            0     59212365    12.683309    22.410366    14.178983    19.733367    33.266961    8.6147941    12.612127     22.30075    14.235163 
  458600    142.23769     59210213            0     59210766    12.683361    22.410365     14.17902    19.738516     33.26683    8.6184457    12.612127     22.30075    14.235163 
  458800    87.162673     59211692            0     59212031     12.68332    22.410377    14.179124    19.734442    33.268081    8.6288901    12.612127     22.30075    14.235163 
  459000    155.36818     59211031            0     59211636    12.683331    22.410333    14.178949    19.735501    33.263615    8.6113612    12.612127     22.30075    14.235163 
  459200    141.59267     59210895            0     59211446    12.683316    22.410353    14.178815    19.734021    33.265692    8.5979038    12.612127     22.30075    14.235163 
  459400    124.48329     59211390            0     59211875    12.683324    22.410326    14.179009     19.73482    33.262923    8.6173877    12.612127     22.30075    14.235163 
  459600    262.78254     59211830            0     59212853    12.683322    22.410346    14.179085    19.734693    33.265004    8.6249385    12.612127     22.30075    14.235163 
  459800    211.48993     59211379            0     59212203     12.68331    22.410344    14.178665    19.733462    33.264763     8.582977    12.612127     22.30075    14.235163 
  460000    173.77435     59212008            0     59212685    12.683325    22.410389    14.179095    19.734976    33.269239    8.6259429    12.612127     22.30075    14.235163 
  460200    156.88915     59211528            0     59212139    12.683318    22.410356     14.17905    19.734244     33.26598    8.6214919    12.612127     22.30075    14.235163 
  460400    211.17869     59211584            0     59212406     12.68336    22.410369    14.179151     19.73847    33.267242    8.6316028    12.612127     22.30075    14.235163 
  460600    174.78099     59212134            0     59212814     12.68333    22.410352    14.178892    19.735446    33.265602    8.6056448    12.612127     22.30075    14.235163 
  460800    143.64716     59211654            0     59212213    12.683316    22.410353    14.179149    19.734014    33.265683    8.6313455    12.612127     22.30075    14.235163 
  461000    256.24994     59211785            0     59212782    12.683317    22.410354    14.179199    19.734112    33.265735    8.6363687    12.612127     22.30075    14.235163 
  461200    312.31879     59211191            0     59212407    12.683278    22.410355     14.17891    19.730244    33.265889    8.6074739    12.612127     22.30075    14.235163 
  461400    195.61531     59210847            0     59211609    12.683319     22.41033    14.178983    19.734329    33.263363    8.6147876    12.612127     22.30075    14.235163 
  461600    355.71377     59211367            0     59212752    12.683296    22.410324    14.178831    19.732082    33.262768    8.5995605    12.612127     22.30075    14.235163 
  461800    283.20067     59212132            0     59213234    12.683316    22.410353     14.17875    19.734013    33.265682    8.5914604    12.612127     22.30075    14.235163 
  462000    294.30887     59211190            0     59212336    12.683306     22.41035    14.178854    19.733057    33.265353     8.601863    12.612127     22.30075    14.235163 
  462200     233.3449     59210452            0     59211361    12.683303    22.410352    14.179164    19.732772     33.26551    8.6328517    12.612127     22.30075    14.235163 
  462400    153.68838     59211080            0     59211678    12.683309    22.410354    14.178943    19.733383    33.265776    8.6107848    12.612127     22.30075    14.235163 
  462600    197.95262     59210786            0     59211556    12.683316    22.410353    14.178986    19.734022    33.265675    8.6150971    12.612127     22.30075    14.235163 
  462800    95.671022     59211150            0     59211523    12.683316    22.410353    14.178864    19.734012    33.265681    8.6028078    12.612127     22.30075    14.235163 
  463000    253.10038     59211155            0     59212140     12.68331    22.410349    14.178953    19.733421    33.265278    8.6117624    12.612127     22.30075    14.235163 
  463200    153.75127     59211164            0     59211762    12.683353    22.410342    14.178749    19.737738    33.264606    8.5913043    12.612127     22.30075    14.235163 
  463400     231.2542     59210889            0     59211789    12.683345    22.410339    14.179109    19.736926    33.264274    8.6273692    12.612127     22.30075    14.235163 
  463600    207.48546     59210268            0     59211076    12.683288    22.410338    14.179079    19.731258    33.264173    8.6243387    12.612127     22.30075    14.235163 
  463800    193.51849     59211481            0     59212235    12.683317    22.410356     14.17896    19.734164    33.265938    8.6124139    12.612127     22.30075    14.235163 
  464000    168.60718     59212028            0     59212684    12.683324    22.410365    14.178722    19.734804    33.266893    8.5886166    12.612127     22.30075    14.235163 
  464200    240.05342     59211170            0     59212104     12.68333    22.410359    14.179052    19.735496     33.26626    8.6216241    12.612127     22.30075    14.235163 
  464400    147.35787     59211612            0     59212185    12.683318    22.410351    14.178918    19.734251    33.265503    8.6083003    12.612127     22.30075    14.235163 
  464600    198.04941     59210710            0     59211481    12.683314    22.410357    14.178898    19.733809    33.266089    8.6062509    12.612127     22.30075    14.235163 
  464800    256.78094     59210190            0     59211190    12.683319    22.410357    14.178992     19.73435     33.26608    8.6156788    12.612127     22.30075    14.235163 
  465000    205.74999     59212013            0     59212814    12.683311    22.410345    14.178975    19.733515    33.264873    8.6139231    12.612127     22.30075    14.235163 
  465200    298.08507     59211692            0     59212852    12.683292    22.410353    14.178821    19.731663      33.2657     8.598507    12.612127     22.30075    14.235163 
  465400    280.37895     59210897            0     59211989    12.683321    22.410368    14.178836    19.734535    33.267192    8.6000372    12.612127     22.30075    14.235163 
  465600    207.77387     59212472            0     59213281    12.683316    22.410353    14.178773    19.734054    33.265703    8.5937794    12.612127     22.30075    14.235163 
  465800    257.49655     59211337            0     59212339     12.68334    22.410328    14.179113    19.736442     33.26313     8.627728    12.612127     22.30075    14.235163 
  466000    266.02023     59211674            0     59212710    12.683317    22.410357    14.178969    19.734168    33.266053    8.6133977    12.612127     22.30075    14.235163 
  466200    169.57395     59211695            0     59212355    12.683321    22.410358    14.179095    19.734517    33.266158    8.6260014    12.612127     22.30075    14.235163 
  466400    130.59749     59211128            0     59211637    12.683343    22.410354    14.179068    19.736722    33.265801    8.6232205    12.612127     22.30075    14.235163 
  466600    179.18008     59212309            0     59213006    12.683333    22.410352    14.178911    19.735732    33.265587    8.6075472    12.612127     22.30075    14.235163 
  466800    340.03527     59211404            0     59212728    12.683316     22.41036    14.179015    19.734017    33.266372    8.6180101    12.612127     22.30075    14.235163 
  467000    119.42565     59211079            0     59211544    12.683307    22.410355    14.179038     19.73313    33.265856    8.6202768    12.612127     22.30075    14.235163 
  467200    164.34753     59210860            0     59211499    12.683316    22.410353    14.178907    19.734062    33.265679    8.6071522    12.612127     22.30075    14.235163 
  467400     342.7251     59211328            0     59212662    12.683311    22.410357    14.179043    19.733553    33.266081    8.6207793    12.612127     22.30075    14.235163 
  467600    207.32071     59211797            0     59212604    12.683309    22.410336    14.178839    19.733322    33.263942    8.6003464    12.612127     22.30075    14.235163 
  467800    250.89085     59211594            0     59212571    12.683316    22.410352    14.178849    19.734085    33.265585     8.601367    12.612127     22.30075    14.235163 
  468000    128.22638     59211705            0     59212204    12.683289    22.410355    14.179306    19.731331     33.26583    8.6470287    12.612127     22.30075    14.235163 
  468200    151.85969     59211026            0     59211617    12.683316    22.410357    14.179022    19.734072    33.266075    8.6186801    12.612127     22.30075    14.235163 
  468400    221.56577     59211278            0     59212140    12.683336    22.410331    14.178914    19.736097    33.263446    8.6078623    12.612127     22.30075    14.235163 
  468600    166.04917     59211629            0     59212275    12.683312    22.410351    14.178808    19.733689    33.265499    8.5972574    12.612127     22.30075    14.235163 
  468800     181.9543     59211163            0     59211871    12.683358    22.410344    14.179024    19.738215    33.264766    8.6188994    12.612127     22.30075    14.235163 
  469000    197.77226     59211323            0     59212092    12.683338    22.410361    14.178919    19.736278      33.2665    8.6083589    12.612127     22.30075    14.235163 
  469200    111.66919     59211740            0     59212175    12.683315    22.410378    14.179218    19.733973    33.268121    8.6382933    12.612127     22.30075    14.235163 
  469400    277.66369     59211003            0     59212084      12.6833    22.410349     14.17885    19.732491    33.265284    8.6014408    12.612127     22.30075    14.235163 
  469600    194.83651     59212524            0     59213282    12.683284    22.410357    14.179132    19.730797    33.266009    8.6297024    12.612127     22.30075    14.235163 
  469800    63.669419     59211513            0     59211761    12.683332    22.410315    14.179174    19.735694    33.261847    8.6338397    12.612127     22.30075    14.235163 
  470000    198.54635     59211569            0     59212342    12.683293    22.410343    14.179131    19.731783    33.264636    8.6295556    12.612127     22.30075    14.235163 
  470200    113.07149     59211879            0     59212319    12.683306    22.410369    14.178929    19.732998    33.267227     8.609355    12.612127     22.30075    14.235163 
  470400    254.45583     59211715            0     59212705    12.683316    22.410352    14.179036    19.734061    33.265597    8.6201063    12.612127     22.30075    14.235163 
  470600    238.19774     59211659            0     59212586    12.683314     22.41035    14.178802    19.733826    33.265393    8.5966344    12.612127     22.30075    14.235163 
  470800    114.46914     59211856            0     59212301    12.683328    22.410353    14.179052    19.735211    33.265616    8.6216228    12.612127     22.30075    14.235163 
  471000    95.628149     59211910            0     59212282    12.683303    22.410361    14.178986    19.732716    33.266409    8.6150202    12.612127     22.30075    14.235163 
  471200     252.4135     59211505            0     59212488    12.683316    22.410353    14.179072    19.734009    33.265681    8.6236944    12.612127     22.30075    14.235163 
  471400    254.14096     59211167            0     59212156     12.68333    22.410378    14.179066    19.735432    33.268163    8.6230892    12.612127     22.30075    14.235163 
  471600    165.01387     59212664            0     59213307    12.683316    22.410353    14.178869    19.734045     33.26568    8.6033532    12.612127     22.30075    14.235163 
  471800    166.22543     59212162            0     59212809    12.683323    22.410353    14.178961    19.734699    33.265644    8.6126012    12.612127     22.30075    14.235163 
  472000    394.11961     59211819            0     59213354     12.68331    22.410365    14.178633    19.733419    33.266857    8.5797822    12.612127     22.30075    14.235163 
  472200    204.94636     59211568            0     59212366    12.683316    22.410353    14.178733    19.734009    33.265685     8.589754    12.612127     22.30075    14.235163 
  472400    164.32933     59211164            0     59211804    12.683347    22.410356    14.179019    19.737139    33.265922    8.6184064    12.612127     22.30075    14.235163 
  472600    235.98101     59210975            0     59211894    12.683321    22.410362    14.178716    19.734585    33.266585    8.5880039    12.612127     22.30075    14.235163 
  472800     180.1447     59211269            0     59211970    12.683315    22.410354    14.179048    19.733936    33.265757    8.6212839    12.612127     22.30075    14.235163 
  473000    222.73458     59211820            0     59212687    12.683266    22.410381    14.178759    19.729061    33.268497    8.5923029    12.612127     22.30075    14.235163 
  473200    172.47736     59211604            0     59212275    12.683336    22.410385    14.179009    19.736072     33.26891     8.617336    12.612127     22.30075    14.235163 
  473400     177.3643     59211390            0     59212081    12.683322    22.410374    14.179021    19.734622    33.267724    8.6185919    12.612127     22.30075    14.235163 
  473600    313.01622     59211821            0     59213040    12.683303    22.410347      14.1788    19.732753    33.265068    8.5964629    12.612127     22.30075    14.235163 
  473800    105.43759     59211687            0     59212098    12.683334    22.410352    14.178827    19.735867    33.265515    8.5991502    12.612127     22.30075    14.235163 
  474000     291.7097     59212040            0     59213175    12.683328    22.410353    14.178654    19.735248    33.265615    8.5818584    12.612127     22.30075    14.235163 
  474200     197.5344     59210398            0     59211167    12.683335    22.410323    14.178916    19.735983    33.262616    8.6080082    12.612127     22.30075    14.235163 
  474400    319.29868     59211114            0     59212357    12.683317    22.410354    14.178905    19.734119    33.265712    8.6070054    12.612127     22.30075    14.235163 
  474600    154.75279     59211794            0     59212397    12.683306    22.410354    14.178756    19.733079    33.265733    8.5920511    12.612127     22.30075    14.235163 
  474800    177.99115     59211204            0     59211897    12.683367    22.410356    14.178885    19.739115    33.265993    8.6050027    12.612127     22.30075    14.235163 
  475000    244.30387     59210683            0     59211634    12.683315    22.410353    14.179056    19.733905    33.265681    8.6220561    12.612127     22.30075    14.235163 
  475200    167.30485     59211276            0     59211927    12.683323    22.410353    14.179239    19.734775    33.265639    8.6404179    12.612127     22.30075    14.235163 
  475400    226.83255     59211884            0     59212767    12.683342    22.410346    14.179102    19.736674    33.264968    8.6266823    12.612127     22.30075    14.235163 
  475600     297.8194     59211485            0     59212645    12.683327    22.410334    14.179104    19.735107    33.263713    8.6268638    12.612127     22.30075    14.235163 
  475800    196.05982     59210881            0     59211645    12.683294    22.410368    14.178955    19.731831    33.267193    8.6119911    12.612127     22.30075    14.235163 
  476000    133.45278     59211682            0     59212201    12.683318    22.410353    14.179034    19.734211    33.265622    8.6198347    12.612127     22.30075    14.235163 
  476200    296.55499     59210649            0     59211803    12.683315    22.410355    14.178895    19.733934    33.265836    8.6059902    12.612127     22.30075    14.235163 
  476400    261.12869     59211506            0     59212522    12.683325    22.410367    14.178887    19.734917    33.267066    8.6052021    12.612127     22.30075    14.235163 
  476600    87.282802     59210863            0     59211203    12.683322    22.410341    14.179056    19.734639    33.264431    8.6220317    12.612127     22.30075    14.235163 
  476800     176.3336     59210888            0     59211574    12.683302    22.410343    14.178885    19.732599    33.264699    8.6049532    12.612127     22.30075    14.235163 
  477000    425.21159     59211757            0     59213412     12.68332    22.410368    14.178731    19.734411     33.26718    8.5895223    12.612127     22.30075    14.235163 
  477200    231.10874     59211786            0     59212686    12.683336    22.410336    14.179183    19.736003    33.263966    8.6348175    12.612127     22.30075    14.235163 
  477400     273.9326     59211846            0     59212912    12.683331    22.410354    14.179246    19.735589    33.265797    8.6410567    12.612127     22.30075    14.235163 
  477600    182.03387     59210698            0     59211406    12.683334    22.410349    14.178889    19.735831     33.26528    8.6053761    12.612127     22.30075    14.235163 
  477800    201.60025     59211452            0     59212236     12.68332    22.410358    14.179087    19.734452    33.266169    8.6251885    12.612127     22.30075    14.235163 
  478000    214.09591     59212043            0     59212876    12.683301    22.410367    14.179184    19.732591    33.267092    8.6349173    12.612127     22.30075    14.235163 
  478200    244.53192     59211630            0     59212582    12.683322    22.410339    14.179084    19.734667    33.264247    8.6249134    12.612127     22.30075    14.235163 
  478400    138.01361     59211254            0     59211791    12.683317    22.410351    14.178994    19.734171    33.265418    8.6158313    12.612127     22.30075    14.235163 
  478600    176.34706     59211823            0     59212510    12.683325    22.410351    14.178996    19.734982    33.265449    8.6160756    12.612127     22.30075    14.235163 
  478800    197.06446     59211491            0     59212258    12.683322    22.410363    14.178946    19.734629    33.266616    8.6110241    12.612127     22.30075    14.235163 
  479000    116.50511     59210931            0     59211384    12.683326    22.410364    14.178959    19.735091     33.26671    8.6123141    12.612127     22.30075    14.235163 
  479200    120.71738     59212069            0     59212539    12.683319    22.410343    14.179161    19.734347    33.264686    8.6325739    12.612127     22.30075    14.235163 
  479400     97.60764     59210591            0     59210971    12.683326    22.410389    14.178921    19.735095    33.269214    8.6085846    12.612127     22.30075    14.235163 
  479600    167.93769     59211625            0     59212279    12.683316    22.410343     14.17909     19.73404     33.26467    8.6254944    12.612127     22.30075    14.235163 
  479800    257.98265     59210643            0     59211647    12.683299    22.410354    14.179075    19.732303    33.265763    8.6239587    12.612127     22.30075    14.235163 
  480000    213.71823     59211039            0     59211871    12.683342    22.410325    14.178875    19.736599    33.262865    8.6039167    12.612127     22.30075    14.235163 
  480200    190.18505     59211928            0     59212668    12.683302    22.410355    14.179097    19.732638    33.265824    8.6262105    12.612127     22.30075    14.235163 
  480400    132.26609     59211545            0     59212060    12.683312    22.410329    14.179035    19.733637    33.263247    8.6199489    12.612127     22.30075    14.235163 
  480600    313.83103     59210820            0     59212042    12.683316    22.410353    14.179062    19.734013    33.265682    8.6226839    12.612127     22.30075    14.235163 
  480800    328.90413     59210730            0     59212011    12.683287    22.410358    14.178992    19.731194    33.266132    8.6156927    12.612127     22.30075    14.235163 
  481000    166.52288     59210690            0     59211338    12.683313     22.41036    14.179087    19.733761    33.266375       8.6252    12.612127     22.30075    14.235163 
  481200    136.50888     59211357            0     59211889    12.683298    22.410357    14.178735    19.732247     33.26601    8.5899736    12.612127     22.30075    14.235163 
  481400    268.35847     59212275            0     59213319    12.683322    22.410359    14.178834    19.734633    33.266239     8.599871    12.612127     22.30075    14.235163 
  481600    196.22895     59211535            0     59212299    12.683316    22.410353    14.178866    19.734011    33.265672    8.6030069    12.612127     22.30075    14.235163 
  481800    212.47847     59211767            0     59212595    12.683298    22.410354    14.178999    19.732202    33.265807    8.6163397    12.612127     22.30075    14.235163 
  482000     255.2156     59210844            0     59211838    12.683319    22.410346    14.178789    19.734384    33.264947    8.5953935    12.612127     22.30075    14.235163 
  482200    233.18803     59211310            0     59212218    12.683295    22.410346    14.179196    19.731936    33.264974    8.6360196    12.612127     22.30075    14.235163 
  482400    93.845329     59211982            0     59212348    12.683289    22.410313    14.178896    19.731358    33.261618    8.6060641    12.612127     22.30075    14.235163 
  482600    202.78524     59211979            0     59212768      12.6833    22.410364    14.178842    19.732426    33.266782     8.600667    12.612127     22.30075    14.235163 
  482800     175.6536     59211257            0     59211940    12.683283    22.410356    14.179075    19.730761    33.266005     8.624011    12.612127     22.30075    14.235163 
  483000    417.04578     59211602            0     59213226    12.683322    22.410331    14.179039    19.734642    33.263485    8.6203399    12.612127     22.30075    14.235163 
  483200    157.68535     59210863            0     59211477    12.683317    22.410374    14.179034    19.734125    33.267734     8.619817    12.612127     22.30075    14.235163 
  483400     244.0761     59211555            0     59212505    12.683322    22.410346    14.179072    19.734606    33.264942    8.6237116    12.612127     22.30075    14.235163 
  483600     211.9845     59211673            0     59212498    12.683344    22.410352     14.17891    19.736889    33.265523    8.6074438    12.612127     22.30075    14.235163 
  483800    218.89629     59211355            0     59212207    12.683326    22.410354     14.17899    19.735021    33.265715    8.6154185    12.612127     22.30075    14.235163 
  484000    381.68128     59211463            0     59212949    12.683271    22.410364    14.178939    19.729556    33.266777    8.6103178    12.612127     22.30075    14.235163 
  484200    319.98324     59211732            0     59212978    12.683316    22.410353    14.178901    19.734053    33.265646    8.6065104    12.612127     22.30075    14.235163 
  484400    149.87357     59211015            0     59211598    12.683301    22.410357    14.178935    19.732557    33.266103    8.6099756    12.612127     22.30075    14.235163 
  484600    311.75899     59212077            0     59213290     12.68332    22.410344    14.179017    19.734497    33.264727    8.6181327    12.612127     22.30075    14.235163 
  484800    66.899969     59211470            0     59211730    12.683314    22.410339    14.178826    19.733839    33.264287    8.5990265    12.612127     22.30075    14.235163 
  485000    128.86899     59210882            0     59211384    12.683316    22.410354    14.178908    19.733997     33.26571    8.6072754    12.612127     22.30075    14.235163 
  485200    149.54581     59211259            0     59211842    12.683299    22.410364    14.178878    19.732343    33.266785    8.6042574    12.612127     22.30075    14.235163 
  485400    159.73013     59211471            0     59212093    12.683324    22.410347    14.178919     19.73487    33.265018    8.6083599    12.612127     22.30075    14.235163 
  485600    148.96338     59211711            0     59212291    12.683316    22.410353    14.178865    19.734015    33.265674     8.602966    12.612127     22.30075    14.235163 
  485800    162.52143     59211760            0     59212392    12.683314    22.410353    14.179125    19.733888    33.265675    8.6289827    12.612127     22.30075    14.235163 
  486000    241.82103     59211363            0     59212305    12.683329    22.410338    14.179097    19.735324     33.26414     8.626137    12.612127     22.30075    14.235163 
  486200    171.19984     59210592            0     59211259    12.683289    22.410359    14.179004    19.731319    33.266216    8.6168764    12.612127     22.30075    14.235163 
  486400    379.29596     59211552            0     59213028    12.683331    22.410352    14.178808    19.735555    33.265545    8.5972032    12.612127     22.30075    14.235163 
  486600    156.83417     59210554            0     59211165    12.683309    22.410354    14.178913    19.733365    33.265754    8.6077452    12.612127     22.30075    14.235163 
  486800     245.6648     59211711            0     59212667    12.683308    22.410377     14.17881    19.733208    33.268106    8.5974426    12.612127     22.30075    14.235163 
  487000    259.37094     59212196            0     59213206    12.683316    22.410353     14.17907    19.734073    33.265681    8.6234168    12.612127     22.30075    14.235163 
  487200    243.05466     59210955            0     59211901     12.68332    22.410353    14.178961    19.734482    33.265656    8.6125293    12.612127     22.30075    14.235163 
  487400    175.12877     59210823            0     59211505    12.683334    22.410338    14.178917     19.73584    33.264138    8.6081259    12.612127     22.30075    14.235163 
  487600    294.60039     59210943            0     59212090    12.683337    22.410349    14.178946    19.736165    33.265294      8.61109    12.612127     22.30075    14.235163 
  487800    196.29806     59210771            0     59211535    12.683314    22.410345    14.179013    19.733804    33.264872    8.6177372    12.612127     22.30075    14.235163 
  488000    341.73454     59211263            0     59212594    12.683327    22.410353    14.178889    19.735099    33.265633    8.6053492    12.612127     22.30075    14.235163 
  488200     84.67672     59212046            0     59212376    12.683302    22.410347    14.179243    19.732662    33.265058    8.6407887    12.612127     22.30075    14.235163 
  488400    185.71438     59211635            0     59212358    12.683303     22.41036    14.179135    19.732781     33.26632    8.6299501    12.612127     22.30075    14.235163 
  488600    167.01422     59211898            0     59212548    12.683312    22.410361    14.178686    19.733656    33.266466    8.5850113    12.612127     22.30075    14.235163 
  488800    298.70547     59211461            0     59212624    12.683318    22.410353    14.178873     19.73428    33.265638    8.6037673    12.612127     22.30075    14.235163 
  489000    206.53767     59211759            0     59212563    12.683318     22.41035    14.179116    19.734217     33.26534    8.6280513    12.612127     22.30075    14.235163 
  489200    111.61231     59211113            0     59211547    12.683316    22.410353    14.178934    19.734012    33.265681    8.6098581    12.612127     22.30075    14.235163 
  489400    210.23113     59211324            0     59212143    12.683336    22.410374    14.179037       19.736    33.267792    8.6201834    12.612127     22.30075    14.235163 
  489600    203.76524     59211124            0     59211917    12.683277    22.410347    14.179108    19.730192     33.26505    8.6272653    12.612127     22.30075    14.235163 
  489800    283.59982     59212848            0     59213952    12.683329    22.410373    14.179063     19.73531    33.267668    8.6228065    12.612127     22.30075    14.235163 
  490000    258.14548     59211987            0     59212992    12.683303    22.410331    14.179226    19.732711    33.263495    8.6390746    12.612127     22.30075    14.235163 
  490200    207.38018     59211321            0     59212128    12.683324    22.410346    14.179003    19.734889    33.264996    8.6168073    12.612127     22.30075    14.235163 
  490400    223.66987     59211315            0     59212186    12.683321    22.410358    14.178757    19.734548    33.266171    8.5921179    12.612127     22.30075    14.235163 
  490600    104.33375     59211825            0     59212231    12.683316    22.410353    14.178949    19.734016    33.265682    8.6114028    12.612127     22.30075    14.235163 
  490800    226.01614     59211315            0     59212195    12.683314    22.410356    14.179101    19.733859     33.26596    8.6265511    12.612127     22.30075    14.235163 
  491000    197.34291     59211246            0     59212014    12.683312     22.41031    14.178895    19.733616    33.261373    8.6059348    12.612127     22.30075    14.235163 
  491200    244.23418     59211474            0     59212425    12.683299    22.410328    14.179052    19.732365    33.263155    8.6216886    12.612127     22.30075    14.235163 
  491400    132.01257     59211201            0     59211715    12.683309    22.410353    14.179098    19.733321    33.265696    8.6263024    12.612127     22.30075    14.235163 
  491600     221.7476     59211219            0     59212082    12.683344    22.410366    14.179233    19.736804    33.266921     8.639747    12.612127     22.30075    14.235163 
  491800    190.90209     59211585            0     59212328    12.683329    22.410368    14.178983    19.735339     33.26714    8.6147586    12.612127     22.30075    14.235163 
  492000    140.20344     59211425            0     59211971    12.683316    22.410353    14.179126    19.734012    33.265682    8.6290736    12.612127     22.30075    14.235163 
  492200    160.04056     59211686            0     59212309    12.683336    22.410341    14.179018    19.736021    33.264497    8.6182552    12.612127     22.30075    14.235163 
  492400    163.82765     59212232            0     59212870    12.683353    22.410344    14.179139    19.737724    33.264796     8.630411    12.612127     22.30075    14.235163 
  492600    182.11343     59211411            0     59212120    12.683336    22.410361    14.178834     19.73607    33.266498     8.599887    12.612127     22.30075    14.235163 
  492800    249.45676     59210746            0     59211718    12.683323    22.410379     14.17896    19.734717    33.268244    8.6124409    12.612127     22.30075    14.235163 
  493000    220.98275     59211890            0     59212750    12.683315    22.410353    14.178961    19.733988    33.265681    8.6125281    12.612127     22.30075    14.235163 
  493200    233.88889     59211470            0     59212381    12.683326    22.410354    14.178986    19.735072    33.265742    8.6150838    12.612127     22.30075    14.235163 
  493400     191.9499     59210608            0     59211355    12.683322    22.410343    14.178936    19.734599    33.264665    8.6100889    12.612127     22.30075    14.235163 
  493600    282.27998     59211731            0     59212830    12.683329    22.410342    14.178929    19.735376    33.264579    8.6093929    12.612127     22.30075    14.235163 
  493800    288.27949     59211099            0     59212221    12.683301    22.410381    14.179164    19.732533    33.268433    8.6328683    12.612127     22.30075    14.235163 
  494000    153.05237     59212548            0     59213144    12.683309    22.410343    14.178811    19.733378    33.264705    8.5975611    12.612127     22.30075    14.235163 
  494200    97.706566     59210965            0     59211346    12.683316    22.410353    14.179013    19.734012    33.265682    8.6177119    12.612127     22.30075    14.235163 
  494400    174.83198     59211156            0     59211836    12.683322    22.410372    14.178885    19.734651     33.26755    8.6049115    12.612127     22.30075    14.235163 
  494600    341.63597     59211641            0     59212971     12.68331     22.41033    14.179076    19.733462    33.263392     8.624099    12.612127     22.30075    14.235163 
  494800    330.24167     59211348            0     59212634    12.683315    22.410353    14.179007    19.733938    33.265685    8.6171108    12.612127     22.30075    14.235163 
  495000    212.28725     59211340            0     59212166    12.683315    22.410316    14.179085    19.733994     33.26194    8.6249238    12.612127     22.30075    14.235163 
  495200    378.35131     59211306            0     59212779    12.683317    22.410331    14.179114    19.734184     33.26344    8.6278304    12.612127     22.30075    14.235163 
  495400    252.53403     59211723            0     59212706    12.683309    22.410376    14.179201     19.73337    33.267929    8.6365379    12.612127     22.30075    14.235163 
  495600    220.90052     59212826            0     59213686    12.683319    22.410349    14.179249    19.734362    33.265297    8.6413995    12.612127     22.30075    14.235163 
  495800    106.66311     59212131            0     59212546    12.683287    22.410351    14.178971    19.731114    33.265446    8.6135826    12.612127     22.30075    14.235163 
  496000    216.92563     59211043            0     59211888    12.683295    22.410342       14.179    19.731933    33.264536    8.6164924    12.612127     22.30075    14.235163 
  496200    191.53073     59210605            0     59211350    12.683322    22.410362    14.179145      19.7346    33.266519    8.6309332    12.612127     22.30075    14.235163 
  496400    343.33999     59211626            0     59212962    12.683329    22.410299    14.178908    19.735321    33.260238    8.6072918    12.612127     22.30075    14.235163 
  496600    121.65025     59212008            0     59212481    12.683317    22.410357    14.178652    19.734115    33.266051    8.5816174    12.612127     22.30075    14.235163 
  496800    171.11958     59211207            0     59211873    12.683296    22.410419    14.178757    19.732096    33.272287    8.5921128    12.612127     22.30075    14.235163 
  497000     299.3394     59210861            0     59212026    12.683316    22.410353    14.179152    19.734008    33.265683    8.6316382    12.612127     22.30075    14.235163 
  497200    273.24583     59213115            0     59214178    12.683337     22.41034    14.178836    19.736118    33.264389    8.6001029    12.612127     22.30075    14.235163 
  497400      184.701     59210781            0     59211500    12.683316    22.410353    14.178958    19.734055    33.265679    8.6122493    12.612127     22.30075    14.235163 
  497600    140.41905     59210586            0     59211133    12.683305    22.410341    14.178848    19.732952    33.264482     8.601207    12.612127     22.30075    14.235163 
  497800    122.40713     59211366            0     59211843    12.683311    22.410349    14.179199    19.733572    33.265243    8.6363661    12.612127     22.30075    14.235163 
  498000    142.93654     59211946            0     59212502    12.683318    22.410369    14.179119    19.734297    33.267278    8.6283843    12.612127     22.30075    14.235163 
  498200    357.30044     59212102            0     59213493    12.683288    22.410346    14.178974    19.731211    33.264942    8.6138474    12.612127     22.30075    14.235163 
  498400    189.81766     59211133            0     59211871    12.683316    22.410353    14.178826     19.73403    33.265664    8.5990628    12.612127     22.30075    14.235163 
  498600    265.71858     59211644            0     59212678    12.683332    22.410352     14.17888    19.735606    33.265531    8.6044181    12.612127     22.30075    14.235163 
  498800    202.11228     59211822            0     59212609     12.68332    22.410353    14.178954    19.734431    33.265661    8.6118436    12.612127     22.30075    14.235163 
  499000    145.43556     59212140            0     59212706    12.683316     22.41035    14.179078    19.734092    33.265371    8.6242464    12.612127     22.30075    14.235163 
  499200    147.67759     59211301            0     59211876    12.683326    22.410369    14.179003    19.735041    33.267244     8.616796    12.612127     22.30075    14.235163 
  499400    256.26157     59211573            0     59212570    12.683317    22.410354    14.179051    19.734111    33.265728    8.6215367    12.612127     22.30075    14.235163 
  499600    243.20801     59211050            0     59211997    12.683306    22.410367    14.178821    19.733028    33.267052    8.5985475    12.612127     22.30075    14.235163 
  499800    400.42306     59211542            0     59213101    12.683322    22.410357     14.17877     19.73466    33.266058    8.5934424    12.612127     22.30075    14.235163 
  500000    266.41226     59210670            0     59211707    12.683334    22.410361    14.178909    19.735812    33.266453    8.6073749    12.612127     22.30075    14.235163 
  500200    202.85615     59211294            0     59212084    12.683292    22.410369    14.178919    19.731618    33.267259    8.6083694    12.612127     22.30075    14.235163 
  500400    214.72172     59210969            0     59211805    12.683308    22.410344     14.17903    19.733294    33.264786    8.6194438    12.612127     22.30075    14.235163 
  500600    153.89863     59210334            0     59210933    12.683294    22.410355    14.179052    19.731814    33.265881    8.6216989    12.612127     22.30075    14.235163 
  500800    180.50258     59211204            0     59211907    12.683327    22.410361    14.179119    19.735195    33.266421    8.6283862    12.612127     22.30075    14.235163 
  501000    160.12708     59210847            0     59211471    12.683303    22.410349    14.178953    19.732755    33.265244     8.611755    12.612127     22.30075    14.235163 
  501200    236.37095     59209667            0     59210587    12.683324    22.410366    14.178991    19.734819    33.266918    8.6155325    12.612127     22.30075    14.235163 
  501400    331.60478     59212256            0     59213547    12.683287    22.410327    14.179054    19.731192    33.263098    8.6218495    12.612127     22.30075    14.235163 
  501600     338.5682     59211826            0     59213144     12.68333    22.410375    14.179114    19.735415    33.267829    8.6278199    12.612127     22.30075    14.235163 
  501800    147.00615     59211797            0     59212369    12.683318    22.410347     14.17889    19.734226    33.265045    8.6054504    12.612127     22.30075    14.235163 
  502000    258.77044     59211339            0     59212346    12.683288     22.41038     14.17892    19.731265    33.268356    8.6084898    12.612127     22.30075    14.235163 
  502200    238.13845     59210918            0     59211845    12.683293     22.41035    14.179056    19.731716    33.265398    8.6220544    12.612127     22.30075    14.235163 
  502400    173.41562     59211347            0     59212022    12.683329    22.410379    14.178801    19.735348    33.268289     8.596537    12.612127     22.30075    14.235163 
  502600    254.17723     59212048            0     59213037    12.683346    22.410352    14.178973    19.737085    33.265546    8.6137868    12.612127     22.30075    14.235163 
  502800    249.88475     59211654            0     59212627    12.683302    22.410367    14.179167    19.732618    33.267083    8.6331397    12.612127     22.30075    14.235163 
  503000    294.76056     59210670            0     59211817     12.68329    22.410355    14.178891    19.731418    33.265829    8.6055336    12.612127     22.30075    14.235163 
  503200    98.504774     59211786            0     59212169    12.683328    22.410327    14.179015    19.735215    33.263022    8.6179322    12.612127     22.30075    14.235163 
  503400    229.15677     59211960            0     59212852    12.683316    22.410353    14.178918    19.734013    33.265682    8.6082636    12.612127     22.30075    14.235163 
  503600    266.60781     59211243            0     59212281    12.683318    22.410356    14.178766    19.734248    33.265913    8.5930246    12.612127     22.30075    14.235163 
  503800    329.06862     59211501            0     59212782     12.68336    22.410351    14.179129    19.738496    33.265436    8.6293286    12.612127     22.30075    14.235163 
  504000    231.57382     59211608            0     59212509    12.683304    22.410347    14.179144    19.732804    33.265074    8.6308553    12.612127     22.30075    14.235163 
  504200    241.31144     59212653            0     59213593    12.683319    22.410353    14.179086    19.734336    33.265685    8.6250583    12.612127     22.30075    14.235163 
  504400    260.34359     59211480            0     59212493    12.683316    22.410353     14.17906    19.734006    33.265697    8.6224821    12.612127     22.30075    14.235163 
  504600    170.10017     59211634            0     59212296    12.683315    22.410353    14.178858    19.733929    33.265687    8.6022204    12.612127     22.30075    14.235163 
  504800    273.55862     59211010            0     59212075    12.683315    22.410353    14.178733    19.733993    33.265612     8.589755    12.612127     22.30075    14.235163 
  505000    236.00597     59212176            0     59213095    12.683318    22.410349     14.17913    19.734223    33.265265    8.6294255    12.612127     22.30075    14.235163 
  505200    215.24494     59212227            0     59213065    12.683316    22.410353    14.178792    19.734013    33.265682    8.5956059    12.612127     22.30075    14.235163 
  505400    418.17836     59211176            0     59212803     12.68331    22.410378    14.179215    19.733487    33.268147    8.6379855    12.612127     22.30075    14.235163 
  505600    263.80233     59210726            0     59211753    12.683312    22.410365    14.179019    19.733649    33.266821    8.6183919    12.612127     22.30075    14.235163 
  505800    147.89727     59212085            0     59212661    12.683363    22.410361    14.178938    19.738719    33.266465    8.6102868    12.612127     22.30075    14.235163 
  506000    167.69218     59211970            0     59212623    12.683279    22.410355    14.179002    19.730375    33.265885    8.6166245    12.612127     22.30075    14.235163 
  506200    324.35024     59210713            0     59211976    12.683332    22.410323    14.178993    19.735637    33.262621     8.615785    12.612127     22.30075    14.235163 
  506400    138.37296     59211308            0     59211847    12.683317    22.410331    14.179016    19.734115    33.263426    8.6180245    12.612127     22.30075    14.235163 
  506600    201.97537     59212720            0     59213506    12.683323    22.410353     14.17929    19.734792    33.265629    8.6455192    12.612127     22.30075    14.235163 
  506800    202.21901     59210959            0     59211746    12.683306     22.41034    14.178707    19.733033    33.264404    8.5871663    12.612127     22.30075    14.235163 
  507000    190.49985     59211103            0     59211844    12.683316    22.410353    14.178988    19.734038    33.265681    8.6152336    12.612127     22.30075    14.235163 
  507200     158.8863     59211303            0     59211921    12.683325    22.410361    14.178998    19.734925    33.266456    8.6162557    12.612127     22.30075    14.235163 
  507400    194.48773     59211012            0     59211769    12.683307    22.410342    14.179033    19.733186    33.264518    8.6197981    12.612127     22.30075    14.235163 
  507600    220.58288     59210987            0     59211846    12.683308    22.410335    14.179114    19.733205    33.263898    8.6278776    12.612127     22.30075    14.235163 
  507800    373.68483     59212809            0     59214264    12.683317     22.41035    14.178624     19.73415    33.265389    8.5788914    12.612127     22.30075    14.235163 
  508000    118.32003     59211316            0     59211777    12.683275    22.410359    14.178827    19.729974     33.26621    8.5991913    12.612127     22.30075    14.235163 
  508200    255.15858     59212402            0     59213396    12.683316    22.410353    14.179024     19.73402    33.265682    8.6188134    12.612127     22.30075    14.235163 
  508400    235.07557     59211255            0     59212170     12.68332    22.410372     14.17891     19.73445    33.267597    8.6075005    12.612127     22.30075    14.235163 
  508600    149.71872     59210629            0     59211212    12.683283    22.410337     14.17889    19.730737    33.264024    8.6055017    12.612127     22.30075    14.235163 
  508800    314.39383     59210710            0     59211934    12.683316    22.410353    14.179019    19.734016    33.265682    8.6183727    12.612127     22.30075    14.235163 
  509000    234.60232     59212171            0     59213085    12.683307    22.410368    14.178943    19.733123    33.267129    8.6107863    12.612127     22.30075    14.235163 
  509200    198.69717     59211678            0     59212451    12.683315    22.410353    14.179037    19.733969    33.265642    8.6201414    12.612127     22.30075    14.235163 
  509400     159.4972     59210077            0     59210698    12.683316    22.410353    14.178858    19.734021    33.265664    8.6022501    12.612127     22.30075    14.235163 
  509600     284.2433     59211300            0     59212407    12.683306    22.410356    14.178869    19.733026    33.265928    8.6033165    12.612127     22.30075    14.235163 
  509800    229.34691     59211722            0     59212615    12.683316    22.410353    14.179139     19.73401    33.265686    8.6303915    12.612127     22.30075    14.235163 
  510000    263.99022     59212595            0     59213623    12.683332    22.410371    14.178939     19.73563    33.267479    8.6103335    12.612127     22.30075    14.235163 
  510200    161.68474     59211997            0     59212626    12.683343    22.410358    14.178815    19.736744     33.26615    8.5979466    12.612127     22.30075    14.235163 
  510400    355.30111     59211244            0     59212627    12.683316    22.410354    14.179004    19.734062    33.265761    8.6168728    12.612127     22.30075    14.235163 
  510600    261.31696     59210994            0     59212011    12.683315    22.410354    14.178825    19.733983    33.265741    8.5989784    12.612127     22.30075    14.235163 
  510800    274.27066     59211954            0     59213022    12.683304    22.410368    14.178873    19.732812    33.267188     8.603776    12.612127     22.30075    14.235163 
  511000    320.39756     59211101            0     59212348    12.683323    22.410349    14.178884    19.734752     33.26521    8.6048075    12.612127     22.30075    14.235163 
  511200    268.83193     59212219            0     59213266    12.683318    22.410353    14.179154     19.73427    33.265667    8.6318481    12.612127     22.30075    14.235163 
  511400    183.58151     59212676            0     59213391    12.683316    22.410354    14.179265    19.734048    33.265752    8.6429462    12.612127     22.30075    14.235163 
  511600    177.60069     59210745            0     59211436    12.683316    22.410353    14.178998    19.734012    33.265682    8.6162482    12.612127     22.30075    14.235163 
  511800    272.18268     59211253            0     59212313    12.683305    22.410335    14.179093    19.732942    33.263887    8.6257823    12.612127     22.30075    14.235163 
  512000    343.13623     59211803            0     59213139    12.683297    22.410307    14.179153    19.732191    33.261072    8.6317671    12.612127     22.30075    14.235163 
  512200    190.25996     59210992            0     59211733    12.683321    22.410353    14.178783    19.734523    33.265654    8.5947504    12.612127     22.30075    14.235163 
  512400    155.11659     59211067            0     59211671     12.68333    22.410378    14.178852    19.735406    33.268141    8.6016743    12.612127     22.30075    14.235163 
  512600    274.88334     59212045            0     59213115    12.683316    22.410353    14.178937    19.734017    33.265682    8.6102071    12.612127     22.30075    14.235163 
  512800    204.13964     59211308            0     59212102    12.683301    22.410354     14.17899    19.732587    33.265803     8.615414    12.612127     22.30075    14.235163 
  513000     167.4055     59211192            0     59211844    12.683318    22.410372    14.179042    19.734267    33.267576    8.6206276    12.612127     22.30075    14.235163 
  513200    275.05336     59210288            0     59211359    12.683288    22.410355    14.178924      19.7312    33.265844    8.6088832    12.612127     22.30075    14.235163 
  513400    173.43489     59212269            0     59212944    12.683313    22.410355    14.178616    19.733779    33.265809    8.5779984    12.612127     22.30075    14.235163 
  513600    213.86301     59212220            0     59213052    12.683316    22.410353    14.178914    19.734011    33.265684    8.6078618    12.612127     22.30075    14.235163 
  513800    428.97032     59211064            0     59212734    12.683315    22.410382    14.179049    19.733977    33.268555    8.6213562    12.612127     22.30075    14.235163 
  514000    160.09611     59212063            0     59212687    12.683297    22.410325    14.178798    19.732164    33.262853     8.596211    12.612127     22.30075    14.235163 
  514200    90.616746     59210997            0     59211350    12.683305    22.410354    14.179005    19.732963     33.26574    8.6169768    12.612127     22.30075    14.235163 
  514400    166.95595     59211562            0     59212212    12.683303    22.410379    14.178918     19.73272    33.268235     8.608255    12.612127     22.30075    14.235163 
  514600    296.61263     59211119            0     59212273     12.68331     22.41036    14.178838    19.733405    33.266324    8.6002932    12.612127     22.30075    14.235163 
  514800    165.13644     59211283            0     59211926    12.683316    22.410353    14.178982    19.734004     33.26567    8.6146521    12.612127     22.30075    14.235163 
  515000    278.73903     59211207            0     59212292    12.683334    22.410351    14.178902    19.735835    33.265448    8.6066484    12.612127     22.30075    14.235163 
  515200    195.89085     59211237            0     59211999    12.683264    22.410377    14.178822    19.728857    33.268025    8.5986317    12.612127     22.30075    14.235163 
  515400    218.80103     59211127            0     59211979    12.683294    22.410346     14.17902    19.731885    33.264943    8.6184352    12.612127     22.30075    14.235163 
  515600     213.2355     59210701            0     59211531    12.683316    22.410353    14.179056    19.734011    33.265682    8.6220264    12.612127     22.30075    14.235163 
  515800    247.21184     59211240            0     59212202    12.683309    22.410353    14.179042    19.733367    33.265655    8.6206513    12.612127     22.30075    14.235163 
  516000    162.83632     59211810            0     59212443     12.68331    22.410364    14.178927    19.733461    33.266773     8.609112    12.612127     22.30075    14.235163 
  516200     99.48133     59211743            0     59212130    12.683358    22.410322    14.178896    19.738297    33.262602     8.606012    12.612127     22.30075    14.235163 
  516400    223.71885     59211351            0     59212222     12.68329    22.410381     14.17885    19.731473    33.268444    8.6014831    12.612127     22.30075    14.235163 
  516600     116.9714     59211852            0     59212307     12.68331    22.410362    14.178704    19.733423    33.266536    8.5868076    12.612127     22.30075    14.235163 
  516800    280.06155     59211497            0     59212587    12.683292    22.410341    14.178847    19.731645    33.264408     8.601125    12.612127     22.30075    14.235163 
  517000    151.30002     59211946            0     59212535    12.683316    22.410353    14.178725    19.734013    33.265682    8.5889975    12.612127     22.30075    14.235163 
  517200    218.50637     59212452            0     59213302    12.683316    22.410353    14.179233    19.734011     33.26568     8.639773    12.612127     22.30075    14.235163 
  517400    294.37205     59211564            0     59212710    12.683312    22.410348    14.178745    19.733697    33.265167     8.590954    12.612127     22.30075    14.235163 
  517600    215.85123     59210742            0     59211582    12.683321    22.410336    14.178984    19.734541    33.263912    8.6148197    12.612127     22.30075    14.235163 
  517800    196.54711     59211392            0     59212157    12.683311    22.410341    14.178905    19.733573    33.264491    8.6069998    12.612127     22.30075    14.235163 
  518000    204.12112     59212816            0     59213611    12.683328    22.410351    14.179125    19.735242    33.265438    8.6289474    12.612127     22.30075    14.235163 
  518200    353.93997     59212200            0     59213578    12.683328    22.410346    14.178793      19.7352    33.264916    8.5957215    12.612127     22.30075    14.235163 
  518400    271.89242     59210683            0     59211742    12.683294    22.410338    14.178977    19.731856    33.264196    8.6141109    12.612127     22.30075    14.235163 
  518600    181.25035     59210703            0     59211408     12.68331    22.410328    14.178972    19.733474    33.263135    8.6136615    12.612127     22.30075    14.235163 
  518800    132.71127     59212073            0     59212589    12.683317    22.410353    14.178885    19.734141    33.265675    8.6049321    12.612127     22.30075    14.235163 
  519000    116.51648     59211763            0     59212216    12.683319    22.410425    14.178978    19.734309    33.272896      8.61422    12.612127     22.30075    14.235163 
  519200    195.63113     59210567            0     59211328    12.683343    22.410366    14.178966    19.736705    33.267006    8.6130315    12.612127     22.30075    14.235163 
  519400    163.38954     59211019            0     59211655     12.68332    22.410349    14.178981    19.734431     33.26522    8.6146016    12.612127     22.30075    14.235163 
  519600    215.31463     59211475            0     59212314      12.6833    22.410358    14.178877    19.732439    33.266166    8.6041859    12.612127     22.30075    14.235163 
  519800    126.53722     59210975            0     59211468     12.68333    22.410344    14.178902    19.735409     33.26476    8.6067013    12.612127     22.30075    14.235163 
  520000    223.98029     59211809            0     59212681    12.683334    22.410364    14.179053    19.735829     33.26676    8.6217166    12.612127     22.30075    14.235163 
  520200    95.610718     59211005            0     59211377    12.683318    22.410357    14.178857    19.734267    33.266071    8.6021417    12.612127     22.30075    14.235163 
  520400    217.92451     59211266            0     59212114    12.683316    22.410353    14.178882    19.734013    33.265681    8.6046748    12.612127     22.30075    14.235163 
  520600     253.3874     59211832            0     59212818    12.683323    22.410332    14.179086     19.73472    33.263553    8.6250257    12.612127     22.30075    14.235163 
  520800    179.79371     59211910            0     59212610    12.683334    22.410339    14.178841     19.73582    33.264244    8.6005703    12.612127     22.30075    14.235163 
  521000    169.87459     59211735            0     59212396    12.683317    22.410356    14.179051     19.73419    33.265971    8.6215571    12.612127     22.30075    14.235163 
  521200    305.81204     59211523            0     59212714    12.683332    22.410323    14.178922    19.735615    33.262639    8.6086928    12.612127     22.30075    14.235163 
  521400    264.12171     59211093            0     59212121    12.683337    22.410319    14.179112    19.736178      33.2623    8.6276453    12.612127     22.30075    14.235163 
  521600    220.86131     59210637            0     59211497      12.6833    22.410356    14.178853    19.732423    33.265969     8.601711    12.612127     22.30075    14.235163 
  521800    153.88371     59212773            0     59213372    12.683304    22.410335    14.178936    19.732821    33.263878    8.6100834    12.612127     22.30075    14.235163 
  522000    153.50545     59211498            0     59212096    12.683339    22.410361    14.178945    19.736363    33.266492    8.6109138    12.612127     22.30075    14.235163 
  522200    192.80538     59210972            0     59211722    12.683308    22.410367    14.178964    19.733294    33.267092    8.6128106    12.612127     22.30075    14.235163 
  522400    304.87842     59212562            0     59213748    12.683294    22.410354     14.17906    19.731883    33.265799    8.6224373    12.612127     22.30075    14.235163 
  522600    120.34754     59211279            0     59211747    12.683331     22.41034    14.179074    19.735588    33.264401    8.6238739    12.612127     22.30075    14.235163 
  522800    104.50975     59211206            0     59211613    12.683335    22.410353    14.178983     19.73595    33.265628    8.6147846    12.612127     22.30075    14.235163 
  523000    123.04262     59211739            0     59212218    12.683335     22.41035     14.17914    19.735992    33.265366    8.6304179    12.612127     22.30075    14.235163 
  523200    362.28992     59212593            0     59214004    12.683306    22.410335    14.178721    19.732999    33.263879    8.5885336    12.612127     22.30075    14.235163 
  523400    136.77814     59211184            0     59211716    12.683343    22.410317    14.179059     19.73677    33.262056    8.6223191    12.612127     22.30075    14.235163 
  523600    177.00169     59210333            0     59211022     12.68332    22.410352    14.178921    19.734427     33.26553    8.6085718    12.612127     22.30075    14.235163 
  523800    268.92294     59211138            0     59212185    12.683329    22.410373    14.178958    19.735298    33.267624     8.612238    12.612127     22.30075    14.235163 
  524000    263.28768     59210640            0     59211665    12.683347    22.410355    14.179068    19.737159    33.265866    8.6232516    12.612127     22.30075    14.235163 
  524200    156.60079     59211731            0     59212341    12.683299    22.410361    14.179092    19.732335    33.266464    8.6256224    12.612127     22.30075    14.235163 
  524400    287.87062     59211320            0     59212441    12.683326    22.410351    14.178978    19.735026    33.265458     8.614281    12.612127     22.30075    14.235163 
  524600    184.08094     59210875            0     59211592     12.68332     22.41035    14.179027    19.734463    33.265346    8.6191568    12.612127     22.30075    14.235163 
  524800    268.93926     59212020            0     59213067    12.683257     22.41035    14.178807    19.728148    33.265335    8.5971089    12.612127     22.30075    14.235163 
  525000    139.73292     59211963            0     59212507    12.683279    22.410373    14.178921    19.730379    33.267705    8.6085719    12.612127     22.30075    14.235163 
  525200     188.2193     59211146            0     59211878    12.683327    22.410333    14.179158    19.735177    33.263668    8.6322298    12.612127     22.30075    14.235163 
  525400    175.49425     59211570            0     59212253    12.683302    22.410327    14.178919    19.732624    33.263046    8.6083661    12.612127     22.30075    14.235163 
  525600     228.7438     59211581            0     59212472    12.683291    22.410359    14.178767     19.73155     33.26623    8.5932001    12.612127     22.30075    14.235163 
  525800    221.24748     59210981            0     59211842    12.683327    22.410344    14.179179    19.735152    33.264789    8.6343861    12.612127     22.30075    14.235163 
  526000    155.07702     59212420            0     59213024    12.683314    22.410343    14.179078    19.733837    33.264686    8.6243099    12.612127     22.30075    14.235163 
  526200     350.1961     59211345            0     59212708    12.683316    22.410351    14.179057    19.733998    33.265416    8.6221619    12.612127     22.30075    14.235163 
  526400    212.38157     59212075            0     59212902    12.683328    22.410355    14.179058    19.735285    33.265908     8.622286    12.612127     22.30075    14.235163 
  526600    260.57634     59211250            0     59212265    12.683339    22.410352    14.178926    19.736388    33.265519    8.6090663    12.612127     22.30075    14.235163 
  526800    165.25297     59210991            0     59211634    12.683354    22.410336    14.179094    19.737803    33.263972     8.625865    12.612127     22.30075    14.235163 
  527000    327.47571     59211501            0     59212775    12.683322    22.410332    14.179068    19.734614    33.263508    8.6232194    12.612127     22.30075    14.235163 
  527200    285.12774     59211567            0     59212677    12.683334    22.410347    14.178861    19.735888    33.265016     8.602559    12.612127     22.30075    14.235163 
  527400    379.40931     59211473            0     59212950    12.683318    22.410292    14.178924    19.734243    33.259551     8.608868    12.612127     22.30075    14.235163 
  527600    241.67094     59210802            0     59211743    12.683282    22.410356    14.178997    19.730657     33.26591    8.6161281    12.612127     22.30075    14.235163 
  527800    137.99764     59213004            0     59213541    12.683316    22.410354    14.179185     19.73401    33.265725     8.635006    12.612127     22.30075    14.235163 
  528000    185.47722     59210972            0     59211694    12.683334    22.410359    14.178985    19.735887    33.266231    8.6149411    12.612127     22.30075    14.235163 
  528200    195.62082     59211833            0     59212595    12.683277    22.410355    14.178911    19.730136    33.265896    8.6075617    12.612127     22.30075    14.235163 
  528400    195.42502     59211390            0     59212151     12.68332     22.41036    14.179041    19.734416    33.266398    8.6205839    12.612127     22.30075    14.235163 
  528600    366.87188     59212265            0     59213693    12.683316    22.410352    14.178892       19.734    33.265556    8.6056568    12.612127     22.30075    14.235163 
  528800     179.9224     59210777            0     59211477    12.683314    22.410355    14.179047    19.733847    33.265838    8.6211711    12.612127     22.30075    14.235163 
  529000    375.76331     59211465            0     59212927    12.683316    22.410353    14.178916    19.734013    33.265682    8.6080127    12.612127     22.30075    14.235163 
  529200    181.88477     59211542            0     59212251    12.683288    22.410355    14.179129    19.731275    33.265833    8.6294013    12.612127     22.30075    14.235163 
  529400    165.41399     59211654            0     59212298    12.683349    22.410351    14.179175    19.737366    33.265496    8.6339467    12.612127     22.30075    14.235163 
  529600    164.44484     59211804            0     59212445    12.683316    22.410353    14.179099    19.734013    33.265682    8.6263312    12.612127     22.30075    14.235163 
  529800    247.84434     59211379            0     59212344    12.683324    22.410354    14.178824    19.734869    33.265756    8.5988609    12.612127     22.30075    14.235163 
  530000    97.882451     59211428            0     59211809    12.683355    22.410385    14.178887    19.737996    33.268876    8.6051514    12.612127     22.30075    14.235163 
  530200    187.47479     59211593            0     59212323      12.6833    22.410341    14.178781     19.73249    33.264502    8.5945376    12.612127     22.30075    14.235163 
  530400    191.75759     59211514            0     59212261    12.683317    22.410352    14.179052    19.734109    33.265548    8.6216776    12.612127     22.30075    14.235163 
  530600    237.04723     59212075            0     59212998    12.683299    22.410354    14.178943    19.732304    33.265777    8.6107399    12.612127     22.30075    14.235163 
  530800    138.14238     59211079            0     59211617    12.683319    22.410377    14.178981    19.734364    33.268025    8.6145688    12.612127     22.30075    14.235163 
  531000    172.29691     59211455            0     59212126    12.683313    22.410341    14.178834    19.733776    33.264482    8.5998788    12.612127     22.30075    14.235163 
  531200    215.03705     59211257            0     59212094    12.683309    22.410364    14.178985    19.733369    33.266795    8.6149106    12.612127     22.30075    14.235163 
  531400    155.05496     59212524            0     59213128    12.683316    22.410353    14.179007    19.734016    33.265678    8.6171121    12.612127     22.30075    14.235163 
  531600    133.93847     59210824            0     59211345    12.683305    22.410368    14.178858    19.732915    33.267165    8.6022739    12.612127     22.30075    14.235163 
  531800    256.64018     59212273            0     59213272    12.683351    22.410351    14.179232    19.737565    33.265488    8.6396616    12.612127     22.30075    14.235163 
  532000    256.23662     59211610            0     59212608    12.683323    22.410353    14.178956     19.73478     33.26564    8.6120755    12.612127     22.30075    14.235163 
  532200    467.86409     59212262            0     59214083    12.683316    22.410353    14.179233    19.734005    33.265686     8.639791    12.612127     22.30075    14.235163 
  532400    131.62282     59211933            0     59212446     12.68333    22.410374    14.178785    19.735449    33.267734    8.5949276    12.612127     22.30075    14.235163 
  532600    227.21426     59211432            0     59212317    12.683317    22.410357    14.178928    19.734122    33.266018    8.6092405    12.612127     22.30075    14.235163 
  532800     153.1489     59211506            0     59212102    12.683306    22.410365    14.178722    19.733093    33.266883    8.5886959    12.612127     22.30075    14.235163 
  533000     105.9876     59212303            0     59212715    12.683312    22.410371    14.178781    19.733648     33.26741    8.5945665    12.612127     22.30075    14.235163 
  533200    220.65022     59211450            0     59212309     12.68331    22.410352    14.179079    19.733426    33.265556    8.6243551    12.612127     22.30075    14.235163 
  533400     336.0903     59211102            0     59212410    12.683289    22.410349    14.178967    19.731326    33.265253    8.6131655    12.612127     22.30075    14.235163 
  533600    219.08106     59211123            0     59211976    12.683315     22.41036    14.179048    19.733977    33.266324    8.6212368    12.612127     22.30075    14.235163 
  533800    163.11388     59211123            0     59211758    12.683293    22.410355    14.179081    19.731752     33.26581    8.6245273    12.612127     22.30075    14.235163 
  534000    163.48677     59210836            0     59211473    12.683312    22.410361       14.179    19.733677    33.266418    8.6164284    12.612127     22.30075    14.235163 
  534200    114.94573     59212198            0     59212646    12.683325    22.410368    14.179113    19.734987    33.267175    8.6277362    12.612127     22.30075    14.235163 
  534400    148.99735     59211775            0     59212355    12.683295    22.410355    14.178959    19.731965    33.265865    8.6123164    12.612127     22.30075    14.235163 
  534600    173.46282     59210677            0     59211353    12.683324    22.410353    14.179076    19.734809    33.265638    8.6240143    12.612127     22.30075    14.235163 
  534800    248.83482     59211631            0     59212599    12.683322    22.410367    14.178779    19.734615      33.2671    8.5943384    12.612127     22.30075    14.235163 
  535000    231.68976     59212057            0     59212959    12.683312    22.410353     14.17916    19.733622    33.265704     8.632418    12.612127     22.30075    14.235163 
  535200    160.76982     59212206            0     59212832    12.683316    22.410353    14.178972    19.734011    33.265685    8.6136779    12.612127     22.30075    14.235163 
  535400    189.26721     59210804            0     59211541    12.683326    22.410353    14.178993    19.735075    33.265623    8.6157218    12.612127     22.30075    14.235163 
  535600    175.92774     59211526            0     59212211    12.683318    22.410359    14.178817    19.734263    33.266223    8.5981604    12.612127     22.30075    14.235163 
  535800    282.24244     59211083            0     59212181    12.683305    22.410343    14.179002    19.732922    33.264691    8.6166773    12.612127     22.30075    14.235163 
  536000    353.73788     59210929            0     59212307    12.683298    22.410341    14.179015    19.732237    33.264415    8.6179402    12.612127     22.30075    14.235163 
  536200    328.41254     59210992            0     59212271    12.683332    22.410344    14.178866    19.735671    33.264777    8.6030195    12.612127     22.30075    14.235163 
  536400    235.02215     59211826            0     59212741      12.6833    22.410356    14.178884    19.732485    33.265925    8.6048749    12.612127     22.30075    14.235163 
  536600    237.29389     59211376            0     59212300     12.68331    22.410376    14.178874    19.733416    33.267988    8.6038993    12.612127     22.30075    14.235163 
  536800    233.88923     59211739            0     59212649    12.683316    22.410354    14.179206    19.734064    33.265766    8.6371051    12.612127     22.30075    14.235163 
  537000    275.48177     59210966            0     59212038    12.683296    22.410315    14.178927    19.732016    33.261843    8.6091984    12.612127     22.30075    14.235163 
  537200    162.93203     59211674            0     59212309    12.683318    22.410354    14.179094    19.734215    33.265795    8.6258907    12.612127     22.30075    14.235163 
  537400    229.21543     59211050            0     59211943    12.683295    22.410356     14.17912    19.731985    33.265957    8.6284255    12.612127     22.30075    14.235163 
  537600    300.19785     59211038            0     59212206    12.683316    22.410353    14.179062    19.734012    33.265682    8.6226518    12.612127     22.30075    14.235163 
  537800    305.15675     59210020            0     59211208    12.683306    22.410361    14.179109    19.733013    33.266486    8.6273161    12.612127     22.30075    14.235163 
  538000    254.09571     59211334            0     59212323    12.683291    22.410358     14.17889    19.731577    33.266118    8.6054768    12.612127     22.30075    14.235163 
  538200    217.98925     59211121            0     59211970    12.683316    22.410353    14.178956    19.734011    33.265682    8.6120679    12.612127     22.30075    14.235163 
  538400    328.17627     59211418            0     59212696    12.683343    22.410357    14.179251    19.736756    33.266057    8.6415294    12.612127     22.30075    14.235163 
  538600    166.41397     59211566            0     59212214    12.683316    22.410353    14.178772    19.734014    33.265686    8.5936397    12.612127     22.30075    14.235163 
  538800    106.56684     59211520            0     59211935    12.683291     22.41036    14.178765    19.731595    33.266399    8.5929447    12.612127     22.30075    14.235163 
  539000    178.67183     59211810            0     59212506    12.683296    22.410354    14.179015    19.732021    33.265795    8.6179737    12.612127     22.30075    14.235163 
  539200    99.917273     59212242            0     59212631    12.683335    22.410359    14.178828    19.735988    33.266291    8.5992648    12.612127     22.30075    14.235163 
  539400    287.35579     59210690            0     59211808    12.683316    22.410353    14.179007    19.734037     33.26568    8.6171709    12.612127     22.30075    14.235163 
  539600    182.04734     59210773            0     59211482    12.683316    22.410353     14.17898    19.734011    33.265682    8.6144177    12.612127     22.30075    14.235163 
  539800    68.122069     59212041            0     59212306    12.683326    22.410335    14.178841    19.735021    33.263842    8.6005737    12.612127     22.30075    14.235163 
  540000    329.76826     59211152            0     59212436    12.683327    22.410381     14.17896     19.73519    33.268457    8.6124192    12.612127     22.30075    14.235163 
  540200    192.17293     59210848            0     59211596    12.683314    22.410353    14.179078    19.733886    33.265682    8.6242732    12.612127     22.30075    14.235163 
  540400     101.0439     59210659            0     59211052     12.68336    22.410378    14.178972    19.738464    33.268186    8.6136577    12.612127     22.30075    14.235163 
  540600    349.55186     59210475            0     59211835    12.683314    22.410348    14.178939    19.733847    33.265186    8.6103898    12.612127     22.30075    14.235163 
  540800    61.140427     59211171            0     59211409    12.683316    22.410353    14.179064    19.734024    33.265681    8.6228456    12.612127     22.30075    14.235163 
  541000    208.72954     59211245            0     59212058    12.683299    22.410376       14.179      19.7323    33.267937    8.6164854    12.612127     22.30075    14.235163 
  541200     151.2916     59211541            0     59212130    12.683328    22.410352    14.179027    19.735255    33.265578    8.6191865    12.612127     22.30075    14.235163 
  541400    273.20587     59211897            0     59212961    12.683338    22.410361    14.179073    19.736214     33.26647    8.6237427    12.612127     22.30075    14.235163 
  541600    193.40786     59211036            0     59211789     12.68337     22.41037    14.178978    19.739492    33.267359    8.6142998    12.612127     22.30075    14.235163 
  541800    310.54591     59211502            0     59212711    12.683329    22.410338    14.179109    19.735391      33.2642    8.6273176    12.612127     22.30075    14.235163 
  542000    216.94255     59211494            0     59212338    12.683316    22.410353    14.178968    19.734034    33.265681     8.613294    12.612127     22.30075    14.235163 
  542200    152.34338     59211516            0     59212109    12.683292    22.410344    14.179046    19.731611    33.264711    8.6210856    12.612127     22.30075    14.235163 
  542400    272.91814     59211344            0     59212407    12.683313    22.410352    14.178949    19.733776    33.265526    8.6113926    12.612127     22.30075    14.235163 
  542600    207.64566     59211750            0     59212559    12.683322    22.410351    14.179013    19.734648    33.265428     8.617764    12.612127     22.30075    14.235163 
  542800    175.42269     59212014            0     59212696    12.683332    22.410353    14.179303     19.73564    33.265699    8.6467542    12.612127     22.30075    14.235163 
  543000    234.34544     59212851            0     59213763    12.683292    22.410369    14.178796    19.731657     33.26729    8.5960443    12.612127     22.30075    14.235163 
  543200    229.95696     59211365            0     59212260     12.68334    22.410357    14.178962    19.736421    33.266044    8.6126158    12.612127     22.30075    14.235163 
  543400      200.017     59212036            0     59212815    12.683335    22.410347    14.178975    19.735954    33.265093    8.6139825    12.612127     22.30075    14.235163 
  543600    122.62373     59211413            0     59211890    12.683303    22.410359    14.178952    19.732782    33.266248    8.6116765    12.612127     22.30075    14.235163 
  543800    259.38986     59212214            0     59213224    12.683312    22.410319    14.178939    19.733692    33.262265    8.6103409    12.612127     22.30075    14.235163 
  544000     217.1435     59212575            0     59213420     12.68333    22.410325    14.179039    19.735406    33.262892     8.620391    12.612127     22.30075    14.235163 
  544200    237.44454     59211637            0     59212561    12.683318    22.410357    14.178806    19.734231    33.266013    8.5970597    12.612127     22.30075    14.235163 
  544400    304.23799     59211427            0     59212611    12.683326    22.410329    14.178858    19.735007    33.263255    8.6022791    12.612127     22.30075    14.235163 
  544600    175.05579     59210212            0     59210894    12.683313    22.410353    14.179097    19.733719    33.265634    8.6261734    12.612127     22.30075    14.235163 
  544800    136.65672     59210735            0     59211267    12.683324    22.410327    14.179204    19.734839    33.263105    8.6368937    12.612127     22.30075    14.235163 
  545000    115.60761     59210465            0     59210915    12.683316    22.410353    14.178867    19.734009    33.265686     8.603135    12.612127     22.30075    14.235163 
  545200    214.97534     59212265            0     59213102     12.68331    22.410351    14.179045    19.733425     33.26541    8.6209319    12.612127     22.30075    14.235163 
  545400    206.62076     59210883            0     59211687    12.683322    22.410362    14.178951    19.734612    33.266597    8.6115687    12.612127     22.30075    14.235163 
  545600    337.76264     59210665            0     59211980     12.68329    22.410346    14.179052     19.73146    33.264997    8.6216883    12.612127     22.30075    14.235163 
  545800    244.40116     59212076            0     59213028    12.683316    22.410353    14.179198    19.734015    33.265681    8.6362523    12.612127     22.30075    14.235163 
  546000    186.69938     59211845            0     59212572    12.683317    22.410354    14.178902    19.734168    33.265766    8.6066719    12.612127     22.30075    14.235163 
  546200    141.45569     59210702            0     59211253    12.683347     22.41034    14.178935    19.737175    33.264376    8.6099998    12.612127     22.30075    14.235163 
  546400    177.53943     59210907            0     59211598    12.683312    22.410282    14.179134    19.733663    33.258569    8.6299055    12.612127     22.30075    14.235163 
  546600    277.48432     59210933            0     59212014    12.683324    22.410373      14.1791    19.734826    33.267622    8.6264738    12.612127     22.30075    14.235163 
  546800    224.42414     59211605            0     59212479    12.683322    22.410353    14.179051    19.734668     33.26564    8.6215805    12.612127     22.30075    14.235163 
  547000    200.98376     59210677            0     59211459    12.683312    22.410349    14.179086    19.733691    33.265214    8.6250537    12.612127     22.30075    14.235163 
  547200    312.79952     59211447            0     59212665    12.683315    22.410353    14.178906    19.733986    33.265642    8.6070618    12.612127     22.30075    14.235163 
  547400    229.60812     59211412            0     59212306    12.683314    22.410391    14.178873    19.733866    33.269417    8.6038013    12.612127     22.30075    14.235163 
  547600    145.66379     59211322            0     59211889    12.683316    22.410354    14.178966    19.734004    33.265787     8.613052    12.612127     22.30075    14.235163 
  547800    161.27951     59211353            0     59211980    12.683337    22.410357    14.178913    19.736174     33.26607    8.6077115    12.612127     22.30075    14.235163 
  548000    302.47984     59212000            0     59213178    12.683316    22.410353    14.178877    19.734013    33.265678    8.6041503    12.612127     22.30075    14.235163 
  548200    113.06821     59211748            0     59212188    12.683328    22.410329    14.179065    19.735229    33.263277    8.6230086    12.612127     22.30075    14.235163 
  548400    182.57829     59212149            0     59212859    12.683311    22.410368    14.179085    19.733594    33.267133    8.6249216    12.612127     22.30075    14.235163 
  548600    383.84205     59211215            0     59212710    12.683314    22.410353    14.178887    19.733858     33.26569    8.6051425    12.612127     22.30075    14.235163 
  548800    294.37329     59210991            0     59212137    12.683316    22.410353     14.17902    19.734019    33.265681    8.6184877    12.612127     22.30075    14.235163 
  549000    104.10753     59211810            0     59212215     12.68331    22.410356    14.178709    19.733474    33.265998    8.5873541    12.612127     22.30075    14.235163 
  549200    297.55346     59211341            0     59212500    12.683309    22.410342    14.178997    19.733309    33.264547     8.616162    12.612127     22.30075    14.235163 
  549400    126.05052     59211730            0     59212220    12.683315    22.410353    14.179041    19.733997    33.265664    8.6205244    12.612127     22.30075    14.235163 
  549600    236.31935     59211732            0     59212652    12.683322    22.410354    14.179047    19.734642      33.2658    8.6211567    12.612127     22.30075    14.235163 
  549800    287.16095     59211519            0     59212637    12.683316    22.410335    14.178889    19.734019     33.26386    8.6053429    12.612127     22.30075    14.235163 
  550000    190.13247     59212643            0     59213383     12.68332    22.410359      14.1793    19.734429    33.266288    8.6464942    12.612127     22.30075    14.235163 
  550200    164.31103     59211615            0     59212254     12.68332    22.410345    14.179038    19.734406    33.264838      8.62022    12.612127     22.30075    14.235163 
  550400    199.42465     59211133            0     59211910    12.683316    22.410333    14.179032    19.734045    33.263641    8.6196572    12.612127     22.30075    14.235163 
  550600    85.134909     59211247            0     59211578    12.683322    22.410321    14.179266    19.734637    33.262433    8.6430712    12.612127     22.30075    14.235163 
  550800    218.58093     59211442            0     59212293    12.683324    22.410332    14.179005    19.734809    33.263526    8.6170031    12.612127     22.30075    14.235163 
  551000    247.67864     59211462            0     59212426    12.683327    22.410333    14.179142    19.735101    33.263705    8.6307118    12.612127     22.30075    14.235163 
  551200    249.94097     59210967            0     59211940    12.683326    22.410388    14.178901    19.735063    33.269168    8.6065209    12.612127     22.30075    14.235163 
  551400    172.36737     59211033            0     59211704    12.683303    22.410354    14.178974    19.732757    33.265751    8.6138364    12.612127     22.30075    14.235163 
  551600     263.8341     59212069            0     59213097    12.683308    22.410327    14.179126    19.733281    33.263091    8.6290298    12.612127     22.30075    14.235163 
  551800    213.14204     59211592            0     59212421    12.683336    22.410385    14.178993     19.73607    33.268829    8.6157398    12.612127     22.30075    14.235163 
  552000    196.52564     59212392            0     59213157    12.683334     22.41038    14.179004    19.735819    33.268389    8.6168191    12.612127     22.30075    14.235163 
  552200    158.70647     59210904            0     59211522    12.683302    22.410379    14.178877    19.732682    33.268288    8.6041601    12.612127     22.30075    14.235163 
  552400    180.56599     59211903            0     59212606    12.683306     22.41036    14.178935    19.733082    33.266338    8.6099438    12.612127     22.30075    14.235163 
  552600    97.367921     59210690            0     59211069    12.683323    22.410342    14.179043    19.734731    33.264532    8.6207501    12.612127     22.30075    14.235163 
  552800    108.81357     59211813            0     59212237    12.683282    22.410356    14.178976    19.730634    33.265962    8.6140314    12.612127     22.30075    14.235163 
  553000    111.34045     59212620            0     59213053    12.683276    22.410314    14.178924    19.730017     33.26177    8.6089061    12.612127     22.30075    14.235163 
  553200    141.31895     59211138            0     59211688    12.683315    22.410352    14.178975    19.733971    33.265597    8.6140011    12.612127     22.30075    14.235163 
  553400    179.94575     59212005            0     59212706    12.683309    22.410352    14.179235    19.733313    33.265565    8.6399869    12.612127     22.30075    14.235163 
  553600    63.889879     59211417            0     59211666    12.683316    22.410353    14.179029     19.73404     33.26568    8.6193433    12.612127     22.30075    14.235163 
  553800    220.69148     59212910            0     59213769    12.683315    22.410353    14.178958    19.733962     33.26563    8.6122332    12.612127     22.30075    14.235163 
  554000    265.90895     59211059            0     59212094     12.68333    22.410345    14.179059    19.735436    33.264903    8.6223862    12.612127     22.30075    14.235163 
  554200    501.70093     59211575            0     59213528    12.683317    22.410355    14.178943    19.734119    33.265848    8.6107616    12.612127     22.30075    14.235163 
  554400    133.46992     59211607            0     59212126     12.68333    22.410339    14.178863    19.735442    33.264255    8.6027444    12.612127     22.30075    14.235163 
  554600    130.86016     59211406            0     59211916    12.683322    22.410373    14.178776    19.734612     33.26766    8.5940529    12.612127     22.30075    14.235163 
  554800    229.64623     59211120            0     59212014    12.683311    22.410353    14.178854     19.73353    33.265691    8.6018683    12.612127     22.30075    14.235163 
  555000    164.14691     59212058            0     59212697     12.68331    22.410358    14.179111    19.733492    33.266144    8.6275991    12.612127     22.30075    14.235163 
  555200    257.60455     59211410            0     59212413    12.683329    22.410351    14.178882    19.735302    33.265413    8.6046987    12.612127     22.30075    14.235163 
  555400    184.19316     59212385            0     59213102    12.683326    22.410344    14.178837    19.735091    33.264719    8.6001642    12.612127     22.30075    14.235163 
  555600    207.69568     59213846            0     59214655    12.683308    22.410368    14.178682    19.733263    33.267164    8.5846811    12.612127     22.30075    14.235163 
  555800    287.08128     59211400            0     59212517    12.683316    22.410353    14.178993    19.734013    33.265681    8.6157127    12.612127     22.30075    14.235163 
  556000    223.14755     59211827            0     59212696    12.683316    22.410353     14.17907     19.73401    33.265695    8.6234494    12.612127     22.30075    14.235163 
  556200     257.7176     59210939            0     59211942    12.683367    22.410351    14.179082    19.739105     33.26541    8.6246539    12.612127     22.30075    14.235163 
  556400    155.40799     59212075            0     59212680    12.683296    22.410401    14.179167    19.731999    33.270457    8.6332036    12.612127     22.30075    14.235163 
  556600    266.20511     59211104            0     59212141    12.683316    22.410353    14.178867    19.734014    33.265685    8.6031668    12.612127     22.30075    14.235163 
  556800    168.60491     59210856            0     59211512    12.683305    22.410369    14.178706    19.732902    33.267253     8.587069    12.612127     22.30075    14.235163 
  557000    117.98725     59212144            0     59212603    12.683316    22.410353    14.178723    19.734007    33.265682    8.5887911    12.612127     22.30075    14.235163 
  557200    210.05087     59211494            0     59212312    12.683311    22.410343    14.178677    19.733504    33.264672    8.5841385    12.612127     22.30075    14.235163 
  557400    136.10879     59211539            0     59212069    12.683377    22.410368    14.178782     19.74012    33.267129    8.5946552    12.612127     22.30075    14.235163 
  557600    371.62727     59211254            0     59212700    12.683316    22.410351    14.178732    19.734093    33.265505    8.5896588    12.612127     22.30075    14.235163 
  557800    265.59692     59211282            0     59212315    12.683292    22.410355    14.178954    19.731646    33.265889    8.6118914    12.612127     22.30075    14.235163 
  558000    67.043029     59210686            0     59210947    12.683315    22.410338     14.17887    19.733937    33.264162    8.6034594    12.612127     22.30075    14.235163 
  558200    99.321682     59211694            0     59212081    12.683326    22.410353    14.179047    19.735039    33.265626    8.6211435    12.612127     22.30075    14.235163 
  558400    226.55517     59212055            0     59212937    12.683311    22.410349    14.178777    19.733511    33.265217    8.5941312    12.612127     22.30075    14.235163 
  558600    149.55346     59210818            0     59211400    12.683324    22.410341    14.178824    19.734871    33.264411    8.5988758    12.612127     22.30075    14.235163 
  558800    144.78502     59210425            0     59210989    12.683319    22.410365    14.179061    19.734351    33.266898    8.6225346    12.612127     22.30075    14.235163 
  559000    208.12554     59211402            0     59212212    12.683324     22.41036     14.17891    19.734805    33.266377    8.6074753    12.612127     22.30075    14.235163 
  559200    73.319027     59212054            0     59212339    12.683298    22.410372    14.179027     19.73223    33.267518    8.6191582    12.612127     22.30075    14.235163 
  559400     177.1727     59211896            0     59212585    12.683304    22.410377    14.179172    19.732895    33.268016      8.63364    12.612127     22.30075    14.235163 
  559600    295.77956     59210992            0     59212144    12.683282    22.410356    14.179031    19.730665    33.265966    8.6196081    12.612127     22.30075    14.235163 
  559800    292.22373     59211804            0     59212941    12.683316    22.410353    14.179043    19.734012    33.265681    8.6207495    12.612127     22.30075    14.235163 
  560000    211.61384     59211637            0     59212461    12.683315    22.410354    14.178974    19.733984     33.26571    8.6138606    12.612127     22.30075    14.235163 
  560200    167.90708     59211693            0     59212347    12.683316    22.410353    14.178779    19.734006    33.265694    8.5943108    12.612127     22.30075    14.235163 
  560400    108.24132     59210825            0     59211247    12.683309    22.410357    14.179013    19.733334    33.266101    8.6177474    12.612127     22.30075    14.235163 
  560600     245.0088     59211161            0     59212114    12.683325    22.410367    14.178947    19.734951    33.267079     8.611117    12.612127     22.30075    14.235163 
  560800    107.47765     59212037            0     59212455    12.683334    22.410338    14.178804     19.73585     33.26414    8.5968439    12.612127     22.30075    14.235163 
  561000    206.79483     59211981            0     59212786    12.683317    22.410351    14.178999    19.734151     33.26549    8.6163946    12.612127     22.30075    14.235163 
  561200    189.76525     59211031            0     59211770    12.683294    22.410352    14.178776    19.731826    33.265607    8.5940384    12.612127     22.30075    14.235163 
  561400    157.65751     59211780            0     59212394    12.683334    22.410359    14.178911    19.735885    33.266261    8.6075633    12.612127     22.30075    14.235163 
  561600    169.83637     59212324            0     59212985    12.683302    22.410361    14.179039    19.732632    33.266442    8.6203853    12.612127     22.30075    14.235163 
  561800    230.57742     59211343            0     59212241    12.683326    22.410362    14.178828    19.735006    33.266606    8.5992419    12.612127     22.30075    14.235163 
  562000    233.10173     59211528            0     59212435    12.683277    22.410355    14.178999    19.730117    33.265897    8.6163508    12.612127     22.30075    14.235163 
  562200    151.96082     59211172            0     59211763    12.683329    22.410331    14.178973    19.735367    33.263443    8.6137878    12.612127     22.30075    14.235163 
  562400    155.60807     59211146            0     59211752    12.683311    22.410363    14.178857     19.73353    33.266637    8.6021433    12.612127     22.30075    14.235163 
  562600    197.46078     59212262            0     59213030    12.683313    22.410358    14.178965    19.733762    33.266157    8.6129325    12.612127     22.30075    14.235163 
  562800    152.00516     59210720            0     59211312    12.683329     22.41038    14.179076    19.735332    33.268357    8.6240921    12.612127     22.30075    14.235163 
  563000    232.64784     59211683            0     59212589    12.683318    22.410376    14.179015    19.734223    33.267943    8.6179218    12.612127     22.30075    14.235163 
  563200    168.37018     59212483            0     59213139    12.683307    22.410354    14.179175    19.733139    33.265723    8.6339952    12.612127     22.30075    14.235163 
  563400    145.97497     59211447            0     59212015    12.683306    22.410362    14.179171    19.733058    33.266547    8.6335655    12.612127     22.30075    14.235163 
  563600    177.61326     59211491            0     59212183     12.68333    22.410318    14.179025    19.735464    33.262188    8.6189673    12.612127     22.30075    14.235163 
  563800    240.11901     59211789            0     59212723    12.683286    22.410355    14.179058    19.731075    33.265822    8.6222827    12.612127     22.30075    14.235163 
  564000    283.14679     59210981            0     59212084    12.683312    22.410329    14.179051    19.733627    33.263272    8.6215651    12.612127     22.30075    14.235163 
  564200    310.63571     59211821            0     59213030    12.683313    22.410378    14.178988    19.733706    33.268127    8.6152503    12.612127     22.30075    14.235163 
  564400    259.22691     59210972            0     59211981    12.683303    22.410379    14.178982    19.732723    33.268226     8.614668    12.612127     22.30075    14.235163 
  564600    149.70704     59212489            0     59213072    12.683293    22.410345    14.178748    19.731769     33.26484    8.5912688    12.612127     22.30075    14.235163 
  564800    182.52215     59211907            0     59212617    12.683299    22.410314    14.179139    19.732335     33.26177     8.630416    12.612127     22.30075    14.235163 
  565000    215.20434     59211828            0     59212665    12.683318    22.410345    14.178807    19.734244    33.264835    8.5971901    12.612127     22.30075    14.235163 
  565200    167.74774     59210386            0     59211039    12.683289    22.410326    14.179001    19.731369    33.262951    8.6165332    12.612127     22.30075    14.235163 
  565400    223.65943     59211566            0     59212437    12.683334    22.410351    14.178934    19.735898    33.265448     8.609899    12.612127     22.30075    14.235163 
  565600    155.48267     59210501            0     59211106    12.683348    22.410352    14.178792    19.737213    33.265532    8.5956982    12.612127     22.30075    14.235163 
  565800    133.91044     59210665            0     59211186    12.683306    22.410334    14.178995    19.733014    33.263734    8.6159602    12.612127     22.30075    14.235163 
  566000    91.413243     59211980            0     59212336    12.683327    22.410367    14.179323    19.735155    33.267025    8.6488141    12.612127     22.30075    14.235163 
  566200    218.91194     59211129            0     59211981    12.683299    22.410354     14.17889    19.732332    33.265755    8.6054197    12.612127     22.30075    14.235163 
  566400    239.29873     59210743            0     59211674     12.68332    22.410359    14.178843    19.734436    33.266233    8.6007774    12.612127     22.30075    14.235163 
  566600    173.60797     59211383            0     59212059    12.683307    22.410338    14.179001    19.733099    33.264178    8.6165755    12.612127     22.30075    14.235163 
  566800    308.65258     59212170            0     59213372    12.683336    22.410354    14.179042    19.736019    33.265725    8.6206414    12.612127     22.30075    14.235163 
  567000    138.79258     59211722            0     59212262    12.683319    22.410315    14.179077    19.734349    33.261895    8.6241237    12.612127     22.30075    14.235163 
  567200    182.17859     59212002            0     59212712    12.683299    22.410354    14.178839      19.7323    33.265777    8.6003955    12.612127     22.30075    14.235163 
  567400    263.07272     59211081            0     59212105    12.683316    22.410353    14.178927    19.734015    33.265683    8.6091797    12.612127     22.30075    14.235163 
  567600    111.52199     59211320            0     59211755    12.683316    22.410353    14.179091    19.734024    33.265681    8.6255779    12.612127     22.30075    14.235163 
  567800    293.48712     59211334            0     59212476    12.683314    22.410353    14.178903    19.733803    33.265693    8.6067993    12.612127     22.30075    14.235163 
  568000    126.77739     59212326            0     59212820    12.683267    22.410366    14.179048    19.729172    33.266929    8.6212748    12.612127     22.30075    14.235163 
  568200    301.99531     59210903            0     59212079     12.68332    22.410368     14.17911    19.734428    33.267147    8.6274809    12.612127     22.30075    14.235163 
  568400    219.14668     59210606            0     59211459    12.683314     22.41034    14.179174    19.733864    33.264355    8.6338343    12.612127     22.30075    14.235163 
  568600    282.13337     59210587            0     59211685    12.683311    22.410353     14.17903    19.733584     33.26568     8.619467    12.612127     22.30075    14.235163 
  568800    160.43632     59211706            0     59212331    12.683308    22.410355    14.178995    19.733261    33.265886    8.6160027    12.612127     22.30075    14.235163 
  569000    446.95674     59211212            0     59212952    12.683321    22.410349     14.17899    19.734544    33.265228    8.6154363    12.612127     22.30075    14.235163 
  569200    240.24156     59211221            0     59212156    12.683319     22.41036    14.178779    19.734339    33.266393    8.5943524    12.612127     22.30075    14.235163 
  569400    316.52221     59210330            0     59211562    12.683332    22.410351    14.179091    19.735696    33.265498    8.6255147    12.612127     22.30075    14.235163 
  569600    294.35697     59211540            0     59212686    12.683315    22.410353    14.179035    19.733985    33.265678    8.6200012    12.612127     22.30075    14.235163 
  569800    232.94213     59211179            0     59212086    12.683316    22.410353     14.17899    19.734012    33.265681    8.6154232    12.612127     22.30075    14.235163 
  570000    250.86048     59212372            0     59213348    12.683293    22.410355    14.178964    19.731713    33.265811    8.6128105    12.612127     22.30075    14.235163 
  570200    220.70699     59210950            0     59211809    12.683298    22.410354    14.178889    19.732289    33.265777    8.6054011    12.612127     22.30075    14.235163 
  570400     114.0361     59211499            0     59211943    12.683346     22.41035    14.178693     19.73704    33.265333    8.5857203    12.612127     22.30075    14.235163 
  570600    173.51287     59211814            0     59212490     12.68331    22.410362     14.17921    19.733433    33.266598     8.637436    12.612127     22.30075    14.235163 
  570800    169.03701     59212117            0     59212775    12.683298    22.410386    14.178951    19.732293    33.268925    8.6115732    12.612127     22.30075    14.235163 
  571000     100.5032     59211121            0     59211512    12.683333    22.410379    14.178798    19.735714    33.268286    8.5962103    12.612127     22.30075    14.235163 
  571200    192.21449     59210828            0     59211576    12.683295    22.410328    14.178977    19.731996    33.263171    8.6141472    12.612127     22.30075    14.235163 
  571400    182.53153     59210740            0     59211451     12.68331    22.410324    14.178984    19.733429    33.262745    8.6148387    12.612127     22.30075    14.235163 
  571600    214.70756     59211248            0     59212084    12.683309     22.41035    14.178982    19.733312    33.265369    8.6146369    12.612127     22.30075    14.235163 
  571800    224.31702     59211285            0     59212158    12.683319    22.410365    14.179144    19.734317    33.266855      8.63087    12.612127     22.30075    14.235163 
  572000    168.82314     59211483            0     59212140    12.683334    22.410356    14.179046    19.735864    33.265938    8.6210893    12.612127     22.30075    14.235163 
  572200    221.74077     59210277            0     59211140    12.683377    22.410353    14.178934    19.740111    33.265659     8.609821    12.612127     22.30075    14.235163 
  572400     168.6885     59210688            0     59211345    12.683328    22.410332    14.178978    19.735296    33.263528    8.6143058    12.612127     22.30075    14.235163 
  572600    359.48069     59212020            0     59213419    12.683296    22.410323    14.178912    19.732044     33.26267    8.6077018    12.612127     22.30075    14.235163 
  572800    269.52827     59210179            0     59211229     12.68333    22.410333    14.179035    19.735455    33.263684    8.6199728    12.612127     22.30075    14.235163 
  573000    170.34133     59211580            0     59212243    12.683308    22.410352    14.179085    19.733235    33.265509    8.6249818    12.612127     22.30075    14.235163 
  573200    129.96672     59210498            0     59211004    12.683341    22.410354    14.178867    19.736511    33.265731    8.6031127    12.612127     22.30075    14.235163 
  573400    127.76252     59210187            0     59210684    12.683308    22.410337    14.178979    19.733274    33.264064    8.6143853    12.612127     22.30075    14.235163 
  573600    120.96323     59211562            0     59212033    12.683316    22.410354    14.179081    19.734033    33.265717    8.6245707    12.612127     22.30075    14.235163 
  573800    476.79663     59211880            0     59213736    12.683309    22.410354    14.178802    19.733335    33.265719    8.5966139    12.612127     22.30075    14.235163 
  574000    182.07572     59211718            0     59212427    12.683331    22.410377    14.179052    19.735554    33.268043     8.621639    12.612127     22.30075    14.235163 
  574200    174.09417     59210488            0     59211165    12.683329    22.410374     14.17909    19.735362    33.267738    8.6254304    12.612127     22.30075    14.235163 
  574400    224.87043     59210626            0     59211502    12.683288    22.410333    14.179032     19.73121     33.26368    8.6196212    12.612127     22.30075    14.235163 
  574600    296.12047     59210949            0     59212102    12.683317     22.41035    14.179034    19.734139    33.265323    8.6198474    12.612127     22.30075    14.235163 
  574800    161.20209     59211676            0     59212303    12.683345    22.410363    14.178958    19.736976    33.266692     8.612302    12.612127     22.30075    14.235163 
  575000    165.27806     59211971            0     59212615    12.683308    22.410359    14.178838    19.733236    33.266237    8.6002185    12.612127     22.30075    14.235163 
  575200    185.10768     59211816            0     59212537    12.683305    22.410354    14.179134    19.732969    33.265737    8.6298491    12.612127     22.30075    14.235163 
  575400    273.33444     59212544            0     59213608    12.683323    22.410338    14.179143    19.734753    33.264187    8.6307576    12.612127     22.30075    14.235163 
  575600    117.41409     59212552            0     59213009    12.683316    22.410353    14.178933    19.734012    33.265682    8.6098069    12.612127     22.30075    14.235163 
  575800     87.13784     59210454            0     59210793      12.6833    22.410373    14.178898    19.732448    33.267702    8.6062482    12.612127     22.30075    14.235163 
  576000    85.379808     59211782            0     59212115    12.683316    22.410353    14.179194    19.734012    33.265681    8.6359099    12.612127     22.30075    14.235163 
  576200    147.49477     59211226            0     59211801    12.683317    22.410356    14.179029     19.73416    33.265909     8.619399    12.612127     22.30075    14.235163 
  576400    195.22658     59210927            0     59211687    12.683335    22.410308    14.178919    19.735966     33.26116    8.6083655    12.612127     22.30075    14.235163 
  576600    152.51983     59210940            0     59211534    12.683304    22.410348    14.179046    19.732887    33.265111    8.6210987    12.612127     22.30075    14.235163 
  576800    277.16472     59210402            0     59211481    12.683316    22.410353    14.178943    19.734006    33.265682    8.6107354    12.612127     22.30075    14.235163 
  577000      253.513     59210871            0     59211858    12.683321    22.410353    14.178957    19.734559    33.265662    8.6121947    12.612127     22.30075    14.235163 
  577200     187.2369     59209993            0     59210722    12.683316    22.410353    14.179061    19.734012    33.265682    8.6225158    12.612127     22.30075    14.235163 
  577400    319.50244     59211639            0     59212883    12.683351    22.410358    14.178908    19.737588    33.266202    8.6072084    12.612127     22.30075    14.235163 
  577600    257.41477     59211434            0     59212436    12.683316    22.410353    14.179093    19.734014    33.265683    8.6257822    12.612127     22.30075    14.235163 
  577800    322.41408     59212543            0     59213798    12.683358    22.410329    14.178673    19.738203    33.263236    8.5837667    12.612127     22.30075    14.235163 
  578000    164.80348     59210705            0     59211346     12.68328    22.410313    14.178965    19.730401     33.26161    8.6129381    12.612127     22.30075    14.235163 
  578200     314.8918     59211159            0     59212385    12.683314    22.410353    14.178983    19.733878    33.265689    8.6147828    12.612127     22.30075    14.235163 
  578400    342.49765     59211644            0     59212977    12.683304    22.410354    14.179011     19.73289    33.265751    8.6175289    12.612127     22.30075    14.235163 
  578600     225.2007     59210424            0     59211301    12.683316    22.410353     14.17891    19.734001    33.265664    8.6074585    12.612127     22.30075    14.235163 
  578800    280.07848     59210971            0     59212061    12.683317    22.410387    14.179036    19.734122    33.269033    8.6200331    12.612127     22.30075    14.235163 
  579000     266.4654     59211785            0     59212822    12.683305    22.410364    14.178981    19.732969    33.266737    8.6145133    12.612127     22.30075    14.235163 
  579200    214.64478     59210338            0     59211174    12.683313    22.410353    14.178991    19.733718     33.26568    8.6155472    12.612127     22.30075    14.235163 
  579400    373.28721     59210943            0     59212396    12.683303    22.410352    14.178764     19.73274    33.265561    8.5928898    12.612127     22.30075    14.235163 
  579600    206.64727     59212252            0     59213057    12.683306    22.410336    14.179084    19.733059    33.263981    8.6248788    12.612127     22.30075    14.235163 
  579800    124.93196     59211471            0     59211957    12.683317    22.410353    14.178889    19.734132    33.265676    8.6053094    12.612127     22.30075    14.235163 
  580000     215.9092     59212653            0     59213494    12.683316    22.410353    14.178987    19.734013    33.265682    8.6151383    12.612127     22.30075    14.235163 
  580200    154.91519     59211228            0     59211831    12.683319    22.410378    14.178991    19.734394    33.268182    8.6155406    12.612127     22.30075    14.235163 
  580400    166.78468     59210351            0     59211001    12.683297    22.410343    14.178985    19.732141    33.264666    8.6149484    12.612127     22.30075    14.235163 
  580600    331.51834     59211173            0     59212463    12.683312    22.410348    14.179108    19.733628    33.265122    8.6272865    12.612127     22.30075    14.235163 
  580800    255.90355     59211148            0     59212144    12.683339    22.410351    14.178963    19.736334    33.265458    8.6127211    12.612127     22.30075    14.235163 
  581000    256.81037     59213577            0     59214577    12.683316    22.410353     14.17933    19.734011    33.265682    8.6494743    12.612127     22.30075    14.235163 
  581200    287.99359     59211437            0     59212558    12.683294    22.410369    14.179115     19.73187    33.267219    8.6280061    12.612127     22.30075    14.235163 
  581400    180.26428     59211007            0     59211709    12.683322    22.410339    14.178945    19.734691    33.264253    8.6109688    12.612127     22.30075    14.235163 
  581600    165.76329     59211870            0     59212515    12.683338    22.410333    14.178648    19.736212    33.263682    8.5812592    12.612127     22.30075    14.235163 
  581800    159.07973     59211162            0     59211782    12.683294    22.410375    14.178837    19.731826    33.267816    8.6001727    12.612127     22.30075    14.235163 
  582000    140.14262     59210928            0     59211473    12.683316    22.410353    14.178973    19.734019     33.26568    8.6137192    12.612127     22.30075    14.235163 
  582200    262.74793     59211110            0     59212133    12.683294    22.410354    14.178943    19.731874    33.265804    8.6107818    12.612127     22.30075    14.235163 
  582400    260.38927     59210666            0     59211680    12.683315     22.41035    14.178956    19.733997    33.265364    8.6120578    12.612127     22.30075    14.235163 
  582600    95.314786     59210807            0     59211178    12.683281    22.410355    14.178966     19.73054    33.265872    8.6130684    12.612127     22.30075    14.235163 
  582800    238.87331     59211025            0     59211955    12.683319    22.410348     14.17896    19.734379    33.265168    8.6124355    12.612127     22.30075    14.235163 
  583000    144.60044     59211744            0     59212306    12.683324    22.410352    14.178946    19.734838    33.265508    8.6110208    12.612127     22.30075    14.235163 
  583200    334.17489     59211786            0     59213087    12.683338    22.410352    14.179021    19.736248    33.265558      8.61858    12.612127     22.30075    14.235163 
  583400    174.68108     59211816            0     59212496    12.683334    22.410354    14.178951    19.735808      33.2658    8.6115811    12.612127     22.30075    14.235163 
  583600    273.86066     59210629            0     59211695    12.683321    22.410343     14.17886    19.734512    33.264685    8.6024496    12.612127     22.30075    14.235163 
  583800    178.80469     59211817            0     59212513    12.683316    22.410353    14.179018    19.734022    33.265681    8.6182726    12.612127     22.30075    14.235163 
  584000    199.62755     59211166            0     59211943    12.683321    22.410364    14.178972    19.734551    33.266767    8.6136184    12.612127     22.30075    14.235163 
  584200    132.09569     59211109            0     59211623    12.683335    22.410358    14.179082    19.735994      33.2662    8.6246858    12.612127     22.30075    14.235163 
  584400    246.57162     59211740            0     59212700    12.683312    22.410343    14.179069    19.733688    33.264668    8.6233604    12.612127     22.30075    14.235163 
  584600    318.73597     59210784            0     59212025    12.683313    22.410326      14.1791    19.733756    33.263005    8.6264599    12.612127     22.30075    14.235163 
  584800     301.5255     59212176            0     59213350    12.683313    22.410376    14.178689    19.733703    33.267937    8.5853773    12.612127     22.30075    14.235163 
  585000    114.49184     59211114            0     59211560    12.683318    22.410357    14.178908    19.734203    33.266075    8.6072872    12.612127     22.30075    14.235163 
  585200    167.91024     59211424            0     59212078    12.683362    22.410331     14.17901    19.738642    33.263485    8.6174848    12.612127     22.30075    14.235163 
  585400    70.859121     59211771            0     59212047    12.683325    22.410318    14.178975    19.734927    33.262197    8.6139574    12.612127     22.30075    14.235163 
  585600    288.75449     59211335            0     59212459     12.68336    22.410375    14.178725    19.738441    33.267832    8.5889034    12.612127     22.30075    14.235163 
  585800    243.04722     59210871            0     59211817    12.683318    22.410358    14.178936    19.734297    33.266117    8.6100676    12.612127     22.30075    14.235163 
  586000    388.80557     59210729            0     59212242    12.683325    22.410366    14.178997    19.734934    33.266992    8.6161435    12.612127     22.30075    14.235163 
  586200    226.92351     59211875            0     59212759    12.683317    22.410352    14.178999    19.734113    33.265597    8.6163805    12.612127     22.30075    14.235163 
  586400    231.18731     59210490            0     59211390    12.683316    22.410353    14.179043    19.734004    33.265675    8.6207878    12.612127     22.30075    14.235163 
  586600    310.84143     59211104            0     59212314    12.683312    22.410338    14.179222    19.733671     33.26415    8.6387009    12.612127     22.30075    14.235163 
  586800    72.107353     59211505            0     59211786     12.68333    22.410329    14.178968    19.735427    33.263306    8.6132782    12.612127     22.30075    14.235163 
  587000    294.25925     59211411            0     59212557    12.683334    22.410352    14.178902    19.735825    33.265581    8.6066232    12.612127     22.30075    14.235163 
  587200    212.75518     59211000            0     59211828    12.683326    22.410353    14.178921    19.735038    33.265679    8.6085587    12.612127     22.30075    14.235163 
  587400     226.0697     59211548            0     59212428    12.683312    22.410348    14.178833    19.733648    33.265123    8.5997394    12.612127     22.30075    14.235163 
  587600      140.707     59210808            0     59211356    12.683299    22.410384     14.17905    19.732337     33.26875    8.6214899    12.612127     22.30075    14.235163 
  587800    217.75321     59210772            0     59211620    12.683302    22.410366    14.178949    19.732665    33.266948    8.6113551    12.612127     22.30075    14.235163 
  588000    178.55211     59211478            0     59212173     12.68331    22.410359    14.178921    19.733423    33.266219    8.6085548    12.612127     22.30075    14.235163 
  588200    108.14111     59212286            0     59212707    12.683302    22.410355     14.17897    19.732653      33.2659    8.6134899    12.612127     22.30075    14.235163 
  588400    236.55893     59211171            0     59212092    12.683293     22.41035    14.179147     19.73178    33.265365    8.6311966    12.612127     22.30075    14.235163 
  588600     171.1333     59210358            0     59211024    12.683309    22.410355    14.178904    19.733305    33.265864    8.6068551    12.612127     22.30075    14.235163 
  588800    245.73143     59211439            0     59212396    12.683298    22.410368     14.17903    19.732277    33.267163    8.6194891    12.612127     22.30075    14.235163 
  589000    186.57965     59211151            0     59211877    12.683316    22.410358    14.178847    19.734069    33.266166    8.6011846    12.612127     22.30075    14.235163 
  589200    234.26463     59210618            0     59211530    12.683319    22.410352    14.178859    19.734361    33.265605    8.6023271    12.612127     22.30075    14.235163 
  589400    178.74098     59210480            0     59211176    12.683278    22.410352    14.179055    19.730293    33.265527    8.6219913    12.612127     22.30075    14.235163 
  589600    225.66195     59210858            0     59211737    12.683315    22.410355    14.178926    19.733947    33.265857    8.6090988    12.612127     22.30075    14.235163 
  589800    239.02963     59212113            0     59213044    12.683316    22.410353     14.17894    19.734014    33.265682    8.6104219    12.612127     22.30075    14.235163 
  590000    130.15226     59211025            0     59211531    12.683319    22.410355    14.179056    19.734317    33.265818    8.6220742    12.612127     22.30075    14.235163 
  590200    245.72896     59211608            0     59212564    12.683307    22.410344    14.178905    19.733125    33.264789    8.6069674    12.612127     22.30075    14.235163 
  590400    187.40625     59211317            0     59212047    12.683316    22.410353    14.178853    19.734021     33.26562    8.6017378    12.612127     22.30075    14.235163 
  590600    180.24752     59211463            0     59212164    12.683313     22.41035    14.178963     19.73377    33.265355    8.6127699    12.612127     22.30075    14.235163 
  590800    142.85556     59211700            0     59212256    12.683316    22.410353    14.179044    19.734021    33.265675    8.6208863    12.612127     22.30075    14.235163 
  591000    176.92382     59212026            0     59212715    12.683311    22.410344    14.179224    19.733497    33.264709    8.6388361    12.612127     22.30075    14.235163 
  591200    281.12354     59211237            0     59212331    12.683284    22.410379    14.178809     19.73087    33.268262    8.5973127    12.612127     22.30075    14.235163 
  591400    178.53274     59211987            0     59212682    12.683316    22.410353    14.178805    19.734013    33.265679    8.5969964    12.612127     22.30075    14.235163 
  591600    146.57039     59213197            0     59213767    12.683338    22.410358    14.179237    19.736259    33.266178     8.640205    12.612127     22.30075    14.235163 
  591800    359.98712     59211861            0     59213262    12.683315    22.410353    14.179125    19.733936     33.26566    8.6289869    12.612127     22.30075    14.235163 
  592000    208.00495     59212394            0     59213204    12.683314     22.41035    14.178879    19.733806    33.265364    8.6043904    12.612127     22.30075    14.235163 
  592200    273.91681     59211120            0     59212186    12.683329    22.410327    14.179011    19.735367    33.263054    8.6175315    12.612127     22.30075    14.235163 
  592400    299.12487     59211363            0     59212528    12.683327    22.410351    14.179072     19.73513    33.265419    8.6236252    12.612127     22.30075    14.235163 
  592600    111.88893     59212012            0     59212447      12.6833    22.410354    14.179017    19.732461    33.265768    8.6181136    12.612127     22.30075    14.235163 
  592800    184.31123     59212175            0     59212892    12.683304    22.410335    14.179103    19.732838    33.263884    8.6267284    12.612127     22.30075    14.235163 
  593000    213.96105     59212311            0     59213144    12.683317    22.410353    14.178599    19.734116    33.265652    8.5763843    12.612127     22.30075    14.235163 
  593200    190.19066     59211791            0     59212532     12.68332     22.41036     14.17904    19.734485    33.266344    8.6204176    12.612127     22.30075    14.235163 
  593400    66.409146     59212191            0     59212450    12.683319    22.410359    14.179165    19.734388    33.266257    8.6329354    12.612127     22.30075    14.235163 
  593600     246.4786     59212179            0     59213139    12.683328    22.410352    14.178743    19.735279    33.265586     8.590725    12.612127     22.30075    14.235163 
  593800    212.05802     59210376            0     59211201    12.683312    22.410344    14.179116    19.733617    33.264787    8.6280706    12.612127     22.30075    14.235163 
  594000    194.63769     59211768            0     59212526    12.683283    22.410336    14.179118     19.73078    33.263956    8.6282172    12.612127     22.30075    14.235163 
  594200    147.89274     59212091            0     59212667    12.683327    22.410331    14.178752    19.735148    33.263436    8.5916829    12.612127     22.30075    14.235163 
  594400    251.57929     59211573            0     59212552    12.683315    22.410353    14.179005    19.733991    33.265682    8.6169621    12.612127     22.30075    14.235163 
  594600    183.33264     59211266            0     59211979    12.683312    22.410353    14.178965    19.733624    33.265682    8.6129246    12.612127     22.30075    14.235163 
  594800    144.85628     59210899            0     59211463    12.683316    22.410353    14.179111    19.734011    33.265682    8.6275997    12.612127     22.30075    14.235163 
  595000    273.30964     59211026            0     59212090    12.683315    22.410353    14.179081    19.733996    33.265682    8.6245876    12.612127     22.30075    14.235163 
  595200    155.10736     59212332            0     59212936    12.683332    22.410321    14.178941    19.735698    33.262487    8.6105732    12.612127     22.30075    14.235163 
  595400    331.47693     59211366            0     59212657    12.683329    22.410352    14.179018    19.735367    33.265607    8.6182473    12.612127     22.30075    14.235163 
  595600     193.7801     59211550            0     59212304    12.683296    22.410354    14.178999     19.73204    33.265744    8.6163641    12.612127     22.30075    14.235163 
  595800    201.70619     59211728            0     59212513    12.683304    22.410359    14.179024    19.732822    33.266289     8.618817    12.612127     22.30075    14.235163 
  596000    196.17782     59210940            0     59211704    12.683277    22.410355    14.179049    19.730128    33.265882    8.6213754    12.612127     22.30075    14.235163 
  596200    336.93087     59211009            0     59212321    12.683312     22.41036    14.178979    19.733662    33.266373    8.6143865    12.612127     22.30075    14.235163 
  596400    303.02698     59210741            0     59211921    12.683342    22.410349    14.179006    19.736646    33.265228    8.6170949    12.612127     22.30075    14.235163 
  596600    176.71284     59211827            0     59212515    12.683305    22.410354    14.178719    19.732995    33.265738    8.5883105    12.612127     22.30075    14.235163 
  596800    134.78897     59211236            0     59211761    12.683289    22.410355    14.179015    19.731315     33.26583    8.6179554    12.612127     22.30075    14.235163 
  597000    250.05085     59211071            0     59212044    12.683316    22.410353    14.178958    19.734013    33.265683    8.6122432    12.612127     22.30075    14.235163 
  597200    217.87654     59211034            0     59211882    12.683343    22.410341    14.178998    19.736719    33.264483    8.6162135    12.612127     22.30075    14.235163 
  597400    160.19062     59211266            0     59211890    12.683316    22.410352    14.178705    19.734058    33.265592    8.5869165    12.612127     22.30075    14.235163 
  597600    257.43056     59210524            0     59211526    12.683316    22.410353     14.17895    19.734014    33.265677    8.6114346    12.612127     22.30075    14.235163 
  597800    148.21957     59210815            0     59211392    12.683341    22.410363    14.179057    19.736596    33.266708    8.6222027    12.612127     22.30075    14.235163 
  598000    333.88114     59211271            0     59212571    12.683323    22.410354    14.178955    19.734754     33.26571    8.6119316    12.612127     22.30075    14.235163 
  598200    148.00039     59211302            0     59211878    12.683315    22.410353    14.178868    19.733953    33.265685    8.6032816    12.612127     22.30075    14.235163 
  598400    291.30837     59210968            0     59212102    12.683306    22.410371    14.179051    19.733094    33.267495    8.6215937    12.612127     22.30075    14.235163 
  598600    233.77725     59212115            0     59213026    12.683314    22.410349    14.179131    19.733846    33.265274      8.62955    12.612127     22.30075    14.235163 
  598800    273.16769     59212317            0     59213381    12.683338    22.410346    14.179286    19.736222    33.264918     8.645043    12.612127     22.30075    14.235163 
  599000    236.68439     59211849            0     59212771     12.68334    22.410337    14.178918    19.736411    33.264033    8.6082568    12.612127     22.30075    14.235163 
  599200    280.24525     59212107            0     59213198    12.683302    22.410357    14.178932    19.732672    33.266046    8.6096517    12.612127     22.30075    14.235163 
  599400    184.60352     59210728            0     59211446    12.683294    22.410355    14.179015    19.731838    33.265822    8.6179996    12.612127     22.30075    14.235163 
  599600    164.20633     59211287            0     59211926    12.683279    22.410368    14.179117    19.730319    33.267129    8.6281655    12.612127     22.30075    14.235163 
  599800    273.84285     59211045            0     59212111    12.683289    22.410355    14.178709    19.731365    33.265828     8.587333    12.612127     22.30075    14.235163 
  600000    318.14301     59210444            0     59211682    12.683332    22.410369    14.178842    19.735625    33.267307    8.6006999    12.612127     22.30075    14.235163 
  600200    177.15951     59211729            0     59212419    12.683273    22.410334    14.178965     19.72977    33.263745    8.6129864    12.612127     22.30075    14.235163 
  600400    216.93523     59210848            0     59211692    12.683283    22.410355    14.179131    19.730745     33.26586     8.629588    12.612127     22.30075    14.235163 
  600600    183.54737     59210851            0     59211566    12.683319    22.410353    14.179002    19.734344    33.265663    8.6166637    12.612127     22.30075    14.235163 
  600800    264.21323     59211153            0     59212182    12.683321    22.410343    14.178884    19.734507    33.264703    8.6048724    12.612127     22.30075    14.235163 
  601000    111.28075     59211527            0     59211960    12.683316    22.410353    14.178916    19.734026    33.265682    8.6080753    12.612127     22.30075    14.235163 
  601200    156.17848     59211719            0     59212327    12.683321    22.410343    14.178694    19.734506    33.264686    8.5858853    12.612127     22.30075    14.235163 
  601400    342.09701     59211681            0     59213012    12.683317    22.410346    14.178768     19.73411    33.264917     8.593218    12.612127     22.30075    14.235163 
  601600    152.96561     59210521            0     59211117    12.683315    22.410355    14.179031    19.733916    33.265874    8.6195612    12.612127     22.30075    14.235163 
  601800    82.599529     59210705            0     59211026    12.683304    22.410354    14.179027    19.732833    33.265747    8.6192083    12.612127     22.30075    14.235163 
  602000    154.01132     59211551            0     59212151    12.683295    22.410323    14.178924    19.731984    33.262682    8.6088639    12.612127     22.30075    14.235163 
  602200    162.55443     59211706            0     59212339    12.683331    22.410352    14.179016    19.735568    33.265595    8.6180588    12.612127     22.30075    14.235163 
  602400    337.80894     59210592            0     59211907    12.683309    22.410343    14.178913    19.733327    33.264656    8.6077682    12.612127     22.30075    14.235163 
  602600    200.98716     59210502            0     59211284    12.683336    22.410336    14.179079    19.736074       33.264    8.6243875    12.612127     22.30075    14.235163 
  602800     245.7678     59211028            0     59211984    12.683295    22.410367    14.178871    19.731941    33.267104     8.603591    12.612127     22.30075    14.235163 
  603000      313.858     59211543            0     59212765    12.683307    22.410354    14.178988    19.733122    33.265719    8.6152722    12.612127     22.30075    14.235163 
  603200    257.01728     59210258            0     59211259    12.683317    22.410345    14.178988    19.734155    33.264899    8.6152708    12.612127     22.30075    14.235163 
  603400    248.15211     59211256            0     59212223    12.683286    22.410369    14.179024    19.731067    33.267272    8.6188975    12.612127     22.30075    14.235163 
  603600    71.190225     59211437            0     59211714    12.683332    22.410372    14.179005    19.735616    33.267538    8.6169678    12.612127     22.30075    14.235163 
  603800    282.31926     59211209            0     59212308     12.68333    22.410362    14.179038    19.735491    33.266539    8.6203114    12.612127     22.30075    14.235163 
  604000    186.22533     59211770            0     59212495    12.683298    22.410328    14.179224    19.732288    33.263141    8.6388521    12.612127     22.30075    14.235163 
  604200    286.91681     59211653            0     59212770    12.683316    22.410353    14.179009    19.734009    33.265687    8.6173875    12.612127     22.30075    14.235163 
  604400    201.35379     59211100            0     59211884    12.683304    22.410358    14.179006    19.732854    33.266141    8.6170573    12.612127     22.30075    14.235163 
  604600    353.91397     59211285            0     59212663     12.68332    22.410332    14.178889    19.734427    33.263606    8.6054049    12.612127     22.30075    14.235163 
  604800    270.57302     59210785            0     59211838    12.683304    22.410363    14.178858    19.732803    33.266666    8.6022264    12.612127     22.30075    14.235163 
  605000    216.77678     59212767            0     59213611    12.683313    22.410345    14.178775    19.733703    33.264821    8.5939633    12.612127     22.30075    14.235163 
  605200     303.2883     59211298            0     59212479    12.683311    22.410352    14.178896    19.733563    33.265597    8.6060489    12.612127     22.30075    14.235163 
  605400    49.615257     59211810            0     59212003    12.683332    22.410315    14.179195    19.735656    33.261859    8.6359803    12.612127     22.30075    14.235163 
  605600     156.8221     59210640            0     59211250    12.683307    22.410354    14.179018    19.733175     33.26574    8.6182169    12.612127     22.30075    14.235163 
  605800    301.31242     59211648            0     59212821      12.6833    22.410383    14.179086    19.732494    33.268682    8.6250477    12.612127     22.30075    14.235163 
  606000    110.71876     59210763            0     59211194    12.683292    22.410351    14.179068    19.731692    33.265488    8.6232497    12.612127     22.30075    14.235163 
  606200    273.02807     59210899            0     59211962    12.683297    22.410399    14.178943    19.732116    33.270297    8.6107627    12.612127     22.30075    14.235163 
  606400    217.37383     59212515            0     59213361    12.683317    22.410351     14.17901    19.734131    33.265492    8.6175084    12.612127     22.30075    14.235163 
  606600    252.16232     59210930            0     59211912    12.683337    22.410374    14.178869    19.736145    33.267801    8.6033957    12.612127     22.30075    14.235163 
  606800    201.29966     59212213            0     59212997    12.683322    22.410353    14.178819    19.734673    33.265707    8.5983307    12.612127     22.30075    14.235163 
  607000    240.48068     59211089            0     59212025    12.683316    22.410353    14.179112    19.734045    33.265681    8.6276829    12.612127     22.30075    14.235163 
  607200    104.78635     59212524            0     59212932    12.683297    22.410393    14.179091    19.732182    33.269629    8.6255228    12.612127     22.30075    14.235163 
  607400     270.1502     59211914            0     59212965    12.683305    22.410343    14.179064    19.732966     33.26466    8.6228777    12.612127     22.30075    14.235163 
  607600    247.19179     59212152            0     59213114    12.683336    22.410369    14.178968    19.736039    33.267305     8.613237    12.612127     22.30075    14.235163 
  607800    230.63416     59211164            0     59212062    12.683326    22.410337    14.178994    19.735005    33.264023    8.6158431    12.612127     22.30075    14.235163 
  608000    232.39479     59210867            0     59211772    12.683316    22.410353    14.179107    19.734064    33.265631    8.6271863    12.612127     22.30075    14.235163 
  608200    210.44108     59212583            0     59213403    12.683316    22.410353    14.179086     19.73401    33.265696    8.6250682    12.612127     22.30075    14.235163 
  608400    158.62746     59211075            0     59211693    12.683332    22.410324    14.178974    19.735662    33.262789     8.613857    12.612127     22.30075    14.235163 
  608600    346.31206     59211097            0     59212445    12.683351    22.410361    14.178994    19.737568    33.266413    8.6158823    12.612127     22.30075    14.235163 
  608800    174.75296     59210988            0     59211668    12.683325    22.410367    14.179137     19.73494    33.267102    8.6301308    12.612127     22.30075    14.235163 
  609000    207.83957     59212578            0     59213387    12.683299    22.410347    14.179023    19.732299    33.265041    8.6187845    12.612127     22.30075    14.235163 
  609200    200.90459     59212596            0     59213378    12.683312    22.410356    14.179247    19.733679    33.265974    8.6411444    12.612127     22.30075    14.235163 
  609400    234.30543     59210889            0     59211801    12.683316    22.410353    14.179183    19.734007    33.265674    8.6347475    12.612127     22.30075    14.235163 
  609600    253.07142     59210547            0     59211532    12.683302    22.410379    14.178805    19.732627    33.268262    8.5969218    12.612127     22.30075    14.235163 
  609800    273.80231     59211194            0     59212260    12.683328    22.410333    14.178957    19.735242     33.26364     8.612159    12.612127     22.30075    14.235163 
  610000    210.15347     59210985            0     59211803     12.68332    22.410343    14.179127     19.73442    33.264671     8.629208    12.612127     22.30075    14.235163 
  610200    215.63615     59212215            0     59213054    12.683316    22.410353    14.179235     19.73401    33.265683    8.6399228    12.612127     22.30075    14.235163 
  610400    219.35304     59210829            0     59211683    12.683329    22.410356    14.178939    19.735353    33.265983    8.6103216    12.612127     22.30075    14.235163 
  610600     86.73166     59211520            0     59211858    12.683316    22.410352    14.179105     19.73408     33.26557    8.6269549    12.612127     22.30075    14.235163 
  610800    142.10263     59211076            0     59211629    12.683313     22.41036    14.179043    19.733716    33.266325    8.6207769    12.612127     22.30075    14.235163 
  611000    163.27804     59211434            0     59212069    12.683328    22.410372    14.179011    19.735288    33.267527    8.6175318    12.612127     22.30075    14.235163 
  611200    140.91876     59211075            0     59211624    12.683295    22.410354    14.178937    19.731941    33.265784    8.6101707    12.612127     22.30075    14.235163 
  611400    275.25913     59211531            0     59212603    12.683318    22.410353    14.179173    19.734206    33.265678    8.6337753    12.612127     22.30075    14.235163 
  611600    290.58612     59211173            0     59212304    12.683314    22.410346    14.178946    19.733871     33.26495    8.6110298    12.612127     22.30075    14.235163 
  611800    201.86022     59212581            0     59213367    12.683329    22.410335    14.179279    19.735345    33.263819     8.644391    12.612127     22.30075    14.235163 
  612000    140.05646     59212138            0     59212683    12.683316    22.410359    14.178899    19.734005    33.266224    8.6063599    12.612127     22.30075    14.235163 
  612200    361.01124     59212011            0     59213416    12.683296    22.410328     14.17878    19.732058    33.263147    8.5944933    12.612127     22.30075    14.235163 
  612400    321.49728     59211657            0     59212908    12.683307    22.410354    14.179019    19.733148    33.265797    8.6183869    12.612127     22.30075    14.235163 
  612600    222.66292     59211838            0     59212704    12.683316    22.410354    14.179028    19.734053    33.265761    8.6192677    12.612127     22.30075    14.235163 
  612800    269.82978     59211950            0     59213001    12.683284    22.410354    14.179236    19.730844    33.265802    8.6400382    12.612127     22.30075    14.235163 
  613000    330.16002     59211234            0     59212519    12.683323    22.410359    14.178878    19.734728     33.26621    8.6042776    12.612127     22.30075    14.235163 
  613200    197.90593     59211056            0     59211826    12.683311    22.410354      14.1791    19.733509    33.265717    8.6264717    12.612127     22.30075    14.235163 
  613400    218.39668     59211685            0     59212535     12.68332    22.410344    14.179126     19.73443    33.264807    8.6290197    12.612127     22.30075    14.235163 
  613600    210.19164     59210885            0     59211704    12.683295    22.410384    14.179016    19.731933     33.26873    8.6180771    12.612127     22.30075    14.235163 
  613800    218.67357     59211194            0     59212045    12.683329    22.410352    14.178935    19.735343    33.265569    8.6099781    12.612127     22.30075    14.235163 
  614000    199.28959     59211499            0     59212274    12.683321    22.410341    14.178945    19.734595     33.26444    8.6109382    12.612127     22.30075    14.235163 
  614200    229.98226     59210809            0     59211705    12.683289    22.410361    14.178855    19.731377    33.266497    8.6019644    12.612127     22.30075    14.235163 
  614400    176.59075     59211386            0     59212074    12.683316    22.410353    14.178878    19.734012    33.265682    8.6042705    12.612127     22.30075    14.235163 
  614600    169.30461     59211790            0     59212449    12.683317    22.410354    14.179049    19.734152    33.265747     8.621405    12.612127     22.30075    14.235163 
  614800    128.14855     59210629            0     59211128    12.683328    22.410377    14.178919    19.735198    33.268086    8.6083798    12.612127     22.30075    14.235163 
  615000    270.99007     59212535            0     59213590    12.683317     22.41035    14.179188    19.734172    33.265367    8.6353018    12.612127     22.30075    14.235163 
  615200    233.30093     59211477            0     59212385    12.683302    22.410333     14.17878    19.732611    33.263666    8.5944185    12.612127     22.30075    14.235163 
  615400    156.80791     59211818            0     59212428    12.683317    22.410359    14.179002    19.734157    33.266275    8.6167008    12.612127     22.30075    14.235163 
  615600    171.41866     59211447            0     59212115    12.683309    22.410367    14.178955    19.733372    33.267049    8.6119501    12.612127     22.30075    14.235163 
  615800    354.91551     59211764            0     59213145    12.683316    22.410353    14.178906    19.734012    33.265682    8.6070179    12.612127     22.30075    14.235163 
  616000    168.88296     59211194            0     59211852    12.683308    22.410368     14.17899    19.733285     33.26717     8.615477    12.612127     22.30075    14.235163 
  616200    143.57915     59211582            0     59212141     12.68333    22.410382    14.178796    19.735423    33.268543     8.596076    12.612127     22.30075    14.235163 
  616400    284.58433     59210382            0     59211490      12.6833    22.410357    14.178987    19.732496    33.266022    8.6151863    12.612127     22.30075    14.235163 
  616600    208.57544     59211642            0     59212454    12.683316    22.410353    14.178822    19.734013    33.265681    8.5986778    12.612127     22.30075    14.235163 
  616800    136.63713     59211322            0     59211854     12.68331    22.410349    14.178964    19.733413    33.265303    8.6128579    12.612127     22.30075    14.235163 
  617000    271.73107     59210802            0     59211859    12.683313    22.410358    14.178816    19.733774    33.266204    8.5980538    12.612127     22.30075    14.235163 
  617200    116.70149     59210793            0     59211247    12.683316    22.410352    14.179138    19.734085    33.265531    8.6302404    12.612127     22.30075    14.235163 
  617400    54.880583     59211594            0     59211808    12.683261    22.410364    14.179036    19.728545    33.266764    8.6200661    12.612127     22.30075    14.235163 
  617600     189.4149     59211378            0     59212116    12.683314    22.410356    14.178883    19.733843    33.265989    8.6047306    12.612127     22.30075    14.235163 
  617800    224.08818     59211040            0     59211913    12.683326    22.410346    14.179073    19.735092    33.264998    8.6238032    12.612127     22.30075    14.235163 
  618000     200.0133     59211067            0     59211846    12.683316    22.410353    14.179061     19.73401    33.265689    8.6226021    12.612127     22.30075    14.235163 
  618200    125.38259     59210512            0     59211000    12.683348    22.410352    14.178872    19.737269    33.265522    8.6037049    12.612127     22.30075    14.235163 
  618400    209.69371     59211870            0     59212687    12.683312    22.410356     14.17907    19.733659     33.26598    8.6234932    12.612127     22.30075    14.235163 
  618600    108.99234     59212066            0     59212490    12.683311    22.410362    14.178925    19.733591    33.266602    8.6089682    12.612127     22.30075    14.235163 
  618800    261.57162     59210938            0     59211956    12.683341    22.410347    14.178838    19.736501    33.265102    8.6002656    12.612127     22.30075    14.235163 
  619000    147.84393     59211385            0     59211960    12.683323    22.410346    14.179155    19.734796    33.264965    8.6319589    12.612127     22.30075    14.235163 
  619200    214.84562     59211061            0     59211897    12.683325    22.410362    14.179047     19.73495    33.266579    8.6211907    12.612127     22.30075    14.235163 
  619400    130.17923     59211934            0     59212441     12.68334     22.41035    14.178849    19.736446      33.2654    8.6013876    12.612127     22.30075    14.235163 
  619600    311.95959     59210979            0     59212194    12.683314    22.410353    14.179055     19.73384     33.26562    8.6219615    12.612127     22.30075    14.235163 
  619800    160.80608     59211443            0     59212069    12.683315    22.410353    14.179035    19.733981    33.265629    8.6199179    12.612127     22.30075    14.235163 
  620000    117.79716     59210918            0     59211377    12.683337    22.410383    14.179143     19.73616    33.268693    8.6308052    12.612127     22.30075    14.235163 
  620200    176.63689     59211103            0     59211790    12.683328    22.410353    14.178911    19.735218    33.265619    8.6075132    12.612127     22.30075    14.235163 
  620400    219.27728     59212095            0     59212948    12.683295    22.410361    14.179145    19.731907    33.266428    8.6309866    12.612127     22.30075    14.235163 
  620600    230.01594     59211271            0     59212166    12.683324    22.410366    14.178861    19.734891    33.266946    8.6025487    12.612127     22.30075    14.235163 
  620800    342.14083     59211311            0     59212643      12.6833    22.410349    14.178997     19.73244    33.265245    8.6161568    12.612127     22.30075    14.235163 
  621000    229.09267     59212068            0     59212960    12.683302    22.410358     14.17897    19.732654    33.266138    8.6134112    12.612127     22.30075    14.235163 
  621200    509.36775     59210962            0     59212945    12.683311    22.410369    14.179045    19.733533    33.267235    8.6209709    12.612127     22.30075    14.235163 
  621400    227.41091     59210640            0     59211525    12.683315    22.410353    14.178946    19.733958    33.265667    8.6110882    12.612127     22.30075    14.235163 
  621600    183.54377     59212268            0     59212982    12.683301    22.410354    14.178772    19.732502    33.265763    8.5936297    12.612127     22.30075    14.235163 
  621800    200.92816     59211452            0     59212234    12.683319    22.410352    14.179101    19.734349      33.2656    8.6265368    12.612127     22.30075    14.235163 
  622000    155.89019     59211053            0     59211660    12.683324     22.41036    14.178756    19.734829    33.266388    8.5920402    12.612127     22.30075    14.235163 
  622200    277.82022     59210889            0     59211971    12.683319    22.410352    14.178932    19.734383    33.265513    8.6096798    12.612127     22.30075    14.235163 
  622400    332.66901     59211455            0     59212750    12.683334    22.410352    14.179065     19.73582    33.265584     8.622959    12.612127     22.30075    14.235163 
  622600    240.21132     59212278            0     59213213    12.683325    22.410335    14.179122    19.734937    33.263856     8.628629    12.612127     22.30075    14.235163 
  622800    241.42381     59211722            0     59212661      12.6833    22.410385    14.179013    19.732433    33.268823    8.6177503    12.612127     22.30075    14.235163 
  623000      223.171     59210731            0     59211600    12.683316    22.410353    14.179073    19.734008     33.26569    8.6237885    12.612127     22.30075    14.235163 
  623200    172.23105     59211508            0     59212178    12.683306    22.410339     14.17896    19.733095    33.264229     8.612499    12.612127     22.30075    14.235163 
  623400    63.616207     59211222            0     59211469    12.683302    22.410369    14.178893    19.732695    33.267218    8.6057254    12.612127     22.30075    14.235163 
  623600    303.73055     59210334            0     59211516    12.683276     22.41035    14.178888     19.73004    33.265353    8.6052076    12.612127     22.30075    14.235163 
  623800    153.76221     59211429            0     59212027    12.683303    22.410354    14.179115     19.73275    33.265751    8.6279505    12.612127     22.30075    14.235163 
  624000    135.95758     59211646            0     59212175    12.683316    22.410353    14.179172    19.734004    33.265663    8.6337122    12.612127     22.30075    14.235163 
  624200    235.47394     59210912            0     59211828    12.683324    22.410365    14.179027    19.734809    33.266854    8.6192039    12.612127     22.30075    14.235163 
  624400    351.56834     59210973            0     59212341    12.683316    22.410353    14.178804    19.734013    33.265682    8.5968178    12.612127     22.30075    14.235163 
  624600    121.86062     59211144            0     59211619    12.683315    22.410355    14.178921    19.733934    33.265855     8.608574    12.612127     22.30075    14.235163 
  624800    258.43713     59211329            0     59212335    12.683316    22.410353    14.179064    19.734012    33.265692    8.6228995    12.612127     22.30075    14.235163 
  625000    218.91055     59211288            0     59212141    12.683314    22.410356    14.178886     19.73381    33.265998    8.6050077    12.612127     22.30075    14.235163 
  625200     241.9971     59210320            0     59211262    12.683334    22.410416    14.178883    19.735881    33.271955    8.6047794    12.612127     22.30075    14.235163 
  625400    208.21535     59211144            0     59211954    12.683343    22.410365    14.178961    19.736798    33.266824    8.6125634    12.612127     22.30075    14.235163 
  625600    121.65157     59211247            0     59211720    12.683356    22.410362    14.178867    19.738038    33.266567    8.6031603    12.612127     22.30075    14.235163 
  625800    257.59157     59211027            0     59212030    12.683326    22.410337    14.178867    19.735055    33.264043    8.6031071    12.612127     22.30075    14.235163 
  626000    202.20859     59211663            0     59212450    12.683316    22.410353    14.179373    19.734013    33.265685    8.6537628    12.612127     22.30075    14.235163 
  626200    115.91852     59211748            0     59212199    12.683276    22.410355    14.179227    19.730019    33.265901    8.6392098    12.612127     22.30075    14.235163 
  626400     207.2101     59212307            0     59213113    12.683303    22.410359    14.178937    19.732744    33.266267    8.6101469    12.612127     22.30075    14.235163 
  626600    179.65573     59211092            0     59211791    12.683294    22.410343    14.178855    19.731857    33.264689    8.6019624    12.612127     22.30075    14.235163 
  626800    261.87752     59211368            0     59212388    12.683317    22.410355    14.179006    19.734193    33.265903    8.6170818    12.612127     22.30075    14.235163 
  627000    124.85952     59210911            0     59211397    12.683296    22.410422     14.17905    19.732083    33.272595    8.6214284    12.612127     22.30075    14.235163 
  627200     142.0392     59210510            0     59211063    12.683265    22.410359    14.178991    19.728977    33.266279    8.6155409    12.612127     22.30075    14.235163 
  627400    184.28685     59211564            0     59212281    12.683339    22.410352    14.178931    19.736325    33.265548    8.6095443    12.612127     22.30075    14.235163 
  627600    209.79677     59210404            0     59211221    12.683292    22.410362    14.178992    19.731619      33.2666    8.6156559    12.612127     22.30075    14.235163 
  627800      139.319     59211039            0     59211581    12.683342    22.410384    14.179153    19.736691    33.268761    8.6317961    12.612127     22.30075    14.235163 
  628000    129.14452     59211888            0     59212391    12.683296    22.410363    14.178926    19.732009    33.266696    8.6090406    12.612127     22.30075    14.235163 
  628200    177.87944     59210066            0     59210759    12.683316    22.410353    14.178907    19.734015    33.265684    8.6071389    12.612127     22.30075    14.235163 
  628400    182.22915     59211641            0     59212350    12.683324    22.410356    14.179038    19.734894     33.26598    8.6202498    12.612127     22.30075    14.235163 
  628600    226.07034     59210819            0     59211699    12.683305    22.410354    14.178989    19.732975    33.265741    8.6153201    12.612127     22.30075    14.235163 
  628800     252.5385     59211655            0     59212638    12.683284    22.410352    14.178979    19.730816    33.265583    8.6143115    12.612127     22.30075    14.235163 
  629000    162.96158     59214110            0     59214745    12.683316    22.410353    14.178978    19.734013    33.265682    8.6142327    12.612127     22.30075    14.235163 
  629200    142.80123     59210911            0     59211466    12.683339    22.410352    14.178866    19.736326    33.265555    8.6030871    12.612127     22.30075    14.235163 
  629400    198.53039     59211033            0     59211805    12.683316    22.410354    14.179039    19.734001    33.265717    8.6203915    12.612127     22.30075    14.235163 
  629600    194.04026     59211126            0     59211881    12.683319    22.410368     14.17896    19.734304    33.267176    8.6124244    12.612127     22.30075    14.235163 
  629800    125.83009     59211700            0     59212190    12.683264    22.410358    14.179066    19.728827    33.266143    8.6230904    12.612127     22.30075    14.235163 
  630000    290.37263     59210809            0     59211939    12.683277    22.410356    14.178912    19.730142    33.265917    8.6076644    12.612127     22.30075    14.235163 
  630200    236.98034     59210752            0     59211674    12.683314    22.410355     14.17903    19.733888    33.265866    8.6194767    12.612127     22.30075    14.235163 
  630400    213.44226     59211629            0     59212460     12.68328    22.410369    14.179182    19.730416     33.26722    8.6346773    12.612127     22.30075    14.235163 
  630600    270.02837     59211869            0     59212920    12.683289     22.41033    14.179101    19.731302    33.263346    8.6265806    12.612127     22.30075    14.235163 
  630800    265.16833     59212079            0     59213111    12.683316    22.410353    14.178793    19.734072    33.265707    8.5957241    12.612127     22.30075    14.235163 
  631000    274.75307     59210975            0     59212045    12.683289    22.410347    14.178929    19.731331    33.265042    8.6093603    12.612127     22.30075    14.235163 
  631200     226.1165     59211802            0     59212683    12.683316    22.410353    14.178936    19.734009    33.265683    8.6100598    12.612127     22.30075    14.235163 
  631400    174.42354     59211450            0     59212129    12.683317    22.410353    14.179091    19.734171    33.265673    8.6256049    12.612127     22.30075    14.235163 
  631600    208.51611     59211779            0     59212591    12.683354    22.410337    14.178937    19.737817    33.264012    8.6101605    12.612127     22.30075    14.235163 
  631800    216.50145     59211452            0     59212295    12.683327    22.410368    14.178909     19.73517    33.267168    8.6073212    12.612127     22.30075    14.235163 
  632000    232.37775     59211915            0     59212820    12.683349    22.410352    14.178762    19.737323    33.265526    8.5926476    12.612127     22.30075    14.235163 
  632200    284.59851     59211380            0     59212488    12.683337    22.410361    14.179026    19.736197    33.266484    8.6190362    12.612127     22.30075    14.235163 
  632400    283.96568     59211630            0     59212735    12.683266    22.410362    14.179129    19.729075    33.266541    8.6293324    12.612127     22.30075    14.235163 
  632600    349.09615     59211186            0     59212545    12.683323    22.410353    14.179215    19.734783    33.265635    8.6379246    12.612127     22.30075    14.235163 
  632800    249.29482     59211439            0     59212409    12.683319    22.410349    14.179128    19.734382    33.265245    8.6292353    12.612127     22.30075    14.235163 
  633000    79.391553     59211272            0     59211581    12.683316    22.410353    14.179009    19.734015    33.265682    8.6173401    12.612127     22.30075    14.235163 
  633200    262.02281     59210430            0     59211450    12.683316    22.410353    14.178841    19.734027    33.265681     8.600555    12.612127     22.30075    14.235163 
  633400    126.85818     59211669            0     59212163    12.683322    22.410353    14.179039    19.734619     33.26566    8.6203984    12.612127     22.30075    14.235163 
  633600    372.48789     59211841            0     59213291    12.683309    22.410354    14.178892    19.733381    33.265802    8.6056386    12.612127     22.30075    14.235163 
  633800    213.21982     59211472            0     59212302    12.683315    22.410353    14.178862    19.733985    33.265684    8.6026673    12.612127     22.30075    14.235163 
  634000    99.665456     59211118            0     59211506    12.683311    22.410348     14.17911    19.733554    33.265196    8.6274313    12.612127     22.30075    14.235163 
  634200    256.68173     59211425            0     59212424    12.683316    22.410353    14.179034    19.734012    33.265682    8.6198944    12.612127     22.30075    14.235163 
  634400    211.01505     59211441            0     59212262    12.683312    22.410374    14.178783    19.733654    33.267765    8.5947504    12.612127     22.30075    14.235163 
  634600    53.267702     59210852            0     59211059    12.683319    22.410349    14.178934    19.734386    33.265307    8.6098853    12.612127     22.30075    14.235163 
  634800    272.58269     59211818            0     59212880    12.683357    22.410363    14.178726     19.73812    33.266707    8.5890471    12.612127     22.30075    14.235163 
  635000    203.71974     59211923            0     59212716    12.683317    22.410361    14.178893    19.734191    33.266493    8.6057599    12.612127     22.30075    14.235163 
  635200    218.01824     59210973            0     59211821    12.683316    22.410353    14.178715    19.734019    33.265701    8.5879292    12.612127     22.30075    14.235163 
  635400    177.20518     59213181            0     59213870    12.683329    22.410334    14.179105    19.735363    33.263762    8.6269481    12.612127     22.30075    14.235163 
  635600    143.55313     59211528            0     59212087    12.683291    22.410339    14.179062    19.731553    33.264238    8.6226969    12.612127     22.30075    14.235163 
  635800    208.19186     59210471            0     59211282    12.683338    22.410352    14.179006    19.736215     33.26556    8.6170629    12.612127     22.30075    14.235163 
  636000    166.62101     59210285            0     59210934    12.683316    22.410349    14.179035    19.733997     33.26526    8.6199989    12.612127     22.30075    14.235163 
  636200    320.51706     59211572            0     59212820    12.683316    22.410353    14.179022    19.734011    33.265681    8.6186613    12.612127     22.30075    14.235163 
  636400    128.92134     59211595            0     59212097    12.683301    22.410357    14.178782    19.732532    33.266099    8.5946027    12.612127     22.30075    14.235163 
  636600    168.27195     59210533            0     59211188    12.683338    22.410351     14.17896    19.736298    33.265478    8.6124682    12.612127     22.30075    14.235163 
  636800    247.49845     59212145            0     59213109    12.683303    22.410352     14.17907    19.732722    33.265522    8.6234562    12.612127     22.30075    14.235163 
  637000    185.66675     59211176            0     59211899    12.683316    22.410353    14.178842    19.734013    33.265681     8.600646    12.612127     22.30075    14.235163 
  637200    263.51977     59212041            0     59213067    12.683316    22.410353    14.178734    19.734011    33.265683    8.5898095    12.612127     22.30075    14.235163 
  637400     170.6787     59211628            0     59212292    12.683321     22.41035    14.178892    19.734503    33.265395    8.6056478    12.612127     22.30075    14.235163 
  637600    300.67446     59211513            0     59212683    12.683296    22.410324    14.178991    19.732011    33.262778    8.6155461    12.612127     22.30075    14.235163 
  637800    139.75995     59210184            0     59210728    12.683329     22.41033     14.17885    19.735368     33.26333    8.6014746    12.612127     22.30075    14.235163 
  638000    122.73363     59210926            0     59211403    12.683316    22.410353    14.178894    19.734041    33.265627    8.6058062    12.612127     22.30075    14.235163 
  638200    308.63077     59211281            0     59212482    12.683297    22.410351    14.178891    19.732195    33.265474    8.6055168    12.612127     22.30075    14.235163 
  638400    120.79611     59211790            0     59212260    12.683316    22.410353    14.179117    19.734012    33.265681     8.628197    12.612127     22.30075    14.235163 
  638600    203.41745     59212696            0     59213488    12.683316    22.410353    14.179022    19.734012    33.265682    8.6186128    12.612127     22.30075    14.235163 
  638800    306.37474     59211118            0     59212311      12.6833    22.410373    14.178971    19.732402    33.267687    8.6135761    12.612127     22.30075    14.235163 
  639000    156.99911     59211690            0     59212301    12.683319    22.410346    14.178763     19.73439    33.264928    8.5927013    12.612127     22.30075    14.235163 
  639200    170.25488     59211278            0     59211941    12.683335    22.410352     14.17912    19.735905    33.265578    8.6284545    12.612127     22.30075    14.235163 
  639400    237.24922     59211419            0     59212343    12.683323    22.410353    14.178799    19.734794    33.265649    8.5963821    12.612127     22.30075    14.235163 
  639600    223.14666     59211761            0     59212630    12.683315    22.410354    14.178712    19.733915    33.265743    8.5876953    12.612127     22.30075    14.235163 
  639800    322.86055     59211564            0     59212821    12.683328    22.410329    14.178851     19.73524     33.26326    8.6015665    12.612127     22.30075    14.235163 
  640000    202.98605     59211943            0     59212733    12.683329     22.41036    14.178875    19.735378    33.266317    8.6039949    12.612127     22.30075    14.235163 
  640200     322.0271     59211556            0     59212810    12.683322    22.410353    14.179046    19.734647    33.265647    8.6210636    12.612127     22.30075    14.235163 
  640400    237.52193     59212409            0     59213333    12.683305    22.410375    14.179036    19.732908    33.267864    8.6201088    12.612127     22.30075    14.235163 
  640600    201.86923     59211072            0     59211857    12.683353    22.410377    14.178827    19.737768     33.26808    8.5991738    12.612127     22.30075    14.235163 
  640800    341.53721     59211315            0     59212645    12.683321    22.410355    14.178858    19.734535    33.265844    8.6022897    12.612127     22.30075    14.235163 
  641000    294.32121     59210948            0     59212094    12.683326    22.410369    14.178937    19.735055    33.267278    8.6101189    12.612127     22.30075    14.235163 
  641200    132.70815     59210771            0     59211288    12.683308    22.410337    14.179011    19.733258    33.264047    8.6175908    12.612127     22.30075    14.235163 
  641400    169.06612     59211985            0     59212643    12.683309    22.410326    14.179066    19.733377    33.262935    8.6230822    12.612127     22.30075    14.235163 
  641600    210.06889     59210880            0     59211698    12.683336    22.410305    14.179113    19.736059    33.260844    8.6278146    12.612127     22.30075    14.235163 
  641800    240.85889     59211587            0     59212524    12.683335    22.410338    14.179108    19.735901    33.264158    8.6272415    12.612127     22.30075    14.235163 
  642000    350.01372     59211770            0     59213133    12.683311    22.410345    14.179032    19.733498    33.264893    8.6196549    12.612127     22.30075    14.235163 
  642200    176.71696     59211557            0     59212245    12.683318    22.410342    14.179189    19.734235    33.264565    8.6354134    12.612127     22.30075    14.235163 
  642400    178.68418     59211353            0     59212048    12.683316    22.410353    14.179022    19.734012    33.265682    8.6186529    12.612127     22.30075    14.235163 
  642600    281.72408     59210878            0     59211975    12.683346    22.410352    14.179186    19.736999    33.265517    8.6350707    12.612127     22.30075    14.235163 
  642800    285.99323     59211407            0     59212520    12.683254    22.410367    14.179104    19.727795    33.267047    8.6268173    12.612127     22.30075    14.235163 
  643000     196.4262     59212260            0     59213025    12.683321    22.410369    14.178904    19.734509     33.26729    8.6068707    12.612127     22.30075    14.235163 
  643200    221.86123     59211525            0     59212389    12.683336    22.410366    14.179004    19.736023    33.266947    8.6169081    12.612127     22.30075    14.235163 
  643400    256.26711     59210383            0     59211380    12.683316    22.410353    14.178841    19.734022    33.265682    8.6005113    12.612127     22.30075    14.235163 
  643600    359.48808     59212362            0     59213762    12.683316    22.410353    14.179054    19.734011    33.265682    8.6218291    12.612127     22.30075    14.235163 
  643800     229.2267     59210815            0     59211707    12.683293    22.410355    14.178918    19.731743    33.265812    8.6082727    12.612127     22.30075    14.235163 
  644000    162.71114     59212480            0     59213114    12.683282    22.410416    14.178953     19.73062    33.272008    8.6117309    12.612127     22.30075    14.235163 
  644200     246.2705     59211099            0     59212058    12.683316    22.410353    14.178956    19.734012    33.265682    8.6120654    12.612127     22.30075    14.235163 
  644400    264.67391     59211164            0     59212194    12.683319    22.410353    14.178823    19.734313     33.26567    8.5987092    12.612127     22.30075    14.235163 
  644600    135.78428     59211597            0     59212126    12.683341    22.410301    14.179128    19.736551    33.260455    8.6292784    12.612127     22.30075    14.235163 
  644800     244.1313     59212161            0     59213111    12.683316    22.410353    14.178794    19.734001    33.265677    8.5958342    12.612127     22.30075    14.235163 
  645000    344.07685     59211072            0     59212412    12.683313    22.410353    14.178971    19.733707    33.265699    8.6135504    12.612127     22.30075    14.235163 
  645200    250.20553     59211059            0     59212033    12.683332    22.410375    14.178966    19.735633     33.26785    8.6131055    12.612127     22.30075    14.235163 
  645400    250.82227     59211429            0     59212406    12.683317     22.41035    14.179056    19.734167    33.265378    8.6220909    12.612127     22.30075    14.235163 
  645600    329.00952     59210364            0     59211644     12.68333    22.410316    14.178974    19.735418    33.261998     8.613822    12.612127     22.30075    14.235163 
  645800    282.58228     59211064            0     59212164    12.683302    22.410338    14.178806    19.732667     33.26416    8.5970951    12.612127     22.30075    14.235163 
  646000    191.88636     59211617            0     59212364    12.683335     22.41036    14.179039    19.735931    33.266338    8.6203328    12.612127     22.30075    14.235163 
  646200    214.43768     59211463            0     59212297    12.683336    22.410334    14.178926    19.736048    33.263805    8.6090351    12.612127     22.30075    14.235163 
  646400    270.19144     59210997            0     59212049    12.683303    22.410334     14.17903    19.732744    33.263745    8.6194857    12.612127     22.30075    14.235163 
  646600    234.70563     59211357            0     59212271    12.683292    22.410331    14.178976    19.731686    33.263456     8.614069    12.612127     22.30075    14.235163 
  646800     136.8519     59211879            0     59212411    12.683308    22.410351    14.178953    19.733203    33.265495    8.6117464    12.612127     22.30075    14.235163 
  647000    141.77433     59211004            0     59211556    12.683295    22.410349    14.179066    19.731969     33.26528    8.6230726    12.612127     22.30075    14.235163 
  647200     232.5217     59211498            0     59212403    12.683315    22.410351    14.178975    19.733967    33.265501    8.6139327    12.612127     22.30075    14.235163 
  647400    447.69115     59210365            0     59212108    12.683316    22.410353    14.178858    19.734003    33.265668    8.6022496    12.612127     22.30075    14.235163 
  647600    191.88135     59212030            0     59212777    12.683308    22.410365    14.179145     19.73328    33.266826     8.630942    12.612127     22.30075    14.235163 
  647800     180.3606     59211075            0     59211778    12.683314    22.410357    14.179129    19.733821    33.266073    8.6294118    12.612127     22.30075    14.235163 
  648000    158.51857     59210363            0     59210980    12.683322    22.410358       14.179    19.734655    33.266204    8.6164514    12.612127     22.30075    14.235163 
  648200    223.67163     59210747            0     59211617    12.683318    22.410351    14.179112    19.734204    33.265423    8.6276264    12.612127     22.30075    14.235163 
  648400    122.85561     59211116            0     59211595      12.6833    22.410356    14.178786    19.732482    33.265955    8.5950438    12.612127     22.30075    14.235163 
  648600    119.82392     59210999            0     59211466    12.683336    22.410352    14.178866     19.73609    33.265532    8.6030286    12.612127     22.30075    14.235163 
  648800    240.12043     59211568            0     59212503    12.683318    22.410353    14.178849    19.734281     33.26567    8.6013126    12.612127     22.30075    14.235163 
  649000    210.33087     59210434            0     59211252    12.683304    22.410335    14.179057    19.732836    33.263883    8.6221157    12.612127     22.30075    14.235163 
  649200    99.966334     59211946            0     59212335    12.683324    22.410367    14.178711    19.734832    33.267088    8.5875501    12.612127     22.30075    14.235163 
  649400     196.3471     59210721            0     59211486    12.683295    22.410354     14.17884    19.731919    33.265807    8.6004396    12.612127     22.30075    14.235163 
  649600    158.28212     59211211            0     59211827    12.683316    22.410353    14.178906    19.734036    33.265677    8.6070897    12.612127     22.30075    14.235163 
  649800    188.16455     59212024            0     59212757    12.683302    22.410354    14.179097    19.732685    33.265752    8.6261724    12.612127     22.30075    14.235163 
  650000    297.18285     59211179            0     59212336    12.683301    22.410353    14.179205    19.732579    33.265632    8.6369388    12.612127     22.30075    14.235163 
  650200     199.0492     59210271            0     59211046    12.683342    22.410335    14.179028    19.736668    33.263861     8.619214    12.612127     22.30075    14.235163 
  650400    164.75914     59211703            0     59212345    12.683316    22.410353    14.178911    19.734013    33.265682    8.6075361    12.612127     22.30075    14.235163 
  650600    208.43981     59211474            0     59212286    12.683317    22.410356    14.178978    19.734116    33.265943    8.6142578    12.612127     22.30075    14.235163 
  650800    156.16513     59211375            0     59211983    12.683336     22.41034    14.178976    19.736064    33.264399    8.6141075    12.612127     22.30075    14.235163 
  651000    352.72557     59212057            0     59213431    12.683331    22.410355    14.178888    19.735519    33.265857    8.6052512    12.612127     22.30075    14.235163 
  651200    181.11548     59211295            0     59212000    12.683331    22.410363    14.178974    19.735576     33.26665    8.6138354    12.612127     22.30075    14.235163 
  651400     127.3937     59212503            0     59212999     12.68333    22.410352    14.178986    19.735477      33.2656    8.6151034    12.612127     22.30075    14.235163 
  651600    247.11601     59211094            0     59212056    12.683325    22.410344    14.178945    19.734955    33.264753    8.6109888    12.612127     22.30075    14.235163 
  651800     255.3764     59211784            0     59212778    12.683299    22.410354    14.179076    19.732312    33.265732    8.6240875    12.612127     22.30075    14.235163 
  652000    207.58927     59212113            0     59212921    12.683309    22.410335    14.179015    19.733319    33.263839     8.617935    12.612127     22.30075    14.235163 
  652200    158.41241     59213202            0     59213819    12.683313    22.410351    14.178828    19.733755    33.265451    8.5992252    12.612127     22.30075    14.235163 
  652400    166.93105     59210819            0     59211468    12.683313    22.410362    14.179072    19.733729    33.266596    8.6236164    12.612127     22.30075    14.235163 
  652600    147.93854     59211370            0     59211946    12.683318    22.410365    14.179091     19.73423    33.266852    8.6255946    12.612127     22.30075    14.235163 
  652800    314.31434     59211812            0     59213035    12.683316    22.410354    14.178855    19.734066    33.265715    8.6019573    12.612127     22.30075    14.235163 
  653000    115.91052     59212383            0     59212835     12.68331    22.410352    14.178673    19.733467    33.265523    8.5837883    12.612127     22.30075    14.235163 
  653200    273.03498     59211180            0     59212243    12.683319    22.410351    14.178916    19.734387    33.265497    8.6080985    12.612127     22.30075    14.235163 
  653400    184.72585     59211038            0     59211757    12.683318    22.410354    14.178819    19.734274    33.265727    8.5983861    12.612127     22.30075    14.235163 
  653600    206.41814     59211582            0     59212386    12.683322    22.410351    14.178997    19.734691    33.265435    8.6162028    12.612127     22.30075    14.235163 
  653800    237.22254     59211873            0     59212796    12.683282     22.41033    14.179295    19.730672    33.263357    8.6459679    12.612127     22.30075    14.235163 
  654000    477.90024     59209856            0     59211716    12.683315    22.410342    14.178899    19.733949    33.264581    8.6063233    12.612127     22.30075    14.235163 
  654200    188.63266     59210240            0     59210974    12.683316    22.410353    14.179078    19.734012    33.265682    8.6242324    12.612127     22.30075    14.235163 
  654400    148.03086     59212035            0     59212611    12.683317     22.41035    14.179069    19.734137    33.265391    8.6233565    12.612127     22.30075    14.235163 
  654600    199.38839     59212390            0     59213166    12.683321    22.410343    14.179206    19.734514     33.26467    8.6370876    12.612127     22.30075    14.235163 
  654800    270.98449     59211800            0     59212855    12.683309    22.410376    14.178737    19.733385    33.268003    8.5901871    12.612127     22.30075    14.235163 
  655000    300.32937     59211314            0     59212483    12.683338     22.41038    14.178968    19.736274    33.268311      8.61329    12.612127     22.30075    14.235163 
  655200    349.13969     59211877            0     59213236    12.683302    22.410334    14.178873    19.732609     33.26378    8.6037932    12.612127     22.30075    14.235163 
  655400    268.47528     59211570            0     59212615    12.683337    22.410364    14.178741    19.736116    33.266726    8.5905908    12.612127     22.30075    14.235163 
  655600     147.1283     59211357            0     59211930    12.683301    22.410361    14.179031    19.732587     33.26644    8.6195137    12.612127     22.30075    14.235163 
  655800    207.27525     59210830            0     59211636    12.683308    22.410342    14.178947    19.733216    33.264522    8.6111285    12.612127     22.30075    14.235163 
  656000    375.59472     59211114            0     59212576    12.683284    22.410351    14.179026    19.730833    33.265423    8.6190196    12.612127     22.30075    14.235163 
  656200    118.37826     59211650            0     59212110     12.68333    22.410352    14.179212    19.735432    33.265604      8.63765    12.612127     22.30075    14.235163 
  656400    226.23029     59211472            0     59212353    12.683333    22.410339    14.179059    19.735733    33.264287    8.6223159    12.612127     22.30075    14.235163 
  656600    251.86131     59211353            0     59212334    12.683315    22.410353    14.178967    19.733985    33.265683    8.6131666    12.612127     22.30075    14.235163 
  656800    98.191332     59210579            0     59210961    12.683349    22.410351    14.178829    19.737361      33.2655    8.5993221    12.612127     22.30075    14.235163 
  657000    173.83428     59210882            0     59211558    12.683371    22.410354    14.179011    19.739558     33.26575    8.6175251    12.612127     22.30075    14.235163 
  657200    165.56151     59211884            0     59212528     12.68332    22.410353    14.179035     19.73448    33.265656      8.62001    12.612127     22.30075    14.235163 
  657400    130.37895     59212241            0     59212749    12.683319    22.410344    14.179266    19.734397    33.264724    8.6430723    12.612127     22.30075    14.235163 
  657600    172.96992     59211043            0     59211716    12.683315    22.410352    14.178936    19.733962    33.265568    8.6100432    12.612127     22.30075    14.235163 
  657800    156.59922     59212785            0     59213394    12.683291    22.410386    14.179104    19.731596    33.268923     8.626858    12.612127     22.30075    14.235163 
  658000    164.23957     59211185            0     59211824    12.683344    22.410355    14.178995    19.736877    33.265877    8.6159148    12.612127     22.30075    14.235163 
  658200    151.93482     59211551            0     59212143    12.683316    22.410354    14.178997    19.734052    33.265724     8.616197    12.612127     22.30075    14.235163 
  658400    175.13965     59211112            0     59211794    12.683317    22.410353    14.179053    19.734155    33.265674    8.6217758    12.612127     22.30075    14.235163 
  658600    108.28139     59211517            0     59211939    12.683317    22.410366    14.179181    19.734108    33.266948    8.6345339    12.612127     22.30075    14.235163 
  658800    128.82762     59211385            0     59211887    12.683277    22.410361    14.179149     19.73015    33.266424    8.6313694    12.612127     22.30075    14.235163 
  659000    226.90127     59212352            0     59213236    12.683301    22.410349    14.179198    19.732574    33.265232    8.6362222    12.612127     22.30075    14.235163 
  659200    296.36801     59210860            0     59212014    12.683331    22.410342    14.178955    19.735568    33.264523     8.611964    12.612127     22.30075    14.235163 
  659400    272.30448     59211525            0     59212585    12.683321    22.410358    14.179041      19.7345    33.266172    8.6205722    12.612127     22.30075    14.235163 
  659600    155.22479     59212244            0     59212848    12.683334    22.410354    14.178908    19.735857    33.265785    8.6072511    12.612127     22.30075    14.235163 
  659800    119.11553     59211563            0     59212026    12.683316    22.410354    14.178937    19.734036    33.265718    8.6101526    12.612127     22.30075    14.235163 
  660000     233.3745     59210855            0     59211764    12.683332    22.410369    14.179035     19.73565    33.267252    8.6199818    12.612127     22.30075    14.235163 
  660200    119.25405     59212981            0     59213445    12.683318    22.410345    14.178899     19.73428     33.26489    8.6063309    12.612127     22.30075    14.235163 
  660400    223.26584     59211672            0     59212541    12.683308    22.410341    14.178956    19.733214    33.264458    8.6120408    12.612127     22.30075    14.235163 
  660600    348.12345     59211322            0     59212677    12.683317    22.410338     14.17887    19.734144    33.264133    8.6034602    12.612127     22.30075    14.235163 
  660800    342.31915     59211104            0     59212436    12.683316    22.410353    14.179068    19.734013    33.265682    8.6232583    12.612127     22.30075    14.235163 
  661000    196.37486     59211299            0     59212064    12.683316    22.410353     14.17882    19.734052    33.265679    8.5984964    12.612127     22.30075    14.235163 
  661200    241.45433     59211619            0     59212559    12.683307    22.410354    14.178953     19.73316    33.265729    8.6117407    12.612127     22.30075    14.235163 
  661400    250.04254     59211226            0     59212199    12.683326    22.410369    14.179007    19.735093    33.267242    8.6171523    12.612127     22.30075    14.235163 
  661600    154.27955     59210336            0     59210937    12.683288    22.410355    14.179014     19.73124    33.265835       8.6179    12.612127     22.30075    14.235163 
  661800    129.13888     59211716            0     59212219    12.683316    22.410353    14.178865    19.734021    33.265664    8.6029324    12.612127     22.30075    14.235163 
  662000    229.96808     59211570            0     59212465     12.68331    22.410363    14.179087    19.733466    33.266622    8.6251775    12.612127     22.30075    14.235163 
  662200    149.82764     59211871            0     59212454    12.683349    22.410355    14.179186    19.737376    33.265865    8.6350669    12.612127     22.30075    14.235163 
  662400    174.51149     59210707            0     59211386    12.683316    22.410353    14.178904    19.734012    33.265679    8.6068505    12.612127     22.30075    14.235163 
  662600    194.11466     59210677            0     59211432    12.683322    22.410337      14.1788    19.734624    33.264026    8.5964756    12.612127     22.30075    14.235163 
  662800    220.35647     59211127            0     59211985    12.683304    22.410354    14.178967    19.732802    33.265748    8.6131358    12.612127     22.30075    14.235163 
  663000    178.95547     59211179            0     59211875    12.683303    22.410348    14.179097    19.732753    33.265185     8.626169    12.612127     22.30075    14.235163 
  663200    154.82418     59211194            0     59211797    12.683327    22.410353    14.178979    19.735123     33.26562    8.6143786    12.612127     22.30075    14.235163 
  663400    189.61288     59211221            0     59211959    12.683307     22.41037    14.179016    19.733186    33.267314     8.618029    12.612127     22.30075    14.235163 
  663600    249.75174     59210856            0     59211829    12.683326    22.410353    14.179072     19.73508    33.265622    8.6237126    12.612127     22.30075    14.235163 
  663800    125.07069     59211175            0     59211662    12.683315    22.410353    14.179033    19.733981    33.265683    8.6197277    12.612127     22.30075    14.235163 
  664000    167.15209     59210737            0     59211388    12.683324    22.410356    14.179066    19.734873    33.265929    8.6230584    12.612127     22.30075    14.235163 
  664200    223.65867     59211956            0     59212826    12.683319    22.410376    14.178971    19.734383    33.267997    8.6135898    12.612127     22.30075    14.235163 
  664400    156.44254     59212323            0     59212932    12.683296     22.41036    14.178765    19.732067    33.266373    8.5929041    12.612127     22.30075    14.235163 
  664600    244.29003     59211525            0     59212476    12.683317    22.410355    14.179183    19.734139    33.265877    8.6348008    12.612127     22.30075    14.235163 
  664800    192.41847     59211296            0     59212045    12.683284    22.410348    14.178985      19.7308    33.265164    8.6149174    12.612127     22.30075    14.235163 
  665000    192.35453     59211092            0     59211841    12.683316    22.410353    14.179062    19.734002    33.265697     8.622633    12.612127     22.30075    14.235163 
  665200    270.44716     59210506            0     59211559    12.683315    22.410353    14.179046    19.733996    33.265683    8.6210552    12.612127     22.30075    14.235163 
  665400    298.69386     59211261            0     59212424    12.683306    22.410349    14.179133    19.733071     33.26524    8.6297811    12.612127     22.30075    14.235163 
  665600     216.0609     59211356            0     59212197    12.683335    22.410362    14.178895    19.735903    33.266562    8.6059927    12.612127     22.30075    14.235163 
  665800    131.27115     59210643            0     59211154     12.68333    22.410362    14.179024    19.735474     33.26651    8.6188879    12.612127     22.30075    14.235163 
  666000    74.652482     59211007            0     59211297    12.683323    22.410372    14.178965    19.734734    33.267594    8.6129994    12.612127     22.30075    14.235163 
  666200    304.32446     59212411            0     59213596    12.683324    22.410322    14.178907    19.734805     33.26258     8.607114    12.612127     22.30075    14.235163 
  666400    253.08165     59211599            0     59212584    12.683311     22.41035     14.17893    19.733557    33.265331    8.6094394    12.612127     22.30075    14.235163 
  666600    119.22736     59212217            0     59212681    12.683298     22.41037    14.178995    19.732208    33.267388    8.6159254    12.612127     22.30075    14.235163 
  666800    242.89953     59210457            0     59211403      12.6833     22.41037    14.178962    19.732489    33.267323    8.6126342    12.612127     22.30075    14.235163 
  667000    97.442702     59210510            0     59210890    12.683332    22.410312    14.179032    19.735678    33.261584     8.619687    12.612127     22.30075    14.235163 
  667200    95.678762     59211303            0     59211675    12.683316    22.410359    14.179047    19.734024    33.266251     8.621207    12.612127     22.30075    14.235163 
  667400    301.42656     59211650            0     59212824     12.68329    22.410355    14.178978    19.731412    33.265822    8.6143041    12.612127     22.30075    14.235163 
  667600    300.41656     59212256            0     59213426    12.683316    22.410353     14.17892    19.734007    33.265683    8.6084876    12.612127     22.30075    14.235163 
  667800    140.15045     59211553            0     59212099    12.683298    22.410388    14.179064    19.732246    33.269172    8.6228624    12.612127     22.30075    14.235163 
  668000    176.29308     59211190            0     59211876    12.683306     22.41033    14.178795     19.73308     33.26335    8.5959082    12.612127     22.30075    14.235163 
  668200    83.841459     59210980            0     59211307    12.683307    22.410364    14.178998    19.733137    33.266743    8.6162949    12.612127     22.30075    14.235163 
  668400    237.16175     59211188            0     59212111    12.683329    22.410327    14.179034    19.735363    33.263011    8.6198373    12.612127     22.30075    14.235163 
  668600    275.65294     59212283            0     59213356    12.683316    22.410353    14.179161    19.734011    33.265682    8.6325209    12.612127     22.30075    14.235163 
  668800    281.39945     59211800            0     59212895    12.683316    22.410354    14.178747    19.734083    33.265787    8.5911868    12.612127     22.30075    14.235163 
  669000    134.54271     59211856            0     59212380    12.683325    22.410315    14.178943    19.734952    33.261863    8.6107716    12.612127     22.30075    14.235163 
  669200    275.59707     59211860            0     59212933    12.683315    22.410353    14.178903    19.733978    33.265704    8.6067744    12.612127     22.30075    14.235163 
  669400    288.86787     59210597            0     59211721    12.683327     22.41033    14.178957    19.735152    33.263362    8.6121968    12.612127     22.30075    14.235163 
  669600    88.326343     59211127            0     59211471    12.683308    22.410354    14.179142    19.733206    33.265727    8.6306628    12.612127     22.30075    14.235163 
  669800      134.054     59211614            0     59212136    12.683315    22.410353    14.179232     19.73397    33.265624    8.6396697    12.612127     22.30075    14.235163 
  670000    226.07044     59212276            0     59213157    12.683325    22.410328    14.179085     19.73496    33.263173    8.6249779    12.612127     22.30075    14.235163 
  670200    158.66118     59210598            0     59211216    12.683293    22.410359    14.179039    19.731796    33.266217    8.6203714    12.612127     22.30075    14.235163 
  670400    161.73149     59211382            0     59212011    12.683322    22.410353    14.179191    19.734662    33.265684    8.6355642    12.612127     22.30075    14.235163 
  670600    347.96157     59211239            0     59212593    12.683304    22.410372    14.179051    19.732894    33.267533    8.6215977    12.612127     22.30075    14.235163 
  670800    248.95344     59211084            0     59212053    12.683344    22.410404    14.178937    19.736853    33.270793    8.6101141    12.612127     22.30075    14.235163 
  671000    117.80596     59211426            0     59211884    12.683326    22.410332    14.178786    19.735034    33.263606    8.5950457    12.612127     22.30075    14.235163 
  671200    162.51395     59210772            0     59211405    12.683316    22.410353    14.178813    19.734012    33.265682    8.5977263    12.612127     22.30075    14.235163 
  671400    299.41579     59211420            0     59212586    12.683312    22.410372    14.178926    19.733599    33.267531    8.6090914    12.612127     22.30075    14.235163 
  671600    116.72153     59211694            0     59212149    12.683314    22.410333    14.178805    19.733832     33.26364    8.5969086    12.612127     22.30075    14.235163 
  671800    195.06803     59210377            0     59211137    12.683307    22.410372    14.178946    19.733118     33.26755    8.6110626    12.612127     22.30075    14.235163 
  672000    203.87128     59211164            0     59211958    12.683316    22.410353    14.178812    19.734011    33.265682    8.5976921    12.612127     22.30075    14.235163 
  672200    287.56271     59212244            0     59213364    12.683297    22.410343     14.17912    19.732159    33.264625    8.6284496    12.612127     22.30075    14.235163 
  672400    273.30742     59211644            0     59212708    12.683316     22.41036    14.178894    19.734087    33.266376     8.605851    12.612127     22.30075    14.235163 
  672600    211.50601     59211552            0     59212375    12.683348    22.410344    14.178847    19.737271    33.264745    8.6011506    12.612127     22.30075    14.235163 
  672800    121.35299     59210981            0     59211454    12.683316    22.410353    14.179198    19.734018    33.265673    8.6362484    12.612127     22.30075    14.235163 
  673000     274.7487     59211405            0     59212475    12.683309    22.410347    14.178936    19.733372    33.265107     8.610011    12.612127     22.30075    14.235163 
  673200    212.92645     59211063            0     59211892    12.683318    22.410353    14.179028    19.734235    33.265669    8.6192965    12.612127     22.30075    14.235163 
  673400    260.25313     59211600            0     59212613    12.683316    22.410353    14.178954    19.734009    33.265677    8.6118217    12.612127     22.30075    14.235163 
  673600    115.22511     59212940            0     59213389    12.683347    22.410366    14.179085    19.737173    33.266942    8.6249668    12.612127     22.30075    14.235163 
  673800    178.34387     59211752            0     59212446    12.683316    22.410353    14.178844     19.73402    33.265616    8.6008096    12.612127     22.30075    14.235163 
  674000    301.79236     59210420            0     59211595    12.683327    22.410379    14.178976    19.735194    33.268306    8.6140759    12.612127     22.30075    14.235163 
  674200    161.77627     59212346            0     59212976    12.683353    22.410358    14.178802    19.737709    33.266154    8.5966836    12.612127     22.30075    14.235163 
  674400    198.19219     59211704            0     59212476    12.683305    22.410374    14.179064    19.732986     33.26771     8.622851    12.612127     22.30075    14.235163 
  674600     250.2928     59211722            0     59212696     12.68334    22.410342    14.178967     19.73642    33.264542    8.6131893    12.612127     22.30075    14.235163 
  674800    215.58947     59211470            0     59212309    12.683329    22.410346    14.178963    19.735338     33.26496    8.6127171    12.612127     22.30075    14.235163 
  675000    128.26676     59211880            0     59212379     12.68328    22.410355    14.179027    19.730401    33.265867     8.619142    12.612127     22.30075    14.235163 
  675200    182.13276     59210910            0     59211619     12.68328    22.410402    14.178875    19.730416    33.270522    8.6039485    12.612127     22.30075    14.235163 
  675400    184.64162     59211492            0     59212211    12.683293    22.410327    14.179037    19.731727    33.263052    8.6201284    12.612127     22.30075    14.235163 
  675600    182.03045     59211039            0     59211747    12.683337    22.410352    14.178956    19.736128    33.265608     8.612103    12.612127     22.30075    14.235163 
  675800    129.40841     59211064            0     59211568     12.68332    22.410348    14.179005    19.734418    33.265194    8.6169771    12.612127     22.30075    14.235163 
  676000    206.35033     59210592            0     59211395    12.683312    22.410351    14.179095    19.733623    33.265422    8.6259644    12.612127     22.30075    14.235163 
  676200    212.11693     59210945            0     59211771    12.683316     22.41036    14.179087    19.734084     33.26636    8.6251505    12.612127     22.30075    14.235163 
  676400    213.24913     59210888            0     59211718    12.683311    22.410365    14.178925    19.733533     33.26681    8.6089671    12.612127     22.30075    14.235163 
  676600     229.5947     59211450            0     59212344    12.683321     22.41036    14.178835    19.734531    33.266376    8.5999894    12.612127     22.30075    14.235163 
  676800    188.27037     59210156            0     59210889     12.68328    22.410355    14.178991    19.730461    33.265898    8.6155492    12.612127     22.30075    14.235163 
  677000    170.88404     59211531            0     59212196    12.683297    22.410354    14.178968     19.73217    33.265783    8.6132926    12.612127     22.30075    14.235163 
  677200      225.663     59210986            0     59211864    12.683349    22.410352    14.178897    19.737307    33.265546    8.6061756    12.612127     22.30075    14.235163 
  677400    307.80599     59211356            0     59212554    12.683301    22.410382    14.178797     19.73255    33.268571    8.5961375    12.612127     22.30075    14.235163 
  677600    87.625285     59211611            0     59211953    12.683316    22.410353    14.178914    19.734013    33.265682    8.6078609    12.612127     22.30075    14.235163 
  677800    311.16579     59210627            0     59211838    12.683298    22.410353    14.178985    19.732216    33.265672    8.6149154    12.612127     22.30075    14.235163 
  678000    249.25846     59211112            0     59212083    12.683324     22.41033    14.179061    19.734811     33.26336    8.6225206    12.612127     22.30075    14.235163 
  678200    70.796353     59212481            0     59212757    12.683335    22.410361    14.179023    19.735983    33.266456    8.6187164    12.612127     22.30075    14.235163 
  678400    215.40234     59211270            0     59212109    12.683316    22.410371     14.17885     19.73404    33.267431    8.6014497    12.612127     22.30075    14.235163 
  678600    296.37121     59210831            0     59211985    12.683329    22.410376    14.179067    19.735366    33.267972    8.6231591    12.612127     22.30075    14.235163 
  678800    272.75675     59210934            0     59211996    12.683308    22.410356    14.179065    19.733203    33.265935    8.6229136    12.612127     22.30075    14.235163 
  679000    249.03981     59211326            0     59212296    12.683329    22.410353    14.178997    19.735323    33.265645     8.616161    12.612127     22.30075    14.235163 
  679200    139.94872     59210326            0     59210871     12.68329    22.410385    14.178869    19.731445    33.268846    8.6033863    12.612127     22.30075    14.235163 
  679400    335.31597     59211600            0     59212906    12.683307     22.41037    14.179107    19.733124    33.267325    8.6271409    12.612127     22.30075    14.235163 
  679600    192.85179     59212151            0     59212902    12.683316    22.410353     14.17909    19.734013    33.265679    8.6254186    12.612127     22.30075    14.235163 
  679800    217.46619     59211737            0     59212584    12.683319    22.410358    14.179047    19.734313    33.266144    8.6211561    12.612127     22.30075    14.235163 
  680000    295.25042     59210960            0     59212110    12.683346    22.410366    14.179129    19.737077    33.266958    8.6293927    12.612127     22.30075    14.235163 
  680200    171.29047     59210689            0     59211356    12.683299    22.410362    14.178911    19.732311    33.266535     8.607553    12.612127     22.30075    14.235163 
  680400    345.62099     59211011            0     59212356    12.683316    22.410353    14.178891    19.734012    33.265682    8.6055869    12.612127     22.30075    14.235163 
  680600    96.229905     59211318            0     59211693     12.68332    22.410363    14.179009    19.734436    33.266649     8.617339    12.612127     22.30075    14.235163 
  680800    165.65144     59210356            0     59211001    12.683298    22.410315    14.179014    19.732266    33.261839    8.6178957    12.612127     22.30075    14.235163 
  681000    164.73771     59210845            0     59211487    12.683325     22.41035    14.178843    19.734984    33.265371    8.6007818    12.612127     22.30075    14.235163 
  681200    302.32588     59210618            0     59211795    12.683297    22.410375     14.17907    19.732127    33.267809    8.6235047    12.612127     22.30075    14.235163 
  681400    222.10836     59211079            0     59211944    12.683318    22.410358    14.179036    19.734226    33.266116    8.6200659    12.612127     22.30075    14.235163 
  681600     181.1427     59210971            0     59211677    12.683302    22.410331    14.178963    19.732615    33.263417    8.6128067    12.612127     22.30075    14.235163 
  681800     183.0037     59211690            0     59212402    12.683306    22.410378    14.178893    19.733009    33.268205    8.6057219    12.612127     22.30075    14.235163 
  682000    262.64778     59211704            0     59212727    12.683314    22.410358    14.179013    19.733891    33.266193    8.6177833    12.612127     22.30075    14.235163 
  682200    320.96199     59211654            0     59212903    12.683326    22.410369    14.179116    19.735053    33.267274    8.6280224    12.612127     22.30075    14.235163 
  682400     111.9518     59210744            0     59211180    12.683314    22.410353    14.178941    19.733885    33.265689     8.610527    12.612127     22.30075    14.235163 
  682600     151.3965     59210932            0     59211521      12.6833    22.410362    14.179016    19.732399    33.266537    8.6181029    12.612127     22.30075    14.235163 
  682800    158.48399     59211451            0     59212068    12.683342    22.410351    14.179024    19.736627    33.265475    8.6188522    12.612127     22.30075    14.235163 
  683000    169.30189     59211104            0     59211763    12.683289    22.410311    14.178859     19.73139    33.261414    8.6023126    12.612127     22.30075    14.235163 
  683200    129.48363     59212707            0     59213211    12.683312    22.410347    14.178897    19.733687    33.265076    8.6061407    12.612127     22.30075    14.235163 
  683400     215.9348     59211563            0     59212404    12.683309    22.410367    14.179274    19.733309    33.267093    8.6438993    12.612127     22.30075    14.235163 
  683600    236.87018     59210226            0     59211148    12.683304    22.410365    14.179013    19.732863    33.266876    8.6177387    12.612127     22.30075    14.235163 
  683800    320.45147     59211577            0     59212824     12.68331    22.410351    14.178824    19.733465    33.265485    8.5988805    12.612127     22.30075    14.235163 
  684000    189.82101     59211569            0     59212308    12.683351     22.41034     14.17911    19.737522    33.264396    8.6274583    12.612127     22.30075    14.235163 
  684200    129.16721     59212075            0     59212578    12.683332    22.410352    14.178994     19.73566     33.26559    8.6158597    12.612127     22.30075    14.235163 
  684400    269.21827     59210699            0     59211747    12.683316    22.410354    14.179107    19.734018    33.265752    8.6271232    12.612127     22.30075    14.235163 
  684600    226.98892     59210789            0     59211673    12.683316    22.410353    14.179004    19.734021    33.265696    8.6168558    12.612127     22.30075    14.235163 
  684800    206.59673     59210552            0     59211356    12.683311    22.410353    14.179031    19.733529    33.265708    8.6195792    12.612127     22.30075    14.235163 
  685000    206.41261     59212881            0     59213685    12.683332    22.410352    14.179141    19.735694    33.265588    8.6305574    12.612127     22.30075    14.235163 
  685200    200.43443     59211618            0     59212398    12.683315    22.410354    14.178859    19.733993     33.26573    8.6023352    12.612127     22.30075    14.235163 
  685400    206.52567     59212290            0     59213094    12.683329    22.410354    14.178889    19.735375    33.265779    8.6053751    12.612127     22.30075    14.235163 
  685600    179.26151     59211636            0     59212334    12.683286    22.410349      14.1789     19.73106    33.265257    8.6064746    12.612127     22.30075    14.235163 
  685800    324.91538     59211943            0     59213208    12.683303    22.410361     14.17887    19.732755    33.266458    8.6034358    12.612127     22.30075    14.235163 
  686000      308.702     59209936            0     59211137    12.683315    22.410353    14.178893    19.733972    33.265632     8.605733    12.612127     22.30075    14.235163 
  686200    163.27209     59211123            0     59211758    12.683305    22.410365    14.179079    19.732906    33.266906    8.6243753    12.612127     22.30075    14.235163 
  686400    134.19839     59211005            0     59211528    12.683327    22.410333    14.179007     19.73516    33.263666    8.6171302    12.612127     22.30075    14.235163 
  686600    34.228121     59211716            0     59211850    12.683316    22.410353    14.178696    19.734013    33.265682    8.5860411    12.612127     22.30075    14.235163 
  686800    156.66052     59213083            0     59213693    12.683316    22.410353    14.178764     19.73401    33.265682    8.5928248    12.612127     22.30075    14.235163 
  687000     172.6882     59212314            0     59212986    12.683329    22.410343    14.179177    19.735299    33.264698    8.6341758    12.612127     22.30075    14.235163 
  687200    149.55583     59211464            0     59212047    12.683313    22.410349    14.178935     19.73373    33.265308    8.6099349    12.612127     22.30075    14.235163 
  687400    162.91107     59210921            0     59211555    12.683295    22.410328     14.17877    19.731965     33.26314    8.5934007    12.612127     22.30075    14.235163 
  687600    203.44964     59212584            0     59213376     12.68332    22.410346    14.178916    19.734478    33.264912    8.6080586    12.612127     22.30075    14.235163 
  687800    107.45241     59211821            0     59212240    12.683332    22.410352    14.178867    19.735686     33.26557    8.6031424    12.612127     22.30075    14.235163 
  688000    128.84764     59210886            0     59211387    12.683295    22.410356    14.178879    19.731959    33.265979    8.6043524    12.612127     22.30075    14.235163 
  688200    190.33558     59212099            0     59212840    12.683321    22.410344    14.179057    19.734502    33.264713    8.6221482    12.612127     22.30075    14.235163 
  688400    238.58207     59211411            0     59212340    12.683343    22.410361    14.179195    19.736797    33.266446    8.6359308    12.612127     22.30075    14.235163 
  688600    337.58557     59211071            0     59212385    12.683352    22.410369    14.179125    19.737634    33.267222    8.6289753    12.612127     22.30075    14.235163 
  688800      367.996     59211619            0     59213052    12.683328     22.41038    14.179093    19.735285    33.268376    8.6257763    12.612127     22.30075    14.235163 
  689000    172.60105     59210678            0     59211350    12.683305    22.410354    14.178989    19.732929    33.265741    8.6154071    12.612127     22.30075    14.235163 
  689200    235.54228     59212372            0     59213289    12.683316    22.410352    14.178789    19.734079    33.265512    8.5953604    12.612127     22.30075    14.235163 
  689400    206.42236     59211017            0     59211820    12.683317    22.410353    14.179233    19.734168    33.265673    8.6397284    12.612127     22.30075    14.235163 
  689600    162.67022     59210491            0     59211124    12.683312    22.410383    14.179037    19.733652    33.268692     8.620172    12.612127     22.30075    14.235163 
  689800    267.52726     59211201            0     59212243    12.683313    22.410353     14.17897    19.733776    33.265677    8.6134289    12.612127     22.30075    14.235163 
  690000    88.731655     59210998            0     59211344    12.683313    22.410359    14.179069    19.733756     33.26625    8.6233655    12.612127     22.30075    14.235163 
  690200    178.21861     59211265            0     59211959    12.683309    22.410368    14.179166    19.733322    33.267192    8.6330378    12.612127     22.30075    14.235163 
  690400    290.93401     59211150            0     59212283    12.683317     22.41035    14.179097    19.734189    33.265349    8.6261337    12.612127     22.30075    14.235163 
  690600    151.56634     59211001            0     59211591    12.683342    22.410331     14.17909    19.736687    33.263483    8.6254163    12.612127     22.30075    14.235163 
  690800    121.08545     59211279            0     59211751    12.683316    22.410353    14.179082    19.734011    33.265682    8.6246893    12.612127     22.30075    14.235163 
  691000    192.58838     59211654            0     59212404    12.683314    22.410381     14.17896    19.733868    33.268463    8.6125054    12.612127     22.30075    14.235163 
  691200    222.00766     59211010            0     59211875    12.683332    22.410344    14.179038    19.735598    33.264771    8.6202558    12.612127     22.30075    14.235163 
  691400    96.624628     59210843            0     59211219    12.683328    22.410354    14.179166    19.735239    33.265781    8.6330782    12.612127     22.30075    14.235163 
  691600    247.26344     59212265            0     59213228    12.683318    22.410357    14.178969    19.734243    33.266045    8.6133912    12.612127     22.30075    14.235163 
  691800    206.47581     59211640            0     59212443    12.683361    22.410351    14.179031    19.738594    33.265428    8.6195968    12.612127     22.30075    14.235163 
  692000    319.46528     59211025            0     59212268    12.683306    22.410373    14.179011       19.733    33.267682     8.617576    12.612127     22.30075    14.235163 
  692200    229.65739     59210171            0     59211065    12.683329    22.410329    14.179045    19.735325    33.263248    8.6209738    12.612127     22.30075    14.235163 
  692400    289.27778     59211964            0     59213090    12.683315    22.410355    14.178642    19.733901    33.265902    8.5806534    12.612127     22.30075    14.235163 
  692600     216.1668     59211502            0     59212344    12.683332    22.410332    14.179244    19.735635    33.263589    8.6408894    12.612127     22.30075    14.235163 
  692800    359.68164     59211947            0     59213347    12.683316    22.410354    14.178898    19.734044    33.265733    8.6062449    12.612127     22.30075    14.235163 
  693000    216.51667     59210707            0     59211550    12.683313    22.410349    14.179163    19.733747    33.265253    8.6327478    12.612127     22.30075    14.235163 
  693200    261.65095     59211095            0     59212113    12.683295    22.410344    14.178848    19.731931    33.264781    8.6012388    12.612127     22.30075    14.235163 
  693400    311.38428     59211306            0     59212518    12.683314    22.410351    14.178953    19.733883    33.265501     8.611782    12.612127     22.30075    14.235163 
  693600    122.40371     59210430            0     59210906    12.683308    22.410341    14.179028    19.733205     33.26448     8.619218    12.612127     22.30075    14.235163 
  693800    279.84635     59210599            0     59211688    12.683312    22.410351    14.178717     19.73362    33.265491    8.5881349    12.612127     22.30075    14.235163 
  694000    153.04752     59211844            0     59212440    12.683306    22.410329    14.178801    19.733003    33.263243    8.5965585    12.612127     22.30075    14.235163 
  694200     100.2629     59210855            0     59211245    12.683349    22.410351    14.178981    19.737308      33.2655     8.614587    12.612127     22.30075    14.235163 
  694400    146.33919     59211644            0     59212213    12.683284    22.410355      14.1791    19.730811    33.265857    8.6264944    12.612127     22.30075    14.235163 
  694600    158.47181     59211621            0     59212238    12.683313    22.410358    14.179138    19.733759    33.266182    8.6302481    12.612127     22.30075    14.235163 
  694800    194.06899     59210499            0     59211254    12.683299    22.410327    14.178847    19.732315    33.263013    8.6011658    12.612127     22.30075    14.235163 
  695000    270.54949     59211186            0     59212239    12.683311    22.410365    14.178981    19.733559    33.266846    8.6145902    12.612127     22.30075    14.235163 
  695200    202.80099     59211135            0     59211925    12.683331    22.410352    14.178922    19.735588    33.265595    8.6086778    12.612127     22.30075    14.235163 
  695400    198.04636     59211753            0     59212524    12.683301    22.410365    14.179094    19.732522    33.266847    8.6259101    12.612127     22.30075    14.235163 
  695600    185.08461     59211319            0     59212040    12.683342    22.410364    14.178852    19.736614    33.266774    8.6016769    12.612127     22.30075    14.235163 
  695800    111.27454     59211696            0     59212129    12.683292    22.410353    14.178881    19.731688    33.265658    8.6045918    12.612127     22.30075    14.235163 
  696000    121.74215     59211587            0     59212061    12.683313    22.410339    14.178823     19.73373    33.264264    8.5987183    12.612127     22.30075    14.235163 
  696200    244.07136     59211345            0     59212295    12.683292    22.410378    14.179156    19.731661    33.268157    8.6321134    12.612127     22.30075    14.235163 
  696400    102.49243     59210985            0     59211384    12.683291    22.410363    14.178986    19.731537    33.266626    8.6150797    12.612127     22.30075    14.235163 
  696600    172.42576     59210648            0     59211319     12.68332    22.410337    14.178968    19.734446    33.264008    8.6132684    12.612127     22.30075    14.235163 
  696800    221.13211     59211275            0     59212136    12.683365    22.410386    14.178993    19.738978    33.268937    8.6157776    12.612127     22.30075    14.235163 
  697000    156.50422     59211311            0     59211920     12.68335    22.410334    14.178882    19.737492    33.263761    8.6046931    12.612127     22.30075    14.235163 
  697200    187.98662     59210955            0     59211687    12.683314    22.410349    14.178987    19.733809    33.265266    8.6151656    12.612127     22.30075    14.235163 
  697400    295.92876     59210612            0     59211764    12.683326    22.410367    14.179062    19.735002    33.267049    8.6226632    12.612127     22.30075    14.235163 
  697600    317.45487     59211904            0     59213140    12.683316    22.410353    14.178876    19.734013    33.265682    8.6040125    12.612127     22.30075    14.235163 
  697800     114.5959     59212610            0     59213056    12.683324    22.410324    14.178968    19.734824    33.262803    8.6132756    12.612127     22.30075    14.235163 
  698000    138.98287     59212032            0     59212574    12.683292    22.410355    14.178908    19.731663    33.265812     8.607238    12.612127     22.30075    14.235163 
  698200    310.17633     59211266            0     59212473     12.68331    22.410381    14.179193    19.733462    33.268471    8.6357787    12.612127     22.30075    14.235163 
  698400    114.44579     59211431            0     59211876    12.683319    22.410368    14.178977    19.734325    33.267191    8.6141908    12.612127     22.30075    14.235163 
  698600    296.68694     59211344            0     59212499    12.683318    22.410355    14.178799    19.734202    33.265874    8.5963202    12.612127     22.30075    14.235163 
  698800    181.79396     59210937            0     59211645    12.683313    22.410352     14.17898    19.733719    33.265606    8.6144688    12.612127     22.30075    14.235163 
  699000    228.45574     59210953            0     59211843    12.683312    22.410361    14.179004    19.733605    33.266477    8.6168391    12.612127     22.30075    14.235163 
  699200    52.720109     59211997            0     59212203    12.683313    22.410354     14.17892    19.733787    33.265764    8.6084132    12.612127     22.30075    14.235163 
  699400    123.38968     59212101            0     59212582      12.6833    22.410353    14.178891    19.732464    33.265611    8.6055385    12.612127     22.30075    14.235163 
  699600    269.26036     59210662            0     59211710    12.683312    22.410358    14.178924    19.733669    33.266179    8.6089068    12.612127     22.30075    14.235163 
  699800    142.20543     59211257            0     59211811    12.683317    22.410351     14.17913    19.734101    33.265505    8.6295012    12.612127     22.30075    14.235163 
  700000      154.866     59211374            0     59211977    12.683316    22.410353    14.178976    19.734013    33.265685    8.6140514    12.612127     22.30075    14.235163 
  700200    177.48406     59211697            0     59212388    12.683316    22.410353    14.179107    19.734016    33.265687    8.6271763    12.612127     22.30075    14.235163 
  700400    154.55215     59211736            0     59212337    12.683326     22.41037    14.178915    19.735076    33.267361    8.6079993    12.612127     22.30075    14.235163 
  700600    248.67139     59211709            0     59212678    12.683286    22.410385    14.178857     19.73101    33.268877    8.6021263    12.612127     22.30075    14.235163 
  700800    357.58147     59210530            0     59211922    12.683312    22.410396    14.179008    19.733669    33.269983    8.6172613    12.612127     22.30075    14.235163 
  701000    47.801466     59212950            0     59213136    12.683338    22.410352    14.179148    19.736279    33.265556    8.6312933    12.612127     22.30075    14.235163 
  701200    225.37528     59210845            0     59211722    12.683315     22.41035    14.178869    19.733977    33.265325    8.6033408    12.612127     22.30075    14.235163 
  701400    283.06068     59210904            0     59212006    12.683343    22.410354    14.178998    19.736722    33.265801     8.616288    12.612127     22.30075    14.235163 
  701600    121.82478     59211969            0     59212443    12.683266     22.41036    14.179002    19.729062    33.266309    8.6167051    12.612127     22.30075    14.235163 
  701800      112.735     59210962            0     59211401    12.683308    22.410365    14.179077    19.733227    33.266886    8.6241455    12.612127     22.30075    14.235163 
  702000    240.58581     59210689            0     59211625    12.683302    22.410322     14.17897     19.73268    33.262529    8.6134587    12.612127     22.30075    14.235163 
  702200    127.78097     59211411            0     59211908    12.683284    22.410397     14.17905    19.730815    33.270089    8.6214896    12.612127     22.30075    14.235163 
  702400    229.42691     59212210            0     59213103    12.683316    22.410353    14.179205    19.734032    33.265628    8.6369854    12.612127     22.30075    14.235163 
  702600    183.74422     59211132            0     59211847     12.68332    22.410348    14.178748    19.734492    33.265162    8.5912941    12.612127     22.30075    14.235163 
  702800    183.75575     59211561            0     59212277    12.683336     22.41035    14.179147    19.736041    33.265379    8.6311748    12.612127     22.30075    14.235163 
  703000    174.22455     59211622            0     59212301    12.683334    22.410399    14.178996    19.735853    33.270236    8.6160873    12.612127     22.30075    14.235163 
  703200    124.52884     59210823            0     59211308    12.683287    22.410364    14.178965    19.731192    33.266756    8.6129132    12.612127     22.30075    14.235163 
  703400    223.72994     59210288            0     59211159    12.683327     22.41035    14.179015    19.735143    33.265374    8.6179578    12.612127     22.30075    14.235163 
  703600    326.47064     59212022            0     59213293    12.683316    22.410353    14.179106     19.73402    33.265681    8.6270967    12.612127     22.30075    14.235163 
  703800    299.80769     59211286            0     59212453    12.683316    22.410355    14.178817    19.734036    33.265813    8.5981126    12.612127     22.30075    14.235163 
  704000    331.50936     59211765            0     59213055    12.683302    22.410387    14.179074    19.732636    33.269102    8.6238318    12.612127     22.30075    14.235163 
  704200    191.61989     59211640            0     59212386    12.683316    22.410354    14.178978    19.734094    33.265795    8.6142739    12.612127     22.30075    14.235163 
  704400    205.24036     59211145            0     59211944    12.683316    22.410353    14.179074    19.734011    33.265682    8.6238938    12.612127     22.30075    14.235163 
  704600    358.32399     59211095            0     59212490    12.683315    22.410354    14.179016    19.733916    33.265738     8.618103    12.612127     22.30075    14.235163 
  704800    311.21963     59211284            0     59212495    12.683315    22.410353     14.17898    19.733964    33.265685    8.6144103    12.612127     22.30075    14.235163 
  705000    147.15536     59211981            0     59212554    12.683304    22.410344      14.1792    19.732876    33.264737    8.6364695    12.612127     22.30075    14.235163 
  705200    176.72911     59211039            0     59211727    12.683326    22.410385     14.17914    19.735083    33.268817    8.6304799    12.612127     22.30075    14.235163 
  705400    153.52999     59210840            0     59211437    12.683302    22.410386    14.179158    19.732633    33.268945    8.6323098    12.612127     22.30075    14.235163 
  705600    111.83246     59210984            0     59211419    12.683311    22.410329    14.178812    19.733545    33.263267    8.5976854    12.612127     22.30075    14.235163 
  705800    204.82032     59212634            0     59213432    12.683316    22.410353    14.178924    19.734012    33.265682    8.6088408    12.612127     22.30075    14.235163 
  706000     145.3586     59211512            0     59212078    12.683328    22.410352    14.178937    19.735288    33.265606    8.6101933    12.612127     22.30075    14.235163 
  706200    239.26151     59211965            0     59212896    12.683316    22.410353     14.17884    19.734012    33.265682    8.6004755    12.612127     22.30075    14.235163 
  706400      160.506     59212481            0     59213106    12.683316    22.410353    14.178917     19.73402    33.265663    8.6081146    12.612127     22.30075    14.235163 
  706600    235.25245     59211005            0     59211921    12.683292    22.410395    14.178943     19.73162    33.269877    8.6107573    12.612127     22.30075    14.235163 
  706800    167.31689     59211659            0     59212310    12.683314    22.410341    14.179264    19.733896    33.264489    8.6428972    12.612127     22.30075    14.235163 
  707000    239.27836     59211088            0     59212019    12.683312    22.410349    14.178828    19.733614    33.265287    8.5992918    12.612127     22.30075    14.235163 
  707200     183.6842     59211383            0     59212098    12.683285     22.41034    14.179237    19.730973     33.26434    8.6402146    12.612127     22.30075    14.235163 
  707400    234.73201     59211015            0     59211929    12.683309    22.410354     14.17879    19.733394    33.265724    8.5954953    12.612127     22.30075    14.235163 
  707600     378.2188     59211508            0     59212981    12.683336    22.410365    14.178885    19.736018    33.266901    8.6049521    12.612127     22.30075    14.235163 
  707800    167.81303     59210546            0     59211199    12.683331    22.410325    14.179168    19.735516    33.262893    8.6332347    12.612127     22.30075    14.235163 
  708000    206.84163     59211436            0     59212242    12.683311    22.410353    14.178777    19.733501    33.265649    8.5941694    12.612127     22.30075    14.235163 
  708200    400.16853     59210941            0     59212499    12.683316    22.410353    14.179068    19.734065    33.265623    8.6232245    12.612127     22.30075    14.235163 
  708400    131.02102     59211866            0     59212376     12.68332    22.410361    14.178834    19.734412    33.266464    8.5998215    12.612127     22.30075    14.235163 
  708600    206.85666     59211983            0     59212788    12.683312    22.410353    14.179055    19.733649    33.265703    8.6219308    12.612127     22.30075    14.235163 
  708800    164.24143     59210975            0     59211614    12.683313    22.410359    14.178804    19.733741    33.266216    8.5968307    12.612127     22.30075    14.235163 
  709000    135.34086     59213238            0     59213765    12.683297    22.410348    14.179318     19.73218    33.265164     8.648297    12.612127     22.30075    14.235163 
  709200    348.25853     59211018            0     59212374    12.683348    22.410353    14.178869    19.737221    33.265695    8.6033538    12.612127     22.30075    14.235163 
  709400    214.75706     59210802            0     59211638    12.683293    22.410348    14.179109    19.731732    33.265148    8.6273438    12.612127     22.30075    14.235163 
  709600    280.93014     59210933            0     59212027    12.683329    22.410387    14.178956    19.735373    33.269036    8.6120545    12.612127     22.30075    14.235163 
  709800    108.37484     59210915            0     59211337    12.683333    22.410346    14.178807     19.73575    33.264919     8.597163    12.612127     22.30075    14.235163 
  710000    193.10221     59210785            0     59211537     12.68334    22.410306    14.179109    19.736424    33.260926    8.6273444    12.612127     22.30075    14.235163 
  710200    278.23841     59211510            0     59212593    12.683296    22.410332    14.179034    19.732049      33.2636    8.6199032    12.612127     22.30075    14.235163 
  710400    142.10457     59210524            0     59211077    12.683328    22.410373    14.179009    19.735284    33.267628    8.6173766    12.612127     22.30075    14.235163 
  710600    269.85594     59212176            0     59213227     12.68331    22.410354    14.178916    19.733422    33.265711    8.6080977    12.612127     22.30075    14.235163 
  710800    254.75621     59210845            0     59211837    12.683318     22.41035    14.178879    19.734209    33.265369    8.6043979    12.612127     22.30075    14.235163 
  711000    324.27629     59210881            0     59212144    12.683303    22.410363    14.179092     19.73274    33.266673    8.6256613    12.612127     22.30075    14.235163 
  711200    269.06731     59211315            0     59212362    12.683337    22.410378    14.179145    19.736103    33.268136    8.6309251    12.612127     22.30075    14.235163 
  711400    164.79558     59212001            0     59212642    12.683316    22.410353    14.179181    19.734008    33.265684    8.6345197    12.612127     22.30075    14.235163 
  711600    162.12382     59211983            0     59212614    12.683296    22.410379    14.179005    19.732087    33.268288    8.6169717    12.612127     22.30075    14.235163 
  711800    186.48382     59211062            0     59211788    12.683341    22.410283    14.178957    19.736595    33.258607    8.6121098    12.612127     22.30075    14.235163 
  712000    270.26936     59210828            0     59211880    12.683371    22.410363    14.178959    19.739598    33.266664    8.6123101    12.612127     22.30075    14.235163 
  712200    149.99605     59211977            0     59212561    12.683308    22.410367    14.178979    19.733295    33.267102     8.614394    12.612127     22.30075    14.235163 
  712400    208.50198     59211693            0     59212505    12.683349    22.410352    14.178981    19.737344     33.26553    8.6145999    12.612127     22.30075    14.235163 
  712600    245.26065     59211483            0     59212438    12.683317    22.410365    14.178989    19.734168    33.266887      8.61538    12.612127     22.30075    14.235163 
  712800    262.81461     59211331            0     59212354    12.683316    22.410353    14.179051    19.734022    33.265659    8.6215357    12.612127     22.30075    14.235163 
  713000    95.362056     59210824            0     59211195    12.683301    22.410354     14.17908    19.732504    33.265801    8.6244665    12.612127     22.30075    14.235163 
  713200     213.3308     59211359            0     59212189    12.683316    22.410353    14.178979    19.734012    33.265682    8.6143517    12.612127     22.30075    14.235163 
  713400     320.1425     59211278            0     59212525    12.683316    22.410353    14.178918    19.734025    33.265679    8.6082333    12.612127     22.30075    14.235163 
  713600    129.86839     59211091            0     59211597    12.683316    22.410353    14.179012    19.734016    33.265632    8.6176142    12.612127     22.30075    14.235163 
  713800    251.74996     59211180            0     59212160    12.683311    22.410335    14.178861    19.733539    33.263859    8.6025206    12.612127     22.30075    14.235163 
  714000    222.15614     59210791            0     59211656    12.683316    22.410353     14.17887    19.734014    33.265683     8.603489    12.612127     22.30075    14.235163 
  714200    199.34485     59210977            0     59211753    12.683316    22.410353    14.178918    19.734012    33.265682    8.6082235    12.612127     22.30075    14.235163 
  714400     222.6505     59213219            0     59214086    12.683312    22.410352    14.179116    19.733657    33.265512    8.6280398    12.612127     22.30075    14.235163 
  714600    352.14817     59211109            0     59212480    12.683345    22.410339    14.179088    19.736911    33.264232    8.6252309    12.612127     22.30075    14.235163 
  714800    183.66092     59210866            0     59211581    12.683316    22.410353    14.178956    19.734008    33.265652    8.6120484    12.612127     22.30075    14.235163 
  715000    288.27907     59211231            0     59212353    12.683325    22.410353    14.178936    19.734991    33.265628    8.6100363    12.612127     22.30075    14.235163 
  715200    144.63912     59211384            0     59211947    12.683296    22.410354    14.178801    19.731998    33.265792    8.5965296    12.612127     22.30075    14.235163 
  715400    139.48134     59210780            0     59211323    12.683329    22.410372    14.179001     19.73539    33.267521    8.6165571    12.612127     22.30075    14.235163 
  715600    107.42415     59212366            0     59212785    12.683316    22.410353    14.178624    19.734039    33.265679    8.5788089    12.612127     22.30075    14.235163 
  715800    145.59321     59210987            0     59211554    12.683347     22.41035    14.178796     19.73713    33.265331    8.5960643    12.612127     22.30075    14.235163 
  716000    133.40562     59211738            0     59212257    12.683306    22.410361    14.179138    19.733055     33.26641    8.6302855    12.612127     22.30075    14.235163 
  716200    184.27511     59211506            0     59212224    12.683284    22.410361     14.17897    19.730855    33.266484    8.6134241    12.612127     22.30075    14.235163 
  716400    344.69844     59211464            0     59212806    12.683315    22.410354    14.178869    19.733985    33.265732    8.6033555    12.612127     22.30075    14.235163 
  716600    201.78363     59211407            0     59212193    12.683316    22.410353    14.178788    19.734012    33.265681    8.5952648    12.612127     22.30075    14.235163 
  716800    297.44908     59212290            0     59213448      12.6833    22.410354    14.178648    19.732494    33.265764    8.5812774    12.612127     22.30075    14.235163 
  717000    176.60147     59211008            0     59211695    12.683318    22.410347    14.179042    19.734271    33.265013    8.6206669    12.612127     22.30075    14.235163 
  717200    185.61573     59210954            0     59211676    12.683299    22.410354    14.179069    19.732312    33.265773    8.6233624    12.612127     22.30075    14.235163 
  717400    278.44751     59211494            0     59212578     12.68331    22.410365     14.17887    19.733422    33.266852    8.6034235    12.612127     22.30075    14.235163 
  717600    272.66574     59211954            0     59213016    12.683328    22.410373    14.179024    19.735297    33.267647    8.6188157    12.612127     22.30075    14.235163 
  717800    253.82289     59210820            0     59211808    12.683306    22.410341    14.178919    19.733072    33.264415    8.6083975    12.612127     22.30075    14.235163 
  718000    181.17159     59211525            0     59212230    12.683271     22.41035       14.179    19.729552     33.26538    8.6164969    12.612127     22.30075    14.235163 
  718200    309.47407     59211838            0     59213043    12.683316    22.410353     14.17884    19.734012    33.265682    8.6004373    12.612127     22.30075    14.235163 
  718400    59.738609     59211349            0     59211582    12.683297    22.410338    14.178973    19.732164    33.264149     8.613711    12.612127     22.30075    14.235163 
  718600    281.61197     59210411            0     59211507    12.683317    22.410356    14.178998    19.734175    33.265957    8.6162182    12.612127     22.30075    14.235163 
  718800    238.70952     59211341            0     59212270    12.683341    22.410323    14.178886    19.736554    33.262653    8.6050817    12.612127     22.30075    14.235163 
  719000    271.42299     59211036            0     59212093    12.683316    22.410353    14.179037    19.734013    33.265684    8.6201665    12.612127     22.30075    14.235163 
  719200    153.55196     59210596            0     59211194    12.683347    22.410345    14.178932    19.737175    33.264856    8.6096089    12.612127     22.30075    14.235163 
  719400    166.33202     59210735            0     59211382    12.683334    22.410338    14.179076    19.735835    33.264195    8.6240558    12.612127     22.30075    14.235163 
  719600    153.74168     59211307            0     59211905    12.683306    22.410366     14.17886    19.733063    33.266968    8.6024504    12.612127     22.30075    14.235163 
  719800    120.15484     59211090            0     59211558    12.683297    22.410363    14.178921     19.73219    33.266648     8.608601    12.612127     22.30075    14.235163 
  720000    209.44616     59212528            0     59213343    12.683315    22.410362    14.178749    19.733985    33.266518    8.5913494    12.612127     22.30075    14.235163 
  720200    101.58967     59212898            0     59213293    12.683316    22.410353    14.178844    19.734087    33.265678    8.6008728    12.612127     22.30075    14.235163 
  720400    158.59323     59212126            0     59212744    12.683304    22.410364    14.178942    19.732845    33.266715    8.6106117    12.612127     22.30075    14.235163 
  720600    118.39487     59211103            0     59211564    12.683333    22.410359    14.179081    19.735796    33.266285    8.6246075    12.612127     22.30075    14.235163 
  720800    321.75893     59212068            0     59213321    12.683311    22.410353    14.178894    19.733545    33.265664    8.6058903    12.612127     22.30075    14.235163 
  721000    175.62226     59211736            0     59212419    12.683311    22.410354    14.179133    19.733498    33.265711    8.6297435    12.612127     22.30075    14.235163 
  721200    226.03347     59211277            0     59212156    12.683312    22.410345    14.178912    19.733649    33.264846    8.6076129    12.612127     22.30075    14.235163 
  721400    199.80383     59211893            0     59212670    12.683351    22.410349      14.1789    19.737511     33.26528    8.6064093    12.612127     22.30075    14.235163 
  721600     182.1347     59212598            0     59213307    12.683318    22.410379    14.178821    19.734217    33.268309    8.5985935    12.612127     22.30075    14.235163 
  721800    143.22607     59211433            0     59211991    12.683316    22.410353    14.178949    19.734011    33.265678    8.6113249    12.612127     22.30075    14.235163 
  722000    212.47625     59210810            0     59211637    12.683333    22.410332    14.178856    19.735778    33.263532    8.6020227    12.612127     22.30075    14.235163 
  722200    194.70234     59209965            0     59210723    12.683328     22.41037    14.179003    19.735208    33.267382    8.6167609    12.612127     22.30075    14.235163 
  722400    240.08926     59210871            0     59211805    12.683294    22.410321      14.1791    19.731833    33.262439    8.6265021    12.612127     22.30075    14.235163 
  722600    205.05658     59212319            0     59213118     12.68332    22.410344    14.178802    19.734495    33.264741    8.5966083    12.612127     22.30075    14.235163 
  722800    158.20355     59211996            0     59212612    12.683316    22.410353    14.179121    19.734015    33.265676    8.6285923    12.612127     22.30075    14.235163 
  723000    239.15702     59210976            0     59211907     12.68329    22.410355    14.179082    19.731438    33.265825    8.6246842    12.612127     22.30075    14.235163 
  723200    261.11552     59211282            0     59212298     12.68337    22.410333    14.179093    19.739472    33.263615    8.6257382    12.612127     22.30075    14.235163 
  723400    236.55582     59211119            0     59212040    12.683322    22.410354    14.179124    19.734637    33.265723    8.6288222    12.612127     22.30075    14.235163 
  723600    207.63857     59211060            0     59211868    12.683296    22.410388    14.178921    19.732025    33.269181    8.6085499    12.612127     22.30075    14.235163 
  723800    106.05548     59210414            0     59210827    12.683317    22.410353    14.179112    19.734179    33.265648    8.6276781    12.612127     22.30075    14.235163 
  724000    170.38233     59212163            0     59212826    12.683317    22.410355    14.178849    19.734137    33.265889    8.6014017    12.612127     22.30075    14.235163 
  724200    127.90027     59210772            0     59211270    12.683311    22.410334    14.178825    19.733521    33.263769    8.5989375    12.612127     22.30075    14.235163 
  724400    275.44626     59211570            0     59212642    12.683402    22.410324    14.178881    19.742653    33.262735    8.6045592    12.612127     22.30075    14.235163 
  724600    223.29077     59210756            0     59211626    12.683316    22.410353    14.179094    19.734012    33.265681    8.6258653    12.612127     22.30075    14.235163 
  724800    187.47875     59211051            0     59211781    12.683294    22.410354    14.179106    19.731824    33.265794    8.6271076    12.612127     22.30075    14.235163 
  725000    265.47559     59211183            0     59212216    12.683308    22.410357     14.17882    19.733289    33.266085    8.5984266    12.612127     22.30075    14.235163 
  725200    126.55399     59210848            0     59211341    12.683303    22.410357    14.179003    19.732764    33.266077    8.6167419    12.612127     22.30075    14.235163 
  725400    296.45413     59211582            0     59212736    12.683317    22.410358    14.178994    19.734156     33.26614    8.6158616    12.612127     22.30075    14.235163 
  725600    320.27695     59211270            0     59212517    12.683316    22.410353    14.178678    19.734044     33.26567    8.5842605    12.612127     22.30075    14.235163 
  725800    91.201551     59211420            0     59211775    12.683292    22.410318    14.178906     19.73167    33.262113    8.6070499    12.612127     22.30075    14.235163 
  726000    118.27111     59211050            0     59211510    12.683323     22.41034    14.179206    19.734736    33.264371    8.6370974    12.612127     22.30075    14.235163 
  726200    200.49206     59211426            0     59212207    12.683329    22.410341    14.179008    19.735396    33.264488    8.6172737    12.612127     22.30075    14.235163 
  726400    136.28415     59211278            0     59211809    12.683316    22.410353    14.178803    19.734001    33.265653    8.5967815    12.612127     22.30075    14.235163 
  726600    125.29527     59210478            0     59210966    12.683325    22.410356    14.179094    19.734958     33.26591    8.6258204    12.612127     22.30075    14.235163 
  726800    202.11335     59211976            0     59212763    12.683315    22.410354    14.179118    19.733947     33.26572    8.6282368    12.612127     22.30075    14.235163 
  727000    182.87253     59210810            0     59211522    12.683316    22.410353    14.179133    19.734011    33.265688    8.6297361    12.612127     22.30075    14.235163 
  727200    167.31573     59210549            0     59211200    12.683309    22.410339    14.179003    19.733378    33.264217    8.6167383    12.612127     22.30075    14.235163 
  727400    124.37864     59210808            0     59211293    12.683328    22.410361    14.178916    19.735256    33.266466    8.6080178    12.612127     22.30075    14.235163 
  727600    251.86894     59212007            0     59212988    12.683318    22.410358    14.178839    19.734228    33.266155    8.6003662    12.612127     22.30075    14.235163 
  727800    360.66443     59210234            0     59211638    12.683317    22.410353     14.17901    19.734132    33.265662    8.6174659    12.612127     22.30075    14.235163 
  728000    103.72656     59211373            0     59211777    12.683315    22.410353    14.179119    19.733985    33.265683    8.6283717    12.612127     22.30075    14.235163 
  728200    224.57818     59211720            0     59212595     12.68331    22.410344    14.178651    19.733466    33.264771    8.5815296    12.612127     22.30075    14.235163 
  728400    262.41437     59210743            0     59211765    12.683314    22.410354    14.179056    19.733894    33.265778    8.6220887    12.612127     22.30075    14.235163 
  728600    216.87921     59210890            0     59211734    12.683302    22.410344    14.178834    19.732642    33.264731     8.599835    12.612127     22.30075    14.235163 
  728800    131.45003     59211139            0     59211651    12.683288    22.410339    14.179284    19.731216    33.264305    8.6448868    12.612127     22.30075    14.235163 
  729000    252.06765     59211832            0     59212813    12.683326    22.410363    14.178697    19.735044    33.266696    8.5861412    12.612127     22.30075    14.235163 
  729200    217.61368     59212225            0     59213073    12.683318    22.410348    14.178811    19.734288    33.265153    8.5976007    12.612127     22.30075    14.235163 
  729400    151.96771     59211131            0     59211723    12.683301    22.410343    14.178943    19.732574    33.264625    8.6107984    12.612127     22.30075    14.235163 
  729600    264.33133     59211454            0     59212483    12.683324    22.410342    14.179003    19.734859    33.264533    8.6167799    12.612127     22.30075    14.235163 
  729800    94.884022     59211854            0     59212224    12.683316    22.410353    14.179037    19.734026    33.265659    8.6201998    12.612127     22.30075    14.235163 
  730000    159.94461     59211154            0     59211777    12.683314    22.410352     14.17897    19.733884    33.265578    8.6134354    12.612127     22.30075    14.235163 
  730200    280.18514     59211137            0     59212227    12.683304    22.410369    14.178893    19.732882    33.267273    8.6057313    12.612127     22.30075    14.235163 
  730400    247.21313     59211741            0     59212704    12.683316    22.410353    14.178921    19.734011    33.265673    8.6085151    12.612127     22.30075    14.235163 
  730600    57.254167     59211580            0     59211803    12.683335    22.410347    14.179109    19.735973    33.265034    8.6273323    12.612127     22.30075    14.235163 
  730800    201.99537     59211248            0     59212034    12.683316    22.410353    14.179081    19.734012    33.265681      8.62459    12.612127     22.30075    14.235163 
  731000    252.22941     59210796            0     59211777    12.683323    22.410359    14.178758    19.734797    33.266232     8.592234    12.612127     22.30075    14.235163 
  731200     144.2785     59211137            0     59211699    12.683308    22.410382    14.179003    19.733253    33.268516    8.6167115    12.612127     22.30075    14.235163 
  731400    217.32733     59211628            0     59212474    12.683313     22.41035    14.179015    19.733775      33.2654    8.6179721    12.612127     22.30075    14.235163 
  731600    232.83344     59211252            0     59212158      12.6833    22.410345    14.179088    19.732488    33.264904    8.6252265    12.612127     22.30075    14.235163 
  731800    258.29907     59211113            0     59212118    12.683349    22.410358    14.178995     19.73737    33.266188    8.6159957    12.612127     22.30075    14.235163 
  732000     278.3837     59210670            0     59211753    12.683334    22.410353    14.179105    19.735826    33.265641    8.6270144    12.612127     22.30075    14.235163 
  732200    326.94076     59211119            0     59212391    12.683307     22.41034    14.178888     19.73313     33.26433    8.6052316    12.612127     22.30075    14.235163 
  732400    190.96501     59211032            0     59211775    12.683335    22.410318    14.179221     19.73597    33.262197    8.6386178    12.612127     22.30075    14.235163 
  732600    136.02968     59211803            0     59212332    12.683314    22.410353    14.178872    19.733891    33.265673    8.6037016    12.612127     22.30075    14.235163 
  732800    145.65342     59211736            0     59212303    12.683322    22.410323    14.179096    19.734604    33.262646    8.6260969    12.612127     22.30075    14.235163 
  733000    200.25231     59211039            0     59211819    12.683338    22.410347    14.178928      19.7362    33.265019     8.609216    12.612127     22.30075    14.235163 
  733200    219.96856     59211269            0     59212125    12.683314    22.410355    14.179174    19.733893    33.265858    8.6338364    12.612127     22.30075    14.235163 
  733400    59.452848     59211359            0     59211590     12.68333    22.410352    14.178823    19.735406    33.265551    8.5987097    12.612127     22.30075    14.235163 
  733600     240.4223     59210457            0     59211393    12.683313    22.410335    14.178958    19.733703     33.26385    8.6122472    12.612127     22.30075    14.235163 
  733800    148.62315     59211885            0     59212464     12.68332    22.410349    14.179177    19.734414    33.265287    8.6341957    12.612127     22.30075    14.235163 
  734000     220.0542     59211025            0     59211881    12.683336    22.410358    14.178892    19.736091    33.266144    8.6056658    12.612127     22.30075    14.235163 
  734200    172.00342     59211147            0     59211816    12.683335     22.41038    14.178997      19.7359    33.268375    8.6161462    12.612127     22.30075    14.235163 
  734400    113.64398     59211305            0     59211748    12.683357    22.410364    14.179052    19.738136    33.266765    8.6216236    12.612127     22.30075    14.235163 
  734600    245.85011     59211661            0     59212618    12.683312    22.410346    14.178829    19.733654    33.264921    8.5993588    12.612127     22.30075    14.235163 
  734800    239.41595     59211557            0     59212489    12.683336    22.410362    14.179009    19.736072    33.266589    8.6173517    12.612127     22.30075    14.235163 
  735000    124.80118     59210408            0     59210894    12.683312    22.410332    14.179011     19.73369    33.263524    8.6176039    12.612127     22.30075    14.235163 
  735200    165.92089     59212055            0     59212701    12.683332    22.410353    14.179051    19.735658    33.265643    8.6215556    12.612127     22.30075    14.235163 
  735400    101.97175     59212050            0     59212447    12.683341    22.410303    14.178844     19.73658    33.260629    8.6008262    12.612127     22.30075    14.235163 
  735600    274.24776     59211254            0     59212322     12.68333    22.410345    14.179077    19.735476    33.264891      8.62421    12.612127     22.30075    14.235163 
  735800    124.22086     59211431            0     59211915    12.683326    22.410334    14.178753    19.735013    33.263721    8.5917258    12.612127     22.30075    14.235163 
  736000    135.30112     59210735            0     59211262    12.683286    22.410368    14.178958    19.731081    33.267185    8.6122785    12.612127     22.30075    14.235163 
  736200    154.12713     59211670            0     59212270    12.683313    22.410337    14.178888    19.733772    33.264107    8.6052707    12.612127     22.30075    14.235163 
  736400     213.9171     59211707            0     59212540    12.683317    22.410351    14.179042    19.734117    33.265472    8.6206239    12.612127     22.30075    14.235163 
  736600    323.06901     59210685            0     59211943    12.683311    22.410353    14.178864    19.733519    33.265686    8.6028975    12.612127     22.30075    14.235163 
  736800    137.61343     59210712            0     59211248    12.683309    22.410344    14.179012    19.733382    33.264753    8.6176303    12.612127     22.30075    14.235163 
  737000    237.54039     59211433            0     59212358    12.683312    22.410348    14.178995    19.733654    33.265135    8.6159326    12.612127     22.30075    14.235163 
  737200    241.38525     59211200            0     59212140    12.683344    22.410352    14.178847    19.736884    33.265543    8.6011927    12.612127     22.30075    14.235163 
  737400    244.70254     59211614            0     59212567    12.683313    22.410349    14.178965    19.733765    33.265253    8.6130068    12.612127     22.30075    14.235163 
  737600    266.27027     59211911            0     59212948    12.683344    22.410322    14.178977    19.736892    33.262579    8.6141724    12.612127     22.30075    14.235163 
  737800    76.424747     59211150            0     59211448    12.683328    22.410353     14.17903    19.735276    33.265689    8.6194325    12.612127     22.30075    14.235163 
  738000    225.86764     59211189            0     59212068    12.683339    22.410353    14.178772    19.736358    33.265705    8.5936884    12.612127     22.30075    14.235163 
  738200    130.01783     59210752            0     59211258    12.683313    22.410351    14.179032    19.733707    33.265439    8.6196402    12.612127     22.30075    14.235163 
  738400    263.17549     59211462            0     59212487    12.683304     22.41035    14.178918    19.732854     33.26538    8.6082918    12.612127     22.30075    14.235163 
  738600    226.51755     59211809            0     59212691    12.683317    22.410349    14.178828    19.734177    33.265232    8.5992777    12.612127     22.30075    14.235163 
  738800    215.00419     59211411            0     59212248    12.683315    22.410353    14.178767    19.733986    33.265702    8.5931366    12.612127     22.30075    14.235163 
  739000    189.06583     59211304            0     59212040    12.683262    22.410346    14.178837    19.728602    33.265005    8.6001081    12.612127     22.30075    14.235163 
  739200    158.64115     59211437            0     59212055    12.683294    22.410354    14.179075    19.731797    33.265805    8.6239141    12.612127     22.30075    14.235163 
  739400     189.5118     59211764            0     59212502    12.683316    22.410353    14.179113    19.734012    33.265682    8.6277374    12.612127     22.30075    14.235163 
  739600    300.76658     59211308            0     59212479    12.683295    22.410353    14.178992    19.731922    33.265708    8.6156347    12.612127     22.30075    14.235163 
  739800    168.71918     59211404            0     59212061    12.683315    22.410353    14.178977    19.733975    33.265684    8.6142052    12.612127     22.30075    14.235163 
  740000     208.2532     59210850            0     59211661     12.68329    22.410404    14.178943    19.731443    33.270759    8.6107489    12.612127     22.30075    14.235163 
  740200    270.47192     59211024            0     59212077    12.683337    22.410368    14.178912    19.736133    33.267153    8.6076838    12.612127     22.30075    14.235163 
  740400    199.85901     59211739            0     59212517    12.683331    22.410323    14.178855    19.735525    33.262691    8.6019538    12.612127     22.30075    14.235163 
  740600    322.33632     59210751            0     59212006    12.683303    22.410354    14.179109    19.732762    33.265757    8.6273345    12.612127     22.30075    14.235163 
  740800    75.614271     59211179            0     59211474    12.683318    22.410402    14.178891    19.734246    33.270588    8.6055077    12.612127     22.30075    14.235163 
  741000    237.64398     59212114            0     59213039    12.683299    22.410354    14.178967    19.732338    33.265769    8.6131798    12.612127     22.30075    14.235163 
  741200    291.07829     59212474            0     59213607    12.683316    22.410354    14.178988     19.73401    33.265773    8.6152774    12.612127     22.30075    14.235163 
  741400    297.44336     59211405            0     59212563     12.68332    22.410341    14.179173    19.734493    33.264486     8.633814    12.612127     22.30075    14.235163 
  741600    297.84072     59210989            0     59212148    12.683295    22.410384     14.17911    19.731973    33.268724     8.627433    12.612127     22.30075    14.235163 
  741800    211.87629     59212484            0     59213309    12.683315    22.410353    14.179231     19.73395     33.26568    8.6395334    12.612127     22.30075    14.235163 
  742000    238.66845     59211788            0     59212717     12.68331    22.410344    14.178977    19.733413    33.264764    8.6141095    12.612127     22.30075    14.235163 
  742200    228.81537     59210758            0     59211649    12.683317     22.41035    14.179032     19.73417    33.265329    8.6197107    12.612127     22.30075    14.235163 
  742400     201.3296     59211434            0     59212218    12.683316    22.410353    14.179043     19.73401    33.265684    8.6207573    12.612127     22.30075    14.235163 
  742600    129.54435     59211132            0     59211636    12.683307    22.410369    14.179183    19.733148    33.267273    8.6347647    12.612127     22.30075    14.235163 
  742800    209.41682     59212405            0     59213221    12.683294    22.410367     14.17878    19.731859    33.267018    8.5944981    12.612127     22.30075    14.235163 
  743000     350.7959     59210993            0     59212359    12.683328    22.410376    14.178909     19.73521    33.267954    8.6073365    12.612127     22.30075    14.235163 
  743200    269.14941     59211356            0     59212404    12.683318    22.410353    14.178754    19.734261    33.265668     8.591842    12.612127     22.30075    14.235163 
  743400     184.0898     59211127            0     59211844    12.683334     22.41038    14.178946    19.735883      33.2684     8.611096    12.612127     22.30075    14.235163 
  743600    165.35241     59210274            0     59210918    12.683316    22.410353    14.178899    19.734013    33.265682    8.6063181    12.612127     22.30075    14.235163 
  743800     209.6503     59210812            0     59211628     12.68331    22.410346     14.17906    19.733496    33.264987    8.6224349    12.612127     22.30075    14.235163 
  744000    270.40525     59212703            0     59213756    12.683337    22.410348    14.179001    19.736173    33.265191    8.6166084    12.612127     22.30075    14.235163 
  744200    227.70828     59211972            0     59212859    12.683309    22.410354     14.17914    19.733369    33.265718    8.6304993    12.612127     22.30075    14.235163 
  744400    227.08644     59212271            0     59213155    12.683301    22.410354    14.179069     19.73258     33.26576    8.6233334    12.612127     22.30075    14.235163 
  744600    206.71431     59211781            0     59212585    12.683315    22.410353    14.178934    19.733973    33.265685    8.6098811    12.612127     22.30075    14.235163 
  744800    266.67097     59211777            0     59212815     12.68333    22.410381    14.178929     19.73542    33.268455      8.60933    12.612127     22.30075    14.235163 
  745000    156.96423     59211527            0     59212138    12.683314    22.410356    14.179055     19.73386    33.265983    8.6219688    12.612127     22.30075    14.235163 
  745200    275.54436     59211712            0     59212784    12.683312    22.410353    14.179003    19.733673     33.26569    8.6167116    12.612127     22.30075    14.235163 
  745400    188.05715     59210358            0     59211090      12.6833    22.410373     14.17891    19.732427    33.267684    8.6074429    12.612127     22.30075    14.235163 
  745600    167.65915     59211063            0     59211715    12.683334    22.410352    14.178889    19.735836     33.26556    8.6054017    12.612127     22.30075    14.235163 
  745800    170.39576     59210963            0     59211626    12.683317    22.410353    14.178875    19.734158    33.265674     8.603973    12.612127     22.30075    14.235163 
  746000    79.675045     59211287            0     59211597    12.683319    22.410347    14.179157    19.734324    33.265054    8.6321872    12.612127     22.30075    14.235163 
  746200    196.86143     59212624            0     59213391    12.683318    22.410352    14.179196    19.734199    33.265594    8.6360831    12.612127     22.30075    14.235163 
  746400    171.36763     59210981            0     59211648    12.683316    22.410353    14.178912    19.734013    33.265682    8.6076853    12.612127     22.30075    14.235163 
  746600    82.267168     59211208            0     59211528    12.683274    22.410326    14.179032    19.729802    33.262957    8.6196905    12.612127     22.30075    14.235163 
  746800    190.25202     59211469            0     59212210    12.683306    22.410371    14.179121    19.733039    33.267433    8.6285334    12.612127     22.30075    14.235163 
  747000    252.98812     59211082            0     59212067    12.683315    22.410353    14.178977    19.733964     33.26569    8.6141803    12.612127     22.30075    14.235163 
  747200    147.81872     59210752            0     59211328    12.683324    22.410345    14.179099    19.734847    33.264844    8.6263429    12.612127     22.30075    14.235163 
  747400    118.62859     59210749            0     59211211    12.683343    22.410323    14.178991    19.736725    33.262681    8.6155816    12.612127     22.30075    14.235163 
  747600     234.5307     59212271            0     59213184    12.683326    22.410344    14.179265     19.73508    33.264776    8.6429704    12.612127     22.30075    14.235163 
  747800    104.47926     59211344            0     59211751    12.683314    22.410353    14.178858    19.733895    33.265633    8.6022566    12.612127     22.30075    14.235163 
  748000     102.5587     59211076            0     59211475    12.683292    22.410326    14.179052    19.731671    33.262914    8.6216852    12.612127     22.30075    14.235163 
  748200    139.11071     59211311            0     59211853    12.683294    22.410355     14.17904    19.731874    33.265824    8.6205049    12.612127     22.30075    14.235163 
  748400    244.15115     59211334            0     59212285    12.683296    22.410354    14.179097     19.73208    33.265788    8.6261526    12.612127     22.30075    14.235163 
  748600    184.31487     59211093            0     59211811    12.683316    22.410353    14.179007    19.734016    33.265681    8.6171623    12.612127     22.30075    14.235163 
  748800     207.5144     59212191            0     59212999    12.683316    22.410353    14.179016    19.734073    33.265624    8.6180342    12.612127     22.30075    14.235163 
  749000    175.11366     59210309            0     59210991    12.683325    22.410334    14.178968    19.734976    33.263776    8.6132822    12.612127     22.30075    14.235163 
  749200    117.64399     59211134            0     59211592    12.683316    22.410353    14.179088     19.73401    33.265679    8.6252195    12.612127     22.30075    14.235163 
  749400    167.54203     59210983            0     59211636    12.683316    22.410353    14.178975    19.734013    33.265682    8.6139925    12.612127     22.30075    14.235163 
  749600    105.13471     59211578            0     59211987    12.683329    22.410344    14.179095    19.735394    33.264761    8.6259785    12.612127     22.30075    14.235163 
  749800    349.98855     59210792            0     59212154    12.683324    22.410366    14.178754    19.734879    33.267008    8.5918853    12.612127     22.30075    14.235163 
  750000    229.56327     59211235            0     59212129    12.683316    22.410353     14.17889    19.734077    33.265632    8.6054444    12.612127     22.30075    14.235163 
  750200    228.79375     59211327            0     59212218     12.68338    22.410398    14.178977    19.740446    33.270128    8.6141285    12.612127     22.30075    14.235163 
  750400    158.52372     59211289            0     59211906    12.683324    22.410358     14.17895    19.734864    33.266187    8.6114444    12.612127     22.30075    14.235163 
  750600    266.87759     59212035            0     59213074    12.683309    22.410354    14.179024     19.73334    33.265719    8.6188572    12.612127     22.30075    14.235163 
  750800     212.3471     59211988            0     59212814    12.683326    22.410346    14.179075    19.735021    33.264959    8.6239334    12.612127     22.30075    14.235163 
  751000    218.52697     59211338            0     59212189    12.683326    22.410364    14.179124    19.735059    33.266709    8.6289069    12.612127     22.30075    14.235163 
  751200    87.977467     59211448            0     59211790    12.683339    22.410357    14.178857     19.73635    33.266041    8.6021078    12.612127     22.30075    14.235163 
  751400    154.05795     59211291            0     59211891    12.683316    22.410353    14.178968    19.734001    33.265683    8.6132619    12.612127     22.30075    14.235163 
  751600    273.41039     59211050            0     59212114    12.683309    22.410335    14.178771    19.733313    33.263831    8.5935157    12.612127     22.30075    14.235163 
  751800    128.33838     59211914            0     59212413    12.683315    22.410353    14.179152    19.733945    33.265619    8.6316353    12.612127     22.30075    14.235163 
  752000    252.01041     59210395            0     59211376    12.683322    22.410372    14.179055    19.734598    33.267595    8.6219181    12.612127     22.30075    14.235163 
  752200    290.83241     59212180            0     59213312     12.68332     22.41035    14.179125    19.734458    33.265318     8.628977    12.612127     22.30075    14.235163 
  752400    181.34409     59210422            0     59211128     12.68332    22.410361    14.179142    19.734442     33.26647    8.6306412    12.612127     22.30075    14.235163 
  752600    267.51484     59211638            0     59212679    12.683316    22.410353    14.178859    19.734012    33.265683    8.6023169    12.612127     22.30075    14.235163 
  752800    178.02624     59212023            0     59212716    12.683316    22.410353    14.178867    19.734032    33.265627    8.6031925    12.612127     22.30075    14.235163 
  753000    115.58427     59212502            0     59212952    12.683317     22.41035    14.179067    19.734146    33.265349    8.6231249    12.612127     22.30075    14.235163 
  753200    156.80788     59211202            0     59211813    12.683306    22.410338    14.178884    19.733016    33.264156    8.6048102    12.612127     22.30075    14.235163 
  753400    243.36923     59211286            0     59212233    12.683298    22.410354     14.17911    19.732277    33.265778    8.6274712    12.612127     22.30075    14.235163 
  753600    270.19839     59211421            0     59212473    12.683316    22.410353    14.178972    19.734017    33.265679    8.6136979    12.612127     22.30075    14.235163 
  753800    246.12432     59212166            0     59213124    12.683315    22.410353    14.179185    19.733997    33.265683    8.6349818    12.612127     22.30075    14.235163 
  754000    195.84006     59211480            0     59212242    12.683316    22.410353    14.178877    19.734012    33.265682    8.6041303    12.612127     22.30075    14.235163 
  754200    144.50307     59209949            0     59210512    12.683342    22.410352    14.178916    19.736678    33.265526    8.6080368    12.612127     22.30075    14.235163 
  754400    261.12825     59211232            0     59212249     12.68331    22.410343    14.178898    19.733464     33.26467    8.6062569    12.612127     22.30075    14.235163 
  754600    209.37974     59210940            0     59211755    12.683289    22.410342     14.17882    19.731376    33.264519    8.5984307    12.612127     22.30075    14.235163 
  754800    249.21829     59211082            0     59212052    12.683317    22.410355    14.178852    19.734157    33.265903    8.6016091    12.612127     22.30075    14.235163 
  755000    290.39505     59210979            0     59212109    12.683304    22.410367     14.17891    19.732864    33.267068    8.6074492    12.612127     22.30075    14.235163 
  755200      121.799     59210373            0     59210847    12.683285    22.410355    14.179036    19.730907    33.265879    8.6200181    12.612127     22.30075    14.235163 
  755400    320.30763     59210237            0     59211484    12.683294    22.410359    14.179013    19.731836     33.26626    8.6177352    12.612127     22.30075    14.235163 
  755600    145.73629     59211269            0     59211836    12.683329    22.410372    14.179032     19.73533    33.267593     8.619707    12.612127     22.30075    14.235163 
  755800    216.59927     59211297            0     59212140     12.68333    22.410375    14.179086    19.735455    33.267873    8.6250546    12.612127     22.30075    14.235163 
  756000    226.03895     59210924            0     59211804    12.683323    22.410353    14.179148    19.734771    33.265651    8.6312284    12.612127     22.30075    14.235163 
  756200    86.365857     59211055            0     59211391    12.683359    22.410384    14.178995     19.73838    33.268713    8.6159153    12.612127     22.30075    14.235163 
  756400     211.6006     59212206            0     59213030    12.683326    22.410371    14.178866    19.735002     33.26742    8.6030464    12.612127     22.30075    14.235163 
  756600    275.12685     59211403            0     59212474      12.6833    22.410362    14.178767    19.732403    33.266535    8.5931998    12.612127     22.30075    14.235163 
  756800    145.30588     59211733            0     59212298    12.683316    22.410353    14.179083    19.734012    33.265682    8.6247874    12.612127     22.30075    14.235163 
  757000    219.48797     59210508            0     59211362    12.683302    22.410354    14.179027    19.732686    33.265755    8.6192055    12.612127     22.30075    14.235163 
  757200    182.95438     59210990            0     59211703    12.683316    22.410354    14.178838    19.734018    33.265713    8.6002563    12.612127     22.30075    14.235163 
  757400    267.86521     59210466            0     59211509    12.683315    22.410357    14.178997    19.733924    33.266015    8.6161465    12.612127     22.30075    14.235163 
  757600    289.17803     59211720            0     59212846    12.683321    22.410361    14.179026    19.734503    33.266446    8.6190846    12.612127     22.30075    14.235163 
  757800    130.98028     59211330            0     59211839    12.683297    22.410349    14.178947    19.732145    33.265238    8.6111484    12.612127     22.30075    14.235163 
  758000    145.92737     59211671            0     59212239    12.683307    22.410365    14.179011    19.733118    33.266834     8.617578    12.612127     22.30075    14.235163 
  758200    122.08487     59211122            0     59211598    12.683312     22.41036    14.178929     19.73368    33.266387     8.609397    12.612127     22.30075    14.235163 
  758400    219.73741     59211443            0     59212299    12.683336    22.410357    14.179229    19.736044    33.266028    8.6393369    12.612127     22.30075    14.235163 
  758600    101.52368     59212067            0     59212462    12.683314    22.410353    14.178752      19.7338    33.265694    8.5916658    12.612127     22.30075    14.235163 
  758800    91.956256     59212045            0     59212403    12.683342    22.410352    14.178991    19.736663    33.265534    8.6155415    12.612127     22.30075    14.235163 
  759000    202.93591     59210694            0     59211484    12.683324    22.410362    14.179093    19.734832     33.26654    8.6258066    12.612127     22.30075    14.235163 
  759200    324.98987     59211078            0     59212343    12.683302     22.41035    14.178775    19.732628     33.26531    8.5939347    12.612127     22.30075    14.235163 
  759400    291.58239     59211663            0     59212798    12.683327    22.410353    14.179051    19.735136    33.265619    8.6216017    12.612127     22.30075    14.235163 
  759600    285.28751     59210282            0     59211393    12.683321    22.410344    14.179022    19.734523    33.264769    8.6186158    12.612127     22.30075    14.235163 
  759800    178.22553     59212378            0     59213071    12.683316    22.410353    14.178653    19.734021    33.265694    8.5816976    12.612127     22.30075    14.235163 
  760000    198.35414     59211119            0     59211891    12.683296    22.410375    14.178812    19.732076    33.267824     8.597606    12.612127     22.30075    14.235163 
  760200     404.3753     59211166            0     59212740    12.683316    22.410353    14.179118    19.734011    33.265681     8.628301    12.612127     22.30075    14.235163 
  760400    380.52409     59211411            0     59212892    12.683314    22.410336    14.179032    19.733878    33.263967    8.6196511    12.612127     22.30075    14.235163 
  760600    137.18828     59211208            0     59211742      12.6833    22.410354    14.178841    19.732465    33.265767    8.6005126    12.612127     22.30075    14.235163 
  760800    244.80533     59211371            0     59212324    12.683312    22.410336    14.178996     19.73365    33.263958     8.616048    12.612127     22.30075    14.235163 
  761000    210.75603     59210875            0     59211695    12.683342    22.410352    14.179069    19.736687    33.265579    8.6233925    12.612127     22.30075    14.235163 
  761200    240.90438     59211669            0     59212607    12.683316    22.410353    14.178865    19.734017    33.265681    8.6029834    12.612127     22.30075    14.235163 
  761400    238.56408     59211284            0     59212213    12.683316    22.410353    14.178876    19.734029    33.265682    8.6040099    12.612127     22.30075    14.235163 
  761600    214.85754     59211516            0     59212353    12.683317    22.410356    14.178825    19.734182    33.265942    8.5989361    12.612127     22.30075    14.235163 
  761800    268.56362     59211762            0     59212807    12.683312    22.410353    14.178795    19.733655    33.265701    8.5959476    12.612127     22.30075    14.235163 
  762000    139.70508     59212076            0     59212620    12.683324    22.410354    14.179008    19.734818    33.265767    8.6172527    12.612127     22.30075    14.235163 
  762200     355.6243     59211705            0     59213089    12.683276    22.410371    14.179033    19.730002    33.267411    8.6197376    12.612127     22.30075    14.235163 
  762400    210.01796     59211283            0     59212101    12.683325    22.410335    14.178947    19.734899    33.263891    8.6112077    12.612127     22.30075    14.235163 
  762600    233.49954     59211355            0     59212264    12.683325    22.410367    14.179111    19.734945    33.267103    8.6275511    12.612127     22.30075    14.235163 
  762800    228.78357     59211344            0     59212235    12.683338    22.410352    14.179051     19.73627    33.265557    8.6215996    12.612127     22.30075    14.235163 
  763000    236.61654     59211235            0     59212156    12.683316    22.410353    14.179194    19.734077     33.26567    8.6358426    12.612127     22.30075    14.235163 
  763200    325.66548     59211905            0     59213172    12.683311    22.410362    14.179026    19.733566    33.266563    8.6190359    12.612127     22.30075    14.235163 
  763400    162.34075     59212092            0     59212724    12.683315    22.410353    14.179055    19.733905    33.265689     8.621936    12.612127     22.30075    14.235163 
  763600     185.4128     59210969            0     59211691    12.683322    22.410369    14.179184    19.734646    33.267263    8.6348407    12.612127     22.30075    14.235163 
  763800    173.10188     59211584            0     59212258    12.683291     22.41039    14.178955    19.731502    33.269398    8.6119261    12.612127     22.30075    14.235163 
  764000    123.46589     59211893            0     59212374    12.683325    22.410314    14.179054    19.734908    33.261792    8.6218619    12.612127     22.30075    14.235163 
  764200     187.4552     59212036            0     59212766    12.683332    22.410339    14.178971    19.735691    33.264241    8.6135661    12.612127     22.30075    14.235163 
  764400    254.44865     59211669            0     59212659    12.683304    22.410376    14.178696    19.732851    33.267989    8.5860479    12.612127     22.30075    14.235163 
  764600    205.06144     59211017            0     59211816    12.683306    22.410372    14.179124    19.733063    33.267585    8.6289092    12.612127     22.30075    14.235163 
  764800    322.10041     59211439            0     59212693    12.683316    22.410353    14.178996    19.734018     33.26569    8.6160461    12.612127     22.30075    14.235163 
  765000    210.05897     59211442            0     59212260    12.683284    22.410355    14.178908     19.73081    33.265879    8.6072723    12.612127     22.30075    14.235163 
  765200    326.03052     59211291            0     59212560    12.683316    22.410353    14.179122    19.734012    33.265681    8.6286294    12.612127     22.30075    14.235163 
  765400    356.51227     59210883            0     59212270    12.683328    22.410348    14.178969    19.735227    33.265178    8.6133167    12.612127     22.30075    14.235163 
  765600    121.91224     59211927            0     59212402    12.683315    22.410353    14.179083    19.733986    33.265704     8.624716    12.612127     22.30075    14.235163 
  765800    123.60825     59211590            0     59212071    12.683309    22.410355    14.179089    19.733362    33.265824    8.6253183    12.612127     22.30075    14.235163 
  766000    249.04003     59211838            0     59212808    12.683312    22.410353    14.178936    19.733617    33.265704    8.6100336    12.612127     22.30075    14.235163 
  766200     221.2835     59211880            0     59212741    12.683297    22.410357    14.178812    19.732149     33.26608    8.5976718    12.612127     22.30075    14.235163 
  766400    271.42954     59210907            0     59211964    12.683318    22.410347    14.178922    19.734236    33.265035    8.6086588    12.612127     22.30075    14.235163 
  766600    166.12776     59211679            0     59212326    12.683308    22.410343    14.179163    19.733257    33.264694    8.6327515    12.612127     22.30075    14.235163 
  766800    194.72135     59211417            0     59212175    12.683316    22.410354    14.178945    19.734082    33.265729    8.6109937    12.612127     22.30075    14.235163 
  767000    191.56353     59212265            0     59213011    12.683333     22.41038    14.179036    19.735748    33.268339    8.6200939    12.612127     22.30075    14.235163 
  767200    156.07363     59212463            0     59213071     12.68332    22.410385    14.178994    19.734441    33.268902    8.6158425    12.612127     22.30075    14.235163 
  767400    257.99696     59211981            0     59212985    12.683335    22.410368    14.178976    19.735947    33.267153    8.6140786    12.612127     22.30075    14.235163 
  767600    59.909406     59210562            0     59210796    12.683328    22.410353     14.17891    19.735226    33.265609    8.6074609    12.612127     22.30075    14.235163 
  767800    183.75504     59211522            0     59212238    12.683285    22.410355    14.178899    19.730932    33.265851    8.6063161    12.612127     22.30075    14.235163 
  768000    126.71453     59211039            0     59211533    12.683361    22.410295    14.178866    19.738501     33.25987    8.6030451    12.612127     22.30075    14.235163 
  768200    224.99725     59210428            0     59211304    12.683309    22.410343    14.178999    19.733331    33.264677    8.6163893    12.612127     22.30075    14.235163 
  768400      159.735     59211981            0     59212603    12.683276    22.410367    14.179072    19.730031    33.267105     8.623648    12.612127     22.30075    14.235163 
  768600    182.43243     59211039            0     59211750    12.683316    22.410353    14.178973    19.734013     33.26568    8.6137736    12.612127     22.30075    14.235163 
  768800     163.8542     59211172            0     59211810    12.683327    22.410354     14.17918    19.735103    33.265736    8.6344993    12.612127     22.30075    14.235163 
  769000    309.35354     59211971            0     59213175    12.683317    22.410353    14.178761    19.734157    33.265674    8.5925571    12.612127     22.30075    14.235163 
  769200    252.13899     59210671            0     59211653    12.683314    22.410355    14.179187    19.733892    33.265875    8.6351924    12.612127     22.30075    14.235163 
  769400    61.262465     59210639            0     59210877    12.683304    22.410355     14.17886    19.732851     33.26584    8.6024563    12.612127     22.30075    14.235163 
  769600    145.42267     59210993            0     59211559    12.683308    22.410367    14.179175    19.733212    33.267107    8.6339529    12.612127     22.30075    14.235163 
  769800    89.709465     59211729            0     59212078    12.683326    22.410326    14.178823    19.735021    33.262917    8.5987225    12.612127     22.30075    14.235163 
  770000     214.3117     59211799            0     59212634    12.683316    22.410353    14.178991    19.734016    33.265686    8.6156034    12.612127     22.30075    14.235163 
  770200    175.45726     59211598            0     59212281    12.683309    22.410334    14.179171    19.733336    33.263749    8.6335797    12.612127     22.30075    14.235163 
  770400    223.85967     59211250            0     59212122    12.683339    22.410354    14.178875    19.736355    33.265716    8.6039325    12.612127     22.30075    14.235163 
  770600    116.69442     59211491            0     59211945    12.683315    22.410353     14.17898    19.733936    33.265677     8.614448    12.612127     22.30075    14.235163 
  770800    268.03339     59212386            0     59213429    12.683317    22.410353    14.179157    19.734109    33.265629    8.6321751    12.612127     22.30075    14.235163 
  771000    153.38617     59211891            0     59212488      12.6833     22.41033    14.178679    19.732448    33.263401     8.584303    12.612127     22.30075    14.235163 
  771200    187.01663     59211089            0     59211817    12.683316     22.41035    14.178894    19.734029    33.265314    8.6058895    12.612127     22.30075    14.235163 
  771400    169.83329     59212646            0     59213307    12.683316    22.410353    14.178994    19.734011    33.265681     8.615899    12.612127     22.30075    14.235163 
  771600     299.4748     59210859            0     59212025    12.683323    22.410358    14.178867    19.734783    33.266119     8.603171    12.612127     22.30075    14.235163 
  771800    151.82128     59211292            0     59211883    12.683314     22.41035    14.179018     19.73383    33.265401    8.6183016    12.612127     22.30075    14.235163 
  772000    240.75521     59211461            0     59212399    12.683388    22.410358    14.178915    19.741267    33.266204    8.6079942    12.612127     22.30075    14.235163 
  772200    154.75692     59210978            0     59211581    12.683315    22.410352    14.179078    19.733966    33.265582    8.6243043    12.612127     22.30075    14.235163 
  772400    97.855053     59211018            0     59211399    12.683317     22.41036    14.179082    19.734136     33.26637    8.6247064    12.612127     22.30075    14.235163 
  772600    169.33838     59211296            0     59211955    12.683317    22.410357    14.179058    19.734158    33.266098    8.6223107    12.612127     22.30075    14.235163 
  772800    207.08194     59211230            0     59212036    12.683321    22.410348     14.17905    19.734525    33.265122    8.6214262    12.612127     22.30075    14.235163 
  773000    139.55435     59210962            0     59211505    12.683302    22.410381    14.178967    19.732674    33.268497    8.6131688    12.612127     22.30075    14.235163 
  773200     115.1236     59211117            0     59211565    12.683327    22.410387     14.17881    19.735176    33.269051    8.5974725    12.612127     22.30075    14.235163 
  773400    187.16708     59210611            0     59211340    12.683307    22.410373    14.178938    19.733143    33.267705    8.6102836    12.612127     22.30075    14.235163 
  773600    177.23996     59211492            0     59212182    12.683312    22.410353    14.178804    19.733613    33.265684    8.5968966    12.612127     22.30075    14.235163 
  773800    398.20944     59211018            0     59212569    12.683332    22.410375     14.17889    19.735646    33.267837    8.6054623    12.612127     22.30075    14.235163 
  774000    246.61943     59210720            0     59211680    12.683323    22.410353    14.178912     19.73475    33.265641    8.6076204    12.612127     22.30075    14.235163 
  774200    237.67078     59211917            0     59212843    12.683301    22.410354     14.17911    19.732585    33.265761     8.627424    12.612127     22.30075    14.235163 
  774400    100.07835     59211378            0     59211768    12.683316    22.410353    14.179163    19.734012    33.265682    8.6328134    12.612127     22.30075    14.235163 
  774600    204.03806     59211602            0     59212397    12.683278    22.410396     14.17898    19.730241    33.269956    8.6144879    12.612127     22.30075    14.235163 
  774800    205.99288     59210245            0     59211047    12.683295    22.410366    14.179115    19.731979    33.266911     8.627973    12.612127     22.30075    14.235163 
  775000    169.20031     59211400            0     59212058    12.683315    22.410355    14.178882    19.733923    33.265861    8.6046408    12.612127     22.30075    14.235163 
  775200    237.44248     59210863            0     59211787    12.683316    22.410353     14.17903    19.734008    33.265681    8.6194505    12.612127     22.30075    14.235163 
  775400    200.84315     59210974            0     59211756    12.683292    22.410352    14.179226    19.731656    33.265523    8.6390838    12.612127     22.30075    14.235163 
  775600    330.42598     59212155            0     59213441    12.683312    22.410353    14.179205    19.733693    33.265693     8.636989    12.612127     22.30075    14.235163 
  775800    140.91453     59212165            0     59212713    12.683313    22.410353    14.178979    19.733708    33.265659    8.6143436    12.612127     22.30075    14.235163 
  776000    170.67737     59211785            0     59212450    12.683323    22.410361    14.179159    19.734708     33.26644    8.6323697    12.612127     22.30075    14.235163 
  776200    372.99353     59211609            0     59213061    12.683332    22.410352    14.179002    19.735673    33.265545    8.6166277    12.612127     22.30075    14.235163 
  776400    167.42914     59212015            0     59212667    12.683322    22.410354    14.178816    19.734635    33.265727    8.5980208    12.612127     22.30075    14.235163 
  776600    94.526758     59210868            0     59211236     12.68333    22.410346    14.178978    19.735486    33.264912    8.6142188    12.612127     22.30075    14.235163 
  776800    219.82412     59211166            0     59212022    12.683326    22.410365    14.179027    19.735028    33.266872    8.6191455    12.612127     22.30075    14.235163 
  777000    273.61824     59211289            0     59212354    12.683303    22.410362    14.179037    19.732743    33.266527    8.6201276    12.612127     22.30075    14.235163 
  777200    343.62211     59211120            0     59212458      12.6833    22.410338    14.178978    19.732432    33.264187    8.6142923    12.612127     22.30075    14.235163 
  777400    247.48354     59211108            0     59212071    12.683309    22.410364    14.178839    19.733333    33.266744    8.6003631    12.612127     22.30075    14.235163 
  777600    172.62673     59210760            0     59211432      12.6833    22.410348    14.179027    19.732447    33.265139    8.6191433    12.612127     22.30075    14.235163 
  777800    158.55653     59211445            0     59212062    12.683315    22.410353    14.179217    19.733995    33.265669    8.6381661    12.612127     22.30075    14.235163 
  778000    194.53262     59211582            0     59212339    12.683304    22.410368    14.178995     19.73281    33.267171    8.6159192    12.612127     22.30075    14.235163 
  778200    215.50354     59211474            0     59212313    12.683328    22.410364    14.178702    19.735219    33.266798    8.5866806    12.612127     22.30075    14.235163 
  778400    174.63751     59211678            0     59212357    12.683306     22.41037    14.179214    19.733068    33.267365    8.6378955    12.612127     22.30075    14.235163 
  778600    192.75466     59210301            0     59211051    12.683321    22.410344    14.179003    19.734504    33.264765    8.6167239    12.612127     22.30075    14.235163 
  778800    279.70867     59211345            0     59212434    12.683321    22.410386    14.179146    19.734546    33.268966    8.6310637    12.612127     22.30075    14.235163 
  779000     310.6421     59211506            0     59212715    12.683315    22.410353    14.178932    19.733995    33.265654    8.6096649    12.612127     22.30075    14.235163 
  779200    141.46252     59211014            0     59211565    12.683315    22.410368    14.178937    19.733936    33.267129    8.6101491    12.612127     22.30075    14.235163 
  779400     115.9951     59211589            0     59212040    12.683347    22.410345     14.17889    19.737192    33.264874    8.6054712    12.612127     22.30075    14.235163 
  779600    202.81251     59210906            0     59211695    12.683309    22.410354    14.178948    19.733391    33.265794    8.6112237    12.612127     22.30075    14.235163 
  779800    120.90296     59210729            0     59211199    12.683301    22.410378     14.17903    19.732574    33.268208    8.6194659    12.612127     22.30075    14.235163 
  780000    214.26579     59211313            0     59212147    12.683327    22.410371    14.178891    19.735175    33.267485    8.6055097    12.612127     22.30075    14.235163 
  780200     150.2726     59211964            0     59212549    12.683292    22.410358     14.17884    19.731689    33.266177    8.6004425    12.612127     22.30075    14.235163 
  780400    200.54612     59212093            0     59212874    12.683336    22.410363    14.178942    19.736009    33.266624    8.6106283    12.612127     22.30075    14.235163 
  780600       301.28     59211196            0     59212369    12.683322    22.410361    14.178954    19.734644    33.266499    8.6118806    12.612127     22.30075    14.235163 
  780800    112.08478     59211300            0     59211737    12.683301    22.410355    14.178851    19.732555    33.265831    8.6015107    12.612127     22.30075    14.235163 
  781000    192.85507     59211463            0     59212214    12.683319    22.410371    14.179154    19.734373    33.267497    8.6318584    12.612127     22.30075    14.235163 
  781200    286.61515     59211116            0     59212231    12.683328    22.410342    14.179193    19.735227    33.264595    8.6357582    12.612127     22.30075    14.235163 
  781400    89.331921     59211359            0     59211707    12.683304    22.410332     14.17898    19.732888    33.263602    8.6144446    12.612127     22.30075    14.235163 
  781600    242.67131     59211377            0     59212322    12.683328    22.410381    14.178917    19.735276    33.268416    8.6081902    12.612127     22.30075    14.235163 
  781800    162.51243     59211464            0     59212096    12.683316    22.410353    14.178956    19.734018    33.265681    8.6120595    12.612127     22.30075    14.235163 
  782000    195.27616     59211200            0     59211960    12.683318    22.410348    14.179005    19.734254    33.265181    8.6169793    12.612127     22.30075    14.235163 
  782200    146.69517     59210610            0     59211181    12.683329    22.410326    14.178876    19.735367    33.263004    8.6040702    12.612127     22.30075    14.235163 
  782400    203.20305     59212521            0     59213312    12.683323    22.410335    14.178842    19.734724    33.263831    8.6006548    12.612127     22.30075    14.235163 
  782600    152.05566     59211647            0     59212239     12.68333    22.410327    14.179063    19.735429    33.263094    8.6228042    12.612127     22.30075    14.235163 
  782800     110.9608     59210845            0     59211277    12.683325    22.410356    14.178903    19.734982    33.265936    8.6067545    12.612127     22.30075    14.235163 
  783000    175.81435     59210188            0     59210872    12.683319    22.410335     14.17892    19.734347    33.263837    8.6084193    12.612127     22.30075    14.235163 
  783200    212.03213     59211474            0     59212299    12.683316    22.410353    14.178936    19.734038    33.265635    8.6100427    12.612127     22.30075    14.235163 
  783400    156.56798     59211192            0     59211801    12.683311    22.410362    14.178849    19.733593    33.266514    8.6013568    12.612127     22.30075    14.235163 
  783600    117.82876     59211082            0     59211540     12.68332    22.410359    14.179221    19.734423    33.266264    8.6385952    12.612127     22.30075    14.235163 
  783800    112.54421     59210939            0     59211377     12.68334     22.41039    14.178933    19.736454    33.269345    8.6097429    12.612127     22.30075    14.235163 
  784000    251.65201     59211346            0     59212325    12.683318    22.410369    14.178964    19.734212    33.267212    8.6128886    12.612127     22.30075    14.235163 
  784200     111.0031     59211477            0     59211909    12.683331    22.410357    14.178818    19.735549    33.266102    8.5982301    12.612127     22.30075    14.235163 
  784400    211.39547     59211581            0     59212404    12.683306    22.410356    14.179038    19.733012    33.265943    8.6202659    12.612127     22.30075    14.235163 
  784600    142.47035     59210776            0     59211331    12.683311    22.410363     14.17891    19.733539    33.266617    8.6074927    12.612127     22.30075    14.235163 
  784800    111.04397     59211205            0     59211638    12.683324    22.410364    14.179005    19.734894    33.266723    8.6169923    12.612127     22.30075    14.235163 
  785000    197.43502     59211188            0     59211957    12.683317    22.410357    14.179091      19.7341    33.266036      8.62556    12.612127     22.30075    14.235163 
  785200    249.49885     59210563            0     59211535    12.683321     22.41035     14.17883    19.734557    33.265362    8.5994664    12.612127     22.30075    14.235163 
  785400    105.18826     59211608            0     59212018     12.68332    22.410345    14.178932    19.734431    33.264853    8.6096515    12.612127     22.30075    14.235163 
  785600    419.05537     59210635            0     59212266    12.683297    22.410342    14.178855    19.732129    33.264597    8.6019166    12.612127     22.30075    14.235163 
  785800    201.54584     59211558            0     59212342    12.683343    22.410353     14.17868     19.73679    33.265625    8.5844309    12.612127     22.30075    14.235163 
  786000    143.13178     59212261            0     59212818    12.683311    22.410362    14.179084    19.733589    33.266557    8.6248577    12.612127     22.30075    14.235163 
  786200    154.98902     59211293            0     59211897     12.68333    22.410326    14.179141      19.7354     33.26295    8.6306156    12.612127     22.30075    14.235163 
  786400    112.56733     59212603            0     59213041    12.683341     22.41036    14.178891    19.736577    33.266333    8.6055742    12.612127     22.30075    14.235163 
  786600    123.70724     59210704            0     59211185    12.683322    22.410361    14.178962    19.734621     33.26644    8.6126604    12.612127     22.30075    14.235163 
  786800    166.55347     59211661            0     59212309    12.683308     22.41034    14.178854    19.733278    33.264323    8.6018342    12.612127     22.30075    14.235163 
  787000    236.17938     59211259            0     59212178    12.683323     22.41037    14.178861    19.734724    33.267331    8.6025187    12.612127     22.30075    14.235163 
  787200    154.09523     59211817            0     59212417    12.683314    22.410354    14.179101    19.733894    33.265781    8.6265933    12.612127     22.30075    14.235163 
  787400     313.6031     59211769            0     59212990    12.683315    22.410353    14.178649    19.733989    33.265684    8.5813452    12.612127     22.30075    14.235163 
  787600    300.41051     59211137            0     59212306    12.683341    22.410357     14.17897    19.736523    33.266064    8.6134365    12.612127     22.30075    14.235163 
  787800    320.76846     59211188            0     59212437    12.683316    22.410353    14.179109     19.73401    33.265686    8.6273931    12.612127     22.30075    14.235163 
  788000    344.47055     59211012            0     59212353    12.683316    22.410353      14.1787    19.734038    33.265681    8.5864368    12.612127     22.30075    14.235163 
  788200    206.24862     59211244            0     59212047    12.683303    22.410334    14.179203    19.732774    33.263785    8.6367654    12.612127     22.30075    14.235163 
  788400    204.15185     59211535            0     59212330    12.683325    22.410353    14.179202    19.734909    33.265647    8.6367163    12.612127     22.30075    14.235163 
  788600    208.05623     59211595            0     59212405    12.683309    22.410359    14.179019    19.733331    33.266216    8.6183698    12.612127     22.30075    14.235163 
  788800    303.48879     59212291            0     59213472    12.683314    22.410353    14.179189     19.73386    33.265701    8.6354076    12.612127     22.30075    14.235163 
  789000    208.65812     59211251            0     59212064      12.6833     22.41033    14.179018    19.732435    33.263344    8.6182653    12.612127     22.30075    14.235163 
  789200    236.44919     59210982            0     59211903     12.68331    22.410353    14.179154    19.733425    33.265688     8.631915    12.612127     22.30075    14.235163 
  789400    232.23021     59211301            0     59212205    12.683329    22.410373    14.179121    19.735313    33.267635    8.6285746    12.612127     22.30075    14.235163 
  789600     172.7371     59211112            0     59211785    12.683301    22.410381    14.178789     19.73259    33.268478    8.5953911    12.612127     22.30075    14.235163 
  789800    84.931953     59210499            0     59210830    12.683331    22.410352    14.178998    19.735516    33.265599    8.6162772    12.612127     22.30075    14.235163 
  790000    172.68279     59212574            0     59213246    12.683322    22.410363    14.178876    19.734638    33.266657     8.604043    12.612127     22.30075    14.235163 
  790200    222.35709     59211394            0     59212260    12.683316    22.410353    14.179236    19.734012    33.265681     8.640038    12.612127     22.30075    14.235163 
  790400    147.84463     59211637            0     59212213    12.683316    22.410353    14.179064    19.734012    33.265682    8.6228765    12.612127     22.30075    14.235163 
  790600    166.50429     59211492            0     59212140     12.68331    22.410365    14.178938      19.7334    33.266855    8.6102763    12.612127     22.30075    14.235163 
  790800    110.70999     59211246            0     59211677    12.683316    22.410353    14.179044    19.734021    33.265704     8.620876    12.612127     22.30075    14.235163 
  791000    83.903537     59211289            0     59211615    12.683318    22.410348    14.178869    19.734294    33.265125    8.6033788    12.612127     22.30075    14.235163 
  791200    249.32005     59211773            0     59212744    12.683318    22.410376    14.179046    19.734208    33.268005    8.6210307    12.612127     22.30075    14.235163 
  791400    115.19251     59211411            0     59211859     12.68334    22.410304    14.179132    19.736425    33.260718    8.6296788    12.612127     22.30075    14.235163 
  791600    234.38654     59210976            0     59211889    12.683317    22.410355    14.178945    19.734143    33.265882    8.6109784    12.612127     22.30075    14.235163 
  791800    368.54728     59211343            0     59212777    12.683339    22.410369    14.179134    19.736344    33.267229    8.6298711    12.612127     22.30075    14.235163 
  792000    123.16812     59211587            0     59212067    12.683353    22.410337    14.178871    19.737759     33.26408    8.6035518    12.612127     22.30075    14.235163 
  792200    172.30824     59210557            0     59211228    12.683305     22.41035    14.178927    19.732944    33.265342    8.6091479    12.612127     22.30075    14.235163 
  792400    117.03487     59211092            0     59211548    12.683308    22.410335    14.178989    19.733213    33.263814    8.6153534    12.612127     22.30075    14.235163 
  792600    190.41655     59211295            0     59212036    12.683294    22.410331    14.178949    19.731831    33.263477    8.6113836    12.612127     22.30075    14.235163 
  792800    127.79291     59210916            0     59211414    12.683325    22.410368    14.178971    19.734982     33.26714    8.6135136    12.612127     22.30075    14.235163 
  793000    171.23357     59211206            0     59211873    12.683318    22.410353    14.178938    19.734209    33.265671    8.6102325    12.612127     22.30075    14.235163 
  793200    211.40722     59211075            0     59211898    12.683318    22.410348    14.178972    19.734253    33.265179    8.6136475    12.612127     22.30075    14.235163 
  793400    229.68456     59211497            0     59212391    12.683309    22.410357    14.178882    19.733342    33.266051    8.6046374    12.612127     22.30075    14.235163 
  793600    264.81617     59211000            0     59212031    12.683341    22.410357    14.178971    19.736539    33.266061    8.6135257    12.612127     22.30075    14.235163 
  793800    136.60529     59211691            0     59212223    12.683292    22.410377     14.17875    19.731598    33.268095    8.5914941    12.612127     22.30075    14.235163 
  794000     249.1096     59211444            0     59212414    12.683304    22.410353    14.179101    19.732883    33.265611    8.6265356    12.612127     22.30075    14.235163 
  794200    126.22074     59211261            0     59211752    12.683328    22.410353    14.178809     19.73527    33.265612    8.5973139    12.612127     22.30075    14.235163 
  794400    134.33805     59212042            0     59212565    12.683333    22.410352    14.179231    19.735791    33.265586    8.6396135    12.612127     22.30075    14.235163 
  794600    157.22618     59211950            0     59212562     12.68328    22.410366    14.179058    19.730438    33.266955    8.6222261    12.612127     22.30075    14.235163 
  794800    265.08171     59211727            0     59212759    12.683313    22.410353    14.179168    19.733791    33.265695    8.6333138    12.612127     22.30075    14.235163 
  795000    97.185823     59211389            0     59211767    12.683316    22.410353    14.179144    19.734006    33.265682    8.6308371    12.612127     22.30075    14.235163 
  795200     183.7764     59212220            0     59212936    12.683308    22.410354    14.179136     19.73326    33.265716    8.6300241    12.612127     22.30075    14.235163 
  795400    239.03008     59211457            0     59212388    12.683322    22.410355    14.179113      19.7346     33.26582    8.6277294    12.612127     22.30075    14.235163 
  795600    155.97063     59210313            0     59210920    12.683279    22.410356    14.179006     19.73036    33.265917    8.6170912    12.612127     22.30075    14.235163 
  795800     209.8592     59211870            0     59212687    12.683318    22.410349    14.179042    19.734201    33.265291    8.6207051    12.612127     22.30075    14.235163 
  796000    318.48429     59210887            0     59212127     12.68332     22.41036    14.178939    19.734461    33.266367    8.6103113    12.612127     22.30075    14.235163 
  796200    131.18635     59210326            0     59210837    12.683313    22.410349    14.178866    19.733744    33.265278    8.6030943    12.612127     22.30075    14.235163 
  796400    193.86111     59212778            0     59213533    12.683288    22.410328    14.179096    19.731223    33.263199    8.6260175    12.612127     22.30075    14.235163 
  796600    286.03328     59211321            0     59212434    12.683316    22.410354    14.179189    19.733999    33.265804    8.6353517    12.612127     22.30075    14.235163 
  796800    142.29912     59211713            0     59212267    12.683271    22.410327    14.178922    19.729518    33.263092    8.6086402    12.612127     22.30075    14.235163 
  797000    348.84622     59210836            0     59212194    12.683316    22.410353    14.179001    19.734002    33.265682    8.6165891    12.612127     22.30075    14.235163 
  797200    175.61905     59211225            0     59211908    12.683312     22.41036    14.178783    19.733669    33.266358    8.5947975    12.612127     22.30075    14.235163 
  797400    165.72434     59211805            0     59212451    12.683316    22.410353    14.178886    19.734011      33.2657    8.6050734    12.612127     22.30075    14.235163 
  797600    140.73598     59211030            0     59211578    12.683316    22.410353    14.178833    19.734012    33.265682     8.599767    12.612127     22.30075    14.235163 
  797800    215.12095     59211421            0     59212259    12.683322    22.410336    14.178962    19.734681    33.263996    8.6126644    12.612127     22.30075    14.235163 
  798000    116.78711     59210921            0     59211375    12.683321    22.410357    14.179091    19.734528    33.266054    8.6255777    12.612127     22.30075    14.235163 
  798200     294.5892     59211484            0     59212631    12.683319    22.410353     14.17905    19.734397    33.265661    8.6214625    12.612127     22.30075    14.235163 
  798400    47.619677     59212244            0     59212430    12.683308     22.41034    14.178868    19.733281    33.264342    8.6032885    12.612127     22.30075    14.235163 
  798600    398.14748     59210895            0     59212445    12.683304     22.41035    14.178969    19.732878    33.265351    8.6133616    12.612127     22.30075    14.235163 
  798800    109.45203     59211645            0     59212071    12.683318    22.410348    14.179002     19.73423    33.265169    8.6166117    12.612127     22.30075    14.235163 
  799000    183.87227     59210297            0     59211013    12.683316    22.410353    14.178883    19.734014    33.265684    8.6047497    12.612127     22.30075    14.235163 
  799200    294.36648     59211215            0     59212361    12.683316    22.410353    14.179093    19.734017     33.26567    8.6258126    12.612127     22.30075    14.235163 
  799400    254.21423     59211629            0     59212619     12.68332    22.410353    14.179066    19.734477    33.265672    8.6230847    12.612127     22.30075    14.235163 
  799600    313.59482     59211457            0     59212677    12.683316    22.410353    14.179068    19.734094    33.265692    8.6232996    12.612127     22.30075    14.235163 
  799800    218.80847     59211919            0     59212771    12.683311    22.410353    14.179028    19.733584    33.265704    8.6192636    12.612127     22.30075    14.235163 
  800000    184.99791     59212476            0     59213196    12.683315    22.410365    14.178651    19.733976    33.266897    8.5815247    12.612127     22.30075    14.235163 
  800200    239.54369     59212112            0     59213045    12.683301    22.410365    14.178871    19.732583    33.266891    8.6035619    12.612127     22.30075    14.235163 
  800400    190.19638     59210723            0     59211464    12.683316    22.410353    14.179078    19.734012    33.265681    8.6242895    12.612127     22.30075    14.235163 
  800600    121.21944     59211220            0     59211691    12.683292    22.410338    14.178981    19.731672    33.264111    8.6145713    12.612127     22.30075    14.235163 
  800800    227.04282     59211945            0     59212828    12.683322    22.410365    14.178666    19.734636    33.266865    8.5830248    12.612127     22.30075    14.235163 
  801000    142.42987     59211568            0     59212123    12.683315    22.410352    14.179021    19.733955    33.265593     8.618563    12.612127     22.30075    14.235163 
  801200    254.72962     59211580            0     59212571    12.683316    22.410353    14.179094    19.734062    33.265612    8.6258651    12.612127     22.30075    14.235163 
  801400     145.3284     59211324            0     59211890    12.683305    22.410373    14.179031    19.732991    33.267699    8.6196032    12.612127     22.30075    14.235163 
  801600    323.69844     59210641            0     59211902    12.683308    22.410354    14.179085    19.733237    33.265729     8.625002    12.612127     22.30075    14.235163 
  801800    185.18608     59211677            0     59212398    12.683311    22.410353    14.178967    19.733541    33.265707    8.6131812    12.612127     22.30075    14.235163 
  802000    202.38491     59210339            0     59211126    12.683353    22.410351    14.178978    19.737778     33.26544    8.6142282    12.612127     22.30075    14.235163 
  802200    218.74618     59211091            0     59211942    12.683342    22.410335    14.178914    19.736605     33.26386    8.6078938    12.612127     22.30075    14.235163 
  802400    201.23775     59211369            0     59212153    12.683304    22.410354    14.179018    19.732842    33.265744    8.6182936    12.612127     22.30075    14.235163 
  802600    213.37689     59211626            0     59212457    12.683321    22.410336    14.178962    19.734594    33.263952    8.6126415    12.612127     22.30075    14.235163 
  802800    174.71527     59211362            0     59212043    12.683352    22.410351    14.179084    19.737695    33.265479    8.6248848    12.612127     22.30075    14.235163 
  803000    83.752111     59212520            0     59212846    12.683329    22.410366    14.179043    19.735377    33.266949    8.6207495    12.612127     22.30075    14.235163 
  803200    324.08848     59211119            0     59212381    12.683321    22.410347    14.178838    19.734593    33.265081    8.6003023    12.612127     22.30075    14.235163 
  803400    204.87219     59210970            0     59211767    12.683314    22.410334    14.178865    19.733841    33.263743     8.602934    12.612127     22.30075    14.235163 
  803600     182.7183     59211638            0     59212350    12.683317    22.410353    14.179184    19.734146    33.265612    8.6348438    12.612127     22.30075    14.235163 
  803800    252.87769     59211903            0     59212887    12.683313    22.410361    14.178918    19.733764    33.266494    8.6082473    12.612127     22.30075    14.235163 
  804000    145.50827     59210588            0     59211154    12.683321    22.410342    14.179092    19.734579    33.264561    8.6257059    12.612127     22.30075    14.235163 
  804200    175.68046     59210685            0     59211369    12.683379    22.410349    14.178888    19.740378    33.265216    8.6052671    12.612127     22.30075    14.235163 
  804400    315.07929     59211174            0     59212400    12.683319    22.410353    14.179161    19.734343    33.265657    8.6326016    12.612127     22.30075    14.235163 
  804600    406.31286     59211140            0     59212721    12.683326    22.410368    14.178881    19.734998    33.267135    8.6045137    12.612127     22.30075    14.235163 
  804800    124.27977     59210661            0     59211145    12.683279    22.410314    14.179031    19.730318    33.261794    8.6195481    12.612127     22.30075    14.235163 
  805000    81.951395     59211686            0     59212005    12.683288    22.410355    14.178788    19.731282    33.265832    8.5952901    12.612127     22.30075    14.235163 
  805200    404.40071     59210647            0     59212221    12.683339    22.410352    14.178785    19.736355    33.265529    8.5949446    12.612127     22.30075    14.235163 
  805400    212.44593     59211428            0     59212255      12.6833    22.410357    14.178889    19.732408    33.266097    8.6053888    12.612127     22.30075    14.235163 
  805600    236.67775     59211176            0     59212097    12.683317    22.410353    14.179146    19.734129    33.265676    8.6311017    12.612127     22.30075    14.235163 
  805800    183.58722     59210517            0     59211232    12.683321    22.410298    14.179047    19.734528    33.260194    8.6212105    12.612127     22.30075    14.235163 
  806000    102.76298     59211517            0     59211917    12.683288    22.410351     14.17895    19.731229    33.265486    8.6114827    12.612127     22.30075    14.235163 
  806200    140.13677     59211254            0     59211800    12.683314    22.410356    14.179249    19.733875    33.265952    8.6413866    12.612127     22.30075    14.235163 
  806400    306.72634     59211544            0     59212738    12.683332    22.410351    14.179022    19.735647    33.265454     8.618701    12.612127     22.30075    14.235163 
  806600    164.39015     59211143            0     59211783    12.683313    22.410339    14.178913    19.733738     33.26428    8.6077183    12.612127     22.30075    14.235163 
  806800    223.79688     59210505            0     59211376    12.683281    22.410346    14.178925    19.730562    33.264951    8.6089459    12.612127     22.30075    14.235163 
  807000    151.50841     59211333            0     59211923    12.683339    22.410363    14.178836    19.736353    33.266667    8.6000691    12.612127     22.30075    14.235163 
  807200    313.54293     59211419            0     59212640    12.683302    22.410354    14.179041    19.732681    33.265757    8.6205353    12.612127     22.30075    14.235163 
  807400    272.11238     59211300            0     59212359    12.683303    22.410361    14.179133    19.732762    33.266464    8.6297378    12.612127     22.30075    14.235163 
  807600    379.69879     59211384            0     59212862    12.683335    22.410343    14.179039    19.735906    33.264672      8.62039    12.612127     22.30075    14.235163 
  807800    104.85897     59211938            0     59212346    12.683333    22.410382    14.178822    19.735791    33.268538    8.5986266    12.612127     22.30075    14.235163 
  808000    138.22111     59211323            0     59211861    12.683302    22.410333    14.178999    19.732669    33.263631    8.6163882    12.612127     22.30075    14.235163 
  808200    202.52884     59210995            0     59211784    12.683316    22.410353    14.178928    19.734018    33.265681    8.6092135    12.612127     22.30075    14.235163 
  808400    243.34057     59211747            0     59212694    12.683299    22.410354    14.179057    19.732375    33.265784    8.6221446    12.612127     22.30075    14.235163 
  808600    210.33232     59211580            0     59212399    12.683299    22.410354    14.179034    19.732315    33.265774    8.6199096    12.612127     22.30075    14.235163 
  808800    226.92592     59211117            0     59212000    12.683292    22.410362    14.179034    19.731607    33.266515    8.6198408    12.612127     22.30075    14.235163 
  809000    144.73071     59211775            0     59212339    12.683322    22.410359    14.179083    19.734624     33.26628    8.6247376    12.612127     22.30075    14.235163 
  809200    277.70313     59211158            0     59212239    12.683309    22.410352    14.178968    19.733302    33.265522    8.6132166    12.612127     22.30075    14.235163 
  809400    105.97042     59210642            0     59211054    12.683306     22.41035    14.178827    19.733008    33.265336    8.5991893    12.612127     22.30075    14.235163 
  809600    132.32835     59210914            0     59211430    12.683291     22.41034    14.178963    19.731575    33.264309    8.6128004    12.612127     22.30075    14.235163 
  809800    305.83364     59211176            0     59212366    12.683313    22.410354    14.179004    19.733714    33.265748    8.6169084    12.612127     22.30075    14.235163 
  810000    211.63098     59210804            0     59211628    12.683329     22.41035    14.179012    19.735332    33.265332    8.6176177    12.612127     22.30075    14.235163 
  810200    358.30325     59211504            0     59212899    12.683332    22.410351    14.179084    19.735691      33.2655    8.6248858    12.612127     22.30075    14.235163 
  810400    152.89166     59211796            0     59212391    12.683325     22.41032    14.178881    19.734958    33.262403    8.6045973    12.612127     22.30075    14.235163 
  810600    242.37116     59211134            0     59212078    12.683339    22.410359    14.178989    19.736328    33.266216    8.6153642    12.612127     22.30075    14.235163 
  810800    188.18022     59210806            0     59211538    12.683338    22.410331    14.178908     19.73623     33.26346    8.6072695    12.612127     22.30075    14.235163 
  811000    198.79999     59212803            0     59213577    12.683328    22.410353    14.178696    19.735266     33.26563     8.586078    12.612127     22.30075    14.235163 
  811200     315.2897     59211569            0     59212796    12.683316    22.410353    14.179244    19.734012    33.265682    8.6408209    12.612127     22.30075    14.235163 
  811400    237.93102     59210279            0     59211206    12.683319    22.410347    14.179005    19.734325    33.265064    8.6170101    12.612127     22.30075    14.235163 
  811600    217.70481     59210196            0     59211044    12.683321    22.410372    14.178865     19.73453    33.267509    8.6029199    12.612127     22.30075    14.235163 
  811800     135.9467     59211169            0     59211698    12.683308    22.410368    14.178937    19.733243    33.267165    8.6101545    12.612127     22.30075    14.235163 
  812000    198.76416     59210503            0     59211277    12.683305    22.410354    14.178928    19.732953     33.26574     8.609236    12.612127     22.30075    14.235163 
  812200    236.08526     59210705            0     59211624    12.683287    22.410333    14.179035     19.73111    33.263671    8.6200103    12.612127     22.30075    14.235163 
  812400    283.82702     59210600            0     59211705    12.683332    22.410348    14.178963     19.73562    33.265118    8.6127098    12.612127     22.30075    14.235163 
  812600    287.53803     59210655            0     59211775    12.683313    22.410357    14.179062     19.73379    33.266089    8.6226665    12.612127     22.30075    14.235163 
  812800    266.77364     59210675            0     59211714    12.683321    22.410343    14.179092     19.73454    33.264698    8.6256546    12.612127     22.30075    14.235163 
  813000    229.86941     59211234            0     59212128    12.683303    22.410355    14.179115    19.732762    33.265811    8.6279521    12.612127     22.30075    14.235163 
  813200    286.98644     59211143            0     59212260    12.683321    22.410355    14.179112    19.734506    33.265864    8.6276847    12.612127     22.30075    14.235163 
  813400    233.85552     59211209            0     59212119    12.683316    22.410353    14.178902    19.734011    33.265679     8.606627    12.612127     22.30075    14.235163 
  813600    205.16401     59211798            0     59212597    12.683316    22.410353    14.178867    19.734038    33.265691    8.6031344    12.612127     22.30075    14.235163 
  813800    160.81543     59211850            0     59212476    12.683318    22.410343    14.178897    19.734217     33.26466    8.6061868    12.612127     22.30075    14.235163 
  814000      300.551     59210556            0     59211726    12.683282    22.410423    14.179007    19.730601    33.272617    8.6171919    12.612127     22.30075    14.235163 
  814200    178.48781     59211731            0     59212425    12.683325    22.410369    14.179128    19.734995    33.267213     8.629226    12.612127     22.30075    14.235163 
  814400    142.56119     59211149            0     59211704    12.683316    22.410354    14.178909    19.734044    33.265728    8.6073222    12.612127     22.30075    14.235163 
  814600    243.64205     59211729            0     59212677      12.6833    22.410354    14.178975    19.732496    33.265767     8.614004    12.612127     22.30075    14.235163 
  814800    119.84208     59211694            0     59212161    12.683333    22.410354    14.178921    19.735721     33.26571    8.6085591    12.612127     22.30075    14.235163 
  815000    71.902372     59211860            0     59212140     12.68332    22.410346    14.178999    19.734405    33.264909    8.6163621    12.612127     22.30075    14.235163 
  815200     147.8946     59210893            0     59211469    12.683316    22.410353    14.179107    19.734013    33.265681    8.6271592    12.612127     22.30075    14.235163 
  815400    202.82234     59213076            0     59213865    12.683308    22.410354    14.179047    19.733294    33.265769    8.6211547    12.612127     22.30075    14.235163 
  815600     216.7185     59210795            0     59211639    12.683339     22.41036    14.178818    19.736381    33.266382    8.5982903    12.612127     22.30075    14.235163 
  815800    127.53811     59211367            0     59211863    12.683308    22.410354    14.179028    19.733216    33.265726    8.6192267    12.612127     22.30075    14.235163 
  816000    177.83246     59210975            0     59211668     12.68332    22.410357    14.178962    19.734413    33.266023    8.6126782    12.612127     22.30075    14.235163 
  816200    143.17861     59212393            0     59212950    12.683331    22.410324     14.17913    19.735502    33.262788    8.6294857    12.612127     22.30075    14.235163 
  816400    148.99209     59212298            0     59212878    12.683341    22.410322    14.179105    19.736521    33.262547    8.6270079    12.612127     22.30075    14.235163 
  816600    226.73592     59211647            0     59212530    12.683293    22.410354    14.178719    19.731735    33.265808    8.5883713    12.612127     22.30075    14.235163 
  816800    202.54169     59211278            0     59212067    12.683307     22.41034    14.178796    19.733127    33.264328    8.5960984    12.612127     22.30075    14.235163 
  817000      260.506     59210748            0     59211762    12.683316    22.410352    14.179081    19.734054    33.265585    8.6245802    12.612127     22.30075    14.235163 
  817200     239.2741     59211811            0     59212743    12.683332    22.410338    14.179205    19.735603    33.264184     8.636997    12.612127     22.30075    14.235163 
  817400    151.94996     59210885            0     59211477    12.683329    22.410342    14.179006    19.735326    33.264603    8.6171045    12.612127     22.30075    14.235163 
  817600    212.09622     59210700            0     59211525    12.683327    22.410335    14.178948    19.735171    33.263884    8.6112506    12.612127     22.30075    14.235163 
  817800    446.58027     59210211            0     59211949    12.683316    22.410353    14.179094    19.734017    33.265681    8.6258687    12.612127     22.30075    14.235163 
  818000    152.02895     59211600            0     59212192    12.683316     22.41035    14.178853    19.734002    33.265403    8.6017133    12.612127     22.30075    14.235163 
  818200    128.57044     59211447            0     59211947    12.683302    22.410354     14.17892    19.732621    33.265744    8.6084593    12.612127     22.30075    14.235163 
  818400    255.17813     59210706            0     59211699      12.6833    22.410354    14.179097    19.732398    33.265734    8.6261762    12.612127     22.30075    14.235163 
  818600    148.54521     59211519            0     59212097    12.683319    22.410347    14.179103    19.734315    33.265067    8.6267699    12.612127     22.30075    14.235163 
  818800    120.47069     59211673            0     59212142    12.683338    22.410335    14.179083     19.73621    33.263905    8.6247976    12.612127     22.30075    14.235163 
  819000    147.95116     59212189            0     59212765    12.683333    22.410319    14.179118    19.735762    33.262228    8.6282466    12.612127     22.30075    14.235163 
  819200    159.76701     59210928            0     59211549     12.68337     22.41035    14.179027    19.739435    33.265382    8.6192078    12.612127     22.30075    14.235163 
  819400    137.89937     59212494            0     59213031    12.683343    22.410359    14.178766    19.736761    33.266286    8.5930622    12.612127     22.30075    14.235163 
  819600    155.44486     59211743            0     59212348    12.683331    22.410394    14.179163    19.735552     33.26974    8.6327282    12.612127     22.30075    14.235163 
  819800    114.80392     59210727            0     59211174    12.683314    22.410353    14.178976    19.733857    33.265692    8.6140239    12.612127     22.30075    14.235163 
  820000    137.54956     59210660            0     59211196    12.683318    22.410354    14.178961    19.734198    33.265755    8.6125579    12.612127     22.30075    14.235163 
  820200    166.68442     59210865            0     59211514    12.683316    22.410353    14.178918    19.734013    33.265683    8.6082645    12.612127     22.30075    14.235163 
  820400    332.11965     59210937            0     59212230    12.683316    22.410354    14.179063    19.734034    33.265717    8.6227991    12.612127     22.30075    14.235163 
  820600    173.20201     59211598            0     59212272     12.68334    22.410362     14.17903    19.736474    33.266549    8.6195041    12.612127     22.30075    14.235163 
  820800    107.66783     59211727            0     59212146    12.683285    22.410358       14.179     19.73092    33.266113    8.6164894    12.612127     22.30075    14.235163 
  821000    134.31057     59210914            0     59211437    12.683327     22.41037    14.179166    19.735161    33.267362    8.6330512    12.612127     22.30075    14.235163 
  821200    345.29169     59211478            0     59212823     12.68333    22.410353    14.178897    19.735408    33.265638    8.6061191    12.612127     22.30075    14.235163 
  821400    111.83257     59211273            0     59211708    12.683328    22.410371    14.179068    19.735273    33.267467    8.6232847    12.612127     22.30075    14.235163 
  821600    186.34651     59210973            0     59211698    12.683326    22.410333    14.178889     19.73504    33.263652    8.6053841    12.612127     22.30075    14.235163 
  821800     178.0765     59211697            0     59212390    12.683304    22.410319    14.179033     19.73281    33.262265     8.619804    12.612127     22.30075    14.235163 
  822000    213.68313     59211919            0     59212751    12.683322    22.410352    14.179133    19.734675    33.265576    8.6297867    12.612127     22.30075    14.235163 
  822200    295.76632     59210489            0     59211641    12.683312    22.410373     14.17901    19.733679    33.267677    8.6175066    12.612127     22.30075    14.235163 
  822400    131.93447     59211051            0     59211564    12.683294    22.410334    14.179066    19.731882    33.263743    8.6230177    12.612127     22.30075    14.235163 
  822600    268.15632     59211223            0     59212267    12.683323    22.410342    14.179254    19.734734    33.264517    8.6418386    12.612127     22.30075    14.235163 
  822800    424.47538     59211245            0     59212897    12.683316    22.410353    14.179111    19.734012    33.265682    8.6275888    12.612127     22.30075    14.235163 
  823000    212.17676     59210427            0     59211253    12.683316    22.410353    14.178935    19.734013    33.265681    8.6099859    12.612127     22.30075    14.235163 
  823200    169.42131     59211805            0     59212464    12.683317    22.410371    14.178936    19.734115    33.267464    8.6100391    12.612127     22.30075    14.235163 
  823400    203.24229     59211416            0     59212208    12.683327    22.410353     14.17898    19.735164    33.265619     8.614482    12.612127     22.30075    14.235163 
  823600    241.67817     59211551            0     59212492    12.683326    22.410355    14.179249    19.735088    33.265831    8.6413446    12.612127     22.30075    14.235163 
  823800    175.97553     59210764            0     59211449    12.683338    22.410344    14.178993    19.736238    33.264769    8.6157922    12.612127     22.30075    14.235163 
  824000     226.3922     59211908            0     59212789    12.683286    22.410353    14.179009    19.731053    33.265652    8.6173658    12.612127     22.30075    14.235163 
  824200    154.98017     59211354            0     59211957    12.683346    22.410314    14.178887    19.737025    33.261772    8.6051987    12.612127     22.30075    14.235163 
  824400    197.04215     59212008            0     59212775    12.683316    22.410342    14.178752    19.734062    33.264555    8.5916339    12.612127     22.30075    14.235163 
  824600    194.06598     59211482            0     59212237    12.683322    22.410357    14.179018     19.73461     33.26608    8.6182516    12.612127     22.30075    14.235163 
  824800    143.47954     59211488            0     59212046    12.683281    22.410328    14.178999     19.73052    33.263141    8.6164035    12.612127     22.30075    14.235163 
  825000    202.67769     59212376            0     59213165    12.683313     22.41035    14.178703    19.733776    33.265321    8.5867002    12.612127     22.30075    14.235163 
  825200    264.50109     59211947            0     59212976    12.683318    22.410334    14.179192    19.734279    33.263713    8.6357108    12.612127     22.30075    14.235163 
  825400    153.96862     59211901            0     59212501    12.683307    22.410371    14.179015    19.733104    33.267463    8.6180046    12.612127     22.30075    14.235163 
  825600    201.21321     59212827            0     59213610    12.683313    22.410347    14.179428     19.73372    33.265064    8.6593237    12.612127     22.30075    14.235163 
  825800     212.7262     59212714            0     59213542    12.683313    22.410353    14.178983    19.733736    33.265694    8.6147874    12.612127     22.30075    14.235163 
  826000    162.23186     59210318            0     59210949    12.683314    22.410356     14.17889    19.733853    33.265998    8.6054874    12.612127     22.30075    14.235163 
  826200     229.6395     59212011            0     59212905    12.683351    22.410351    14.178972    19.737508    33.265478    8.6136326    12.612127     22.30075    14.235163 
  826400    208.76864     59212421            0     59213234    12.683305    22.410354    14.178803    19.732962    33.265752    8.5967867    12.612127     22.30075    14.235163 
  826600    162.22581     59211384            0     59212016    12.683316    22.410353    14.178943    19.734013    33.265682    8.6107825    12.612127     22.30075    14.235163 
  826800    206.43524     59211485            0     59212289    12.683337    22.410366    14.178883    19.736098    33.266957     8.604766    12.612127     22.30075    14.235163 
  827000    72.976224     59211661            0     59211945    12.683254    22.410374    14.178975    19.727799    33.267786    8.6139329    12.612127     22.30075    14.235163 
  827200    318.66644     59210710            0     59211951    12.683316    22.410353    14.178949    19.734013    33.265682    8.6113612    12.612127     22.30075    14.235163 
  827400     290.5948     59211098            0     59212229    12.683315    22.410355    14.178873    19.733927    33.265852    8.6037414    12.612127     22.30075    14.235163 
  827600    236.71053     59210468            0     59211389     12.68329    22.410355    14.179045    19.731468    33.265823    8.6209643    12.612127     22.30075    14.235163 
  827800    184.83567     59210754            0     59211474    12.683334    22.410343    14.179138    19.735821    33.264673    8.6302552    12.612127     22.30075    14.235163 
  828000    151.27154     59211403            0     59211992    12.683315    22.410354    14.178864    19.733988    33.265726    8.6028557    12.612127     22.30075    14.235163 
  828200    204.15619     59211886            0     59212681    12.683307    22.410332    14.179084    19.733125     33.26351    8.6248374    12.612127     22.30075    14.235163 
  828400    137.52904     59211624            0     59212160    12.683353    22.410331    14.179044    19.737782    33.263447    8.6208925    12.612127     22.30075    14.235163 
  828600    106.33087     59210997            0     59211411    12.683328    22.410351    14.179187     19.73523    33.265472     8.635187    12.612127     22.30075    14.235163 
  828800    306.78504     59211223            0     59212417    12.683321    22.410352    14.178994    19.734542    33.265604    8.6158146    12.612127     22.30075    14.235163 
  829000    235.63934     59210894            0     59211811    12.683307    22.410354    14.178729    19.733124    33.265723    8.5893337    12.612127     22.30075    14.235163 
  829200    285.97321     59211584            0     59212697    12.683316    22.410353    14.179057    19.734018    33.265653    8.6221484    12.612127     22.30075    14.235163 
  829400    192.95075     59210980            0     59211731    12.683315    22.410352    14.179148    19.733917    33.265517    8.6312884    12.612127     22.30075    14.235163 
  829600    139.44593     59211197            0     59211740    12.683309    22.410344    14.179116    19.733386    33.264726    8.6280549    12.612127     22.30075    14.235163 
  829800    223.10957     59211178            0     59212046    12.683292    22.410354    14.179148    19.731624    33.265803    8.6312214    12.612127     22.30075    14.235163 
  830000     155.5544     59211449            0     59212055    12.683304    22.410324    14.179016    19.732878     33.26273    8.6181009    12.612127     22.30075    14.235163 
  830200    209.71303     59210700            0     59211517    12.683305    22.410343    14.179062    19.732991    33.264641    8.6226552    12.612127     22.30075    14.235163 
  830400    205.50518     59211280            0     59212080    12.683351    22.410347    14.178911    19.737509    33.265047     8.607582    12.612127     22.30075    14.235163 
  830600    207.02031     59211734            0     59212540    12.683343    22.410371    14.178976    19.736719    33.267425     8.614051    12.612127     22.30075    14.235163 
  830800    265.29936     59211151            0     59212183    12.683329    22.410361    14.178949    19.735393    33.266507    8.6114039    12.612127     22.30075    14.235163 
  831000    296.95438     59210793            0     59211949    12.683316    22.410353    14.179035    19.734014    33.265681    8.6199822    12.612127     22.30075    14.235163 
  831200    170.04305     59211382            0     59212044    12.683319    22.410358    14.178884    19.734313    33.266138    8.6049017    12.612127     22.30075    14.235163 
  831400    132.35336     59212470            0     59212985    12.683314    22.410366    14.178797    19.733867    33.266945    8.5961971    12.612127     22.30075    14.235163 
  831600     287.6859     59211300            0     59212420    12.683339    22.410366    14.178927     19.73631    33.266968    8.6091625    12.612127     22.30075    14.235163 
  831800     187.6596     59211340            0     59212071    12.683327    22.410371    14.179012    19.735114    33.267499     8.617689    12.612127     22.30075    14.235163 
  832000    146.45013     59210898            0     59211468    12.683312    22.410348    14.178933    19.733665    33.265124    8.6097366    12.612127     22.30075    14.235163 
  832200    120.69867     59211771            0     59212241    12.683316    22.410352    14.179132    19.734084    33.265574    8.6296795    12.612127     22.30075    14.235163 
  832400    176.52272     59211430            0     59212117    12.683309    22.410359    14.179071    19.733359    33.266294    8.6235412    12.612127     22.30075    14.235163 
  832600    347.52653     59211550            0     59212903    12.683315    22.410354    14.178841    19.733955    33.265793     8.600529    12.612127     22.30075    14.235163 
  832800    346.92789     59212057            0     59213408    12.683308    22.410331    14.178725    19.733237    33.263481    8.5889733    12.612127     22.30075    14.235163 
  833000    99.272416     59211468            0     59211854    12.683324    22.410359    14.178974    19.734831    33.266219    8.6138189    12.612127     22.30075    14.235163 
  833200    207.15686     59210854            0     59211661    12.683328    22.410307    14.178907    19.735255    33.261082    8.6071149    12.612127     22.30075    14.235163 
  833400     228.9205     59210656            0     59211547    12.683325    22.410347    14.179003    19.734971    33.265009    8.6168071    12.612127     22.30075    14.235163 
  833600    141.55452     59211352            0     59211903    12.683317    22.410356    14.178903    19.734177    33.265967    8.6067812    12.612127     22.30075    14.235163 
  833800    93.953469     59211782            0     59212147    12.683304    22.410377    14.178871    19.732803    33.268071    8.6035654    12.612127     22.30075    14.235163 
  834000    325.22903     59211138            0     59212404    12.683347    22.410352    14.178935    19.737147    33.265511     8.610001    12.612127     22.30075    14.235163 
  834200    142.98487     59212002            0     59212559    12.683331    22.410352     14.17909    19.735511    33.265599    8.6254301    12.612127     22.30075    14.235163 
  834400    173.57564     59211261            0     59211937    12.683325    22.410369    14.178972    19.734909     33.26724    8.6136398    12.612127     22.30075    14.235163 
  834600    178.65824     59212054            0     59212749     12.68334    22.410394    14.178943     19.73648     33.26978    8.6107982    12.612127     22.30075    14.235163 
  834800      223.925     59211536            0     59212407    12.683276    22.410381    14.178886    19.730026    33.268424    8.6050217    12.612127     22.30075    14.235163 
  835000    326.91375     59211027            0     59212299    12.683299     22.41034    14.179073    19.732374    33.264378    8.6237956    12.612127     22.30075    14.235163 
  835200    157.56017     59211844            0     59212457    12.683307    22.410355    14.178931     19.73314    33.265884    8.6095459    12.612127     22.30075    14.235163 
  835400    195.15411     59211380            0     59212139    12.683316    22.410353    14.178968    19.734013    33.265682    8.6132344    12.612127     22.30075    14.235163 
  835600    201.77621     59210951            0     59211736    12.683297    22.410335    14.179169    19.732181    33.263906    8.6333423    12.612127     22.30075    14.235163 
  835800    363.70966     59211084            0     59212500    12.683308    22.410341    14.178899    19.733222    33.264494    8.6063588    12.612127     22.30075    14.235163 
  836000    147.30771     59210560            0     59211133    12.683318    22.410364    14.179045    19.734289    33.266741    8.6209298    12.612127     22.30075    14.235163 
  836200    411.46391     59211737            0     59213339    12.683305    22.410346    14.179298    19.732993    33.264949    8.6462627    12.612127     22.30075    14.235163 
  836400    252.14875     59211600            0     59212582    12.683285    22.410355    14.178779     19.73097     33.26585    8.5943486    12.612127     22.30075    14.235163 
  836600    231.27313     59210618            0     59211519    12.683329    22.410373    14.178976    19.735308    33.267701      8.61406    12.612127     22.30075    14.235163 
  836800    271.25206     59211626            0     59212682    12.683313    22.410353    14.178953    19.733725    33.265701    8.6117271    12.612127     22.30075    14.235163 
  837000    110.78368     59211188            0     59211619    12.683316    22.410353    14.179115    19.734016    33.265681    8.6280016    12.612127     22.30075    14.235163 
  837200    186.55243     59211831            0     59212557     12.68332    22.410345    14.179056    19.734469    33.264808    8.6220332    12.612127     22.30075    14.235163 
  837400    184.77837     59211320            0     59212039    12.683312    22.410359    14.178848    19.733677    33.266304    8.6012369    12.612127     22.30075    14.235163 
  837600    193.06209     59211830            0     59212581    12.683297    22.410354    14.178735     19.73216    33.265784    8.5899498    12.612127     22.30075    14.235163 
  837800    362.18445     59211545            0     59212955    12.683317    22.410355    14.179097    19.734108    33.265827    8.6261606    12.612127     22.30075    14.235163 
  838000    104.12097     59211668            0     59212073    12.683306    22.410353    14.179014    19.733037    33.265682     8.617819    12.612127     22.30075    14.235163 
  838200    173.90462     59211545            0     59212222    12.683316    22.410353     14.17892    19.734029    33.265658    8.6084349    12.612127     22.30075    14.235163 
  838400     127.5527     59211094            0     59211590    12.683304    22.410353    14.178978    19.732816    33.265615    8.6142284    12.612127     22.30075    14.235163 
  838600    188.17574     59212825            0     59213557    12.683322    22.410353    14.179232    19.734675    33.265645    8.6396444    12.612127     22.30075    14.235163 
  838800    133.09641     59211248            0     59211766    12.683322    22.410353     14.17903    19.734683    33.265644    8.6194603    12.612127     22.30075    14.235163 
  839000    179.56043     59211712            0     59212411    12.683322    22.410369    14.178962    19.734655     33.26722    8.6126972    12.612127     22.30075    14.235163 
  839200    99.809124     59210921            0     59211310    12.683315    22.410353    14.179084    19.733934    33.265685    8.6248997    12.612127     22.30075    14.235163 
  839400    203.35191     59211544            0     59212335    12.683351    22.410334    14.178944    19.737503    33.263754    8.6108316    12.612127     22.30075    14.235163 
  839600    239.84796     59210943            0     59211876    12.683319    22.410353    14.178933    19.734357    33.265704    8.6097268    12.612127     22.30075    14.235163 
  839800    146.54845     59211319            0     59211889    12.683281    22.410354    14.178775    19.730535    33.265737    8.5939198    12.612127     22.30075    14.235163 
  840000    265.52806     59211800            0     59212833    12.683314    22.410363    14.179082      19.7338     33.26662    8.6246159    12.612127     22.30075    14.235163 
  840200    291.32947     59211378            0     59212512    12.683316    22.410353    14.178707    19.734022    33.265664    8.5871535    12.612127     22.30075    14.235163 
  840400    216.11117     59210901            0     59211742    12.683321    22.410361    14.179059    19.734548    33.266506    8.6223638    12.612127     22.30075    14.235163 
  840600    247.51266     59211044            0     59212008    12.683316    22.410353    14.178871    19.734042    33.265667    8.6035609    12.612127     22.30075    14.235163 
  840800    96.569202     59211832            0     59212208    12.683342    22.410394    14.178968    19.736625    33.269732    8.6133017    12.612127     22.30075    14.235163 
  841000    351.13968     59211269            0     59212636    12.683277    22.410334    14.178956    19.730121    33.263744    8.6120579    12.612127     22.30075    14.235163 
  841200    363.82683     59211289            0     59212705    12.683328    22.410328    14.179055    19.735251    33.263205    8.6219445    12.612127     22.30075    14.235163 
  841400    155.34537     59211051            0     59211656    12.683326    22.410364    14.178987    19.735064    33.266725     8.615158    12.612127     22.30075    14.235163 
  841600    92.775421     59211721            0     59212082    12.683262    22.410343    14.178931    19.728639    33.264622    8.6095526    12.612127     22.30075    14.235163 
  841800    209.06258     59211836            0     59212650    12.683315    22.410367    14.179075    19.733927    33.267039    8.6239389    12.612127     22.30075    14.235163 
  842000    203.49597     59211250            0     59212042    12.683314    22.410353    14.178995    19.733878    33.265706    8.6159365    12.612127     22.30075    14.235163 
  842200    191.58104     59211361            0     59212107    12.683328    22.410328    14.179174    19.735262    33.263178    8.6338285    12.612127     22.30075    14.235163 
  842400    241.44411     59210535            0     59211475    12.683307    22.410348    14.178824    19.733131    33.265156    8.5988425    12.612127     22.30075    14.235163 
  842600     184.8034     59212069            0     59212789    12.683306    22.410355    14.178881    19.733049     33.26585    8.6045125    12.612127     22.30075    14.235163 
  842800    92.992424     59210955            0     59211317    12.683315    22.410354    14.178915    19.733984    33.265738    8.6079866    12.612127     22.30075    14.235163 
  843000    246.06861     59210870            0     59211828     12.68332    22.410339     14.17905    19.734438    33.264307    8.6214415    12.612127     22.30075    14.235163 
  843200    201.04229     59211861            0     59212643    12.683316    22.410353    14.178934    19.734023    33.265681    8.6099058    12.612127     22.30075    14.235163 
  843400    259.40019     59211099            0     59212109    12.683304    22.410354    14.179024    19.732814    33.265769    8.6188591    12.612127     22.30075    14.235163 
  843600     250.7847     59210372            0     59211348     12.68334    22.410352    14.179075     19.73645    33.265524    8.6239749    12.612127     22.30075    14.235163 
  843800    156.35953     59211079            0     59211688    12.683338    22.410336    14.179146    19.736275    33.263976    8.6310297    12.612127     22.30075    14.235163 
  844000    214.52852     59210760            0     59211595    12.683307    22.410346    14.178985    19.733187    33.264959    8.6149814    12.612127     22.30075    14.235163 
  844200    375.63058     59211035            0     59212498    12.683316    22.410353    14.178846    19.734005     33.26568    8.6010977    12.612127     22.30075    14.235163 
  844400    307.84693     59210630            0     59211828    12.683337    22.410361    14.179067    19.736152     33.26644     8.623151    12.612127     22.30075    14.235163 
  844600    469.48577     59211166            0     59212994    12.683319    22.410324    14.179085    19.734362    33.262801    8.6249296    12.612127     22.30075    14.235163 
  844800    157.73591     59211958            0     59212572    12.683316    22.410353    14.178928    19.734015    33.265682    8.6092082    12.612127     22.30075    14.235163 
  845000    78.442319     59211322            0     59211628    12.683275    22.410366    14.179007    19.729961    33.266986    8.6171548    12.612127     22.30075    14.235163 
  845200    237.88099     59211371            0     59212297    12.683324    22.410367    14.178872    19.734894    33.267022    8.6036542    12.612127     22.30075    14.235163 
  845400    113.46364     59211385            0     59211827    12.683336     22.41036    14.178895    19.736068    33.266389    8.6059617    12.612127     22.30075    14.235163 
  845600    260.75335     59211137            0     59212153    12.683292    22.410361    14.179014    19.731647    33.266506    8.6178646    12.612127     22.30075    14.235163 
  845800    263.06086     59212207            0     59213231    12.683304    22.410362    14.179155    19.732797    33.266543     8.631948    12.612127     22.30075    14.235163 
  846000    310.75698     59211841            0     59213050     12.68333    22.410341    14.178936    19.735418    33.264505    8.6101063    12.612127     22.30075    14.235163 
  846200    255.43014     59211158            0     59212152    12.683316    22.410353    14.178906    19.734009    33.265687    8.6070424    12.612127     22.30075    14.235163 
  846400    191.18832     59211612            0     59212357    12.683359    22.410321    14.178919     19.73839    33.262492    8.6083172    12.612127     22.30075    14.235163 
  846600    213.64486     59210878            0     59211710    12.683316    22.410353    14.178878    19.734012    33.265682    8.6042723    12.612127     22.30075    14.235163 
  846800    197.82776     59211018            0     59211788     12.68333    22.410325    14.179174    19.735416    33.262877    8.6338711    12.612127     22.30075    14.235163 
  847000    212.04769     59212585            0     59213411    12.683323    22.410343    14.179034    19.734732     33.26465    8.6199035    12.612127     22.30075    14.235163 
  847200    226.65012     59211752            0     59212635    12.683315    22.410354    14.179164      19.7339    33.265776    8.6328576    12.612127     22.30075    14.235163 
  847400    241.96378     59211335            0     59212277    12.683279    22.410367    14.179012    19.730324    33.267051    8.6176175    12.612127     22.30075    14.235163 
  847600    219.34243     59211414            0     59212268    12.683324    22.410331    14.179125    19.734806    33.263426    8.6289271    12.612127     22.30075    14.235163 
  847800    166.40084     59210933            0     59211581    12.683316    22.410416    14.178823     19.73407    33.271972    8.5987191    12.612127     22.30075    14.235163 
  848000    283.96829     59211488            0     59212593    12.683312    22.410348    14.178988     19.73361    33.265197    8.6152792    12.612127     22.30075    14.235163 
  848200    147.25108     59212143            0     59212716    12.683328    22.410336    14.178697    19.735277    33.263913    8.5861472    12.612127     22.30075    14.235163 
  848400    60.565589     59211369            0     59211605    12.683313    22.410354     14.17892    19.733795    33.265726    8.6084797    12.612127     22.30075    14.235163 
  848600    125.59584     59211068            0     59211557    12.683316    22.410353    14.178932    19.734002    33.265668    8.6096663    12.612127     22.30075    14.235163 
  848800    125.63924     59210484            0     59210973    12.683325    22.410344    14.179042    19.734924    33.264731    8.6206168    12.612127     22.30075    14.235163 
  849000    182.56665     59211037            0     59211748    12.683299    22.410349    14.179034     19.73234    33.265297    8.6198214    12.612127     22.30075    14.235163 
  849200    295.05584     59211709            0     59212857    12.683348    22.410351     14.17893    19.737275    33.265501     8.609409    12.612127     22.30075    14.235163 
  849400    198.90577     59210411            0     59211185    12.683291    22.410355    14.179016      19.7315     33.26582    8.6180471    12.612127     22.30075    14.235163 
  849600    156.46568     59211067            0     59211676    12.683323    22.410338    14.178914    19.734789    33.264172     8.607864    12.612127     22.30075    14.235163 
  849800    127.24953     59211473            0     59211969    12.683311    22.410353    14.178979    19.733538    33.265707    8.6143832    12.612127     22.30075    14.235163 
  850000     102.9486     59210487            0     59210888    12.683316    22.410353    14.179005    19.734011    33.265682    8.6169557    12.612127     22.30075    14.235163 
  850200    229.87037     59210915            0     59211810    12.683318    22.410391    14.178998    19.734275    33.269428    8.6162188    12.612127     22.30075    14.235163 
  850400    185.44034     59211407            0     59212129    12.683316    22.410353    14.178936    19.734012    33.265682    8.6100417    12.612127     22.30075    14.235163 
  850600    171.35439     59211433            0     59212100    12.683326    22.410361    14.178955    19.735087    33.266503      8.61194    12.612127     22.30075    14.235163 
  850800    137.33794     59211063            0     59211598    12.683318    22.410361    14.178994     19.73425     33.26645     8.615891    12.612127     22.30075    14.235163 
  851000    224.71562     59210288            0     59211163    12.683355    22.410363    14.178891    19.737966    33.266669    8.6055229    12.612127     22.30075    14.235163 
  851200    128.56314     59211446            0     59211947    12.683329    22.410364    14.178846    19.735333     33.26673    8.6011032    12.612127     22.30075    14.235163 
  851400     227.3178     59211058            0     59211943    12.683315    22.410354    14.179212    19.733992    33.265774    8.6376325    12.612127     22.30075    14.235163 
  851600    227.72291     59212662            0     59213549    12.683315    22.410351    14.178535    19.733927    33.265423    8.5699026    12.612127     22.30075    14.235163 
  851800    134.19785     59210468            0     59210991    12.683273    22.410356    14.179146    19.729741    33.265912    8.6310937    12.612127     22.30075    14.235163 
  852000    199.93908     59211807            0     59212585    12.683316    22.410353    14.178751    19.734013    33.265682    8.5915398    12.612127     22.30075    14.235163 
  852200    279.59037     59211446            0     59212534    12.683316    22.410353    14.179175    19.734011     33.26568    8.6339426    12.612127     22.30075    14.235163 
  852400    208.57264     59211218            0     59212030    12.683302    22.410354    14.179199    19.732674    33.265786    8.6363764    12.612127     22.30075    14.235163 
  852600    208.18395     59211153            0     59211963    12.683314    22.410342     14.17882    19.733802    33.264516    8.5984816    12.612127     22.30075    14.235163 
  852800     167.7586     59211145            0     59211798    12.683347    22.410349    14.179027    19.737134    33.265244    8.6191269    12.612127     22.30075    14.235163 
  853000    115.16923     59211990            0     59212438    12.683332     22.41035    14.178706    19.735667    33.265402    8.5870628    12.612127     22.30075    14.235163 
  853200    175.14073     59211203            0     59211885    12.683311    22.410362    14.178758    19.733577    33.266542    8.5922985    12.612127     22.30075    14.235163 
  853400    392.81733     59211053            0     59212582    12.683308    22.410369    14.179073    19.733295     33.26729    8.6238108    12.612127     22.30075    14.235163 
  853600    201.96309     59212328            0     59213115     12.68334    22.410384    14.178904    19.736439    33.268784    8.6068207    12.612127     22.30075    14.235163 
  853800    217.83246     59211016            0     59211864    12.683308    22.410332    14.179094    19.733241    33.263548    8.6258981    12.612127     22.30075    14.235163 
  854000    406.81582     59210949            0     59212533    12.683335    22.410354    14.178851    19.735946    33.265752    8.6015201    12.612127     22.30075    14.235163 
  854200    324.90949     59210851            0     59212116    12.683302    22.410361    14.178743    19.732647    33.266456    8.5907784    12.612127     22.30075    14.235163 
  854400    380.63911     59211465            0     59212947    12.683315    22.410353    14.178982    19.733997    33.265688    8.6146268    12.612127     22.30075    14.235163 
  854600     111.6928     59211487            0     59211921    12.683338    22.410352    14.179001    19.736262    33.265557    8.6165855    12.612127     22.30075    14.235163 
  854800    275.92265     59210936            0     59212010    12.683317    22.410353    14.179122    19.734114    33.265665    8.6286403    12.612127     22.30075    14.235163 
  855000     264.4641     59210906            0     59211936     12.68329    22.410357    14.178931    19.731454    33.266043    8.6095227    12.612127     22.30075    14.235163 
  855200    74.903218     59211850            0     59212142    12.683319    22.410353    14.179223    19.734313    33.265667     8.638738    12.612127     22.30075    14.235163 
  855400     171.8581     59210975            0     59211645     12.68331    22.410372    14.179064    19.733426    33.267605      8.62288    12.612127     22.30075    14.235163 
  855600     247.3797     59210765            0     59211728    12.683316    22.410353     14.17892    19.734008    33.265684    8.6084282    12.612127     22.30075    14.235163 
  855800    85.472336     59211797            0     59212129    12.683304    22.410336    14.178886    19.732857    33.263913    8.6050412    12.612127     22.30075    14.235163 
  856000     176.7416     59211440            0     59212128    12.683324    22.410349    14.178956    19.734853    33.265218    8.6120824    12.612127     22.30075    14.235163 
  856200    333.89569     59210560            0     59211860    12.683316    22.410353    14.179049     19.73403    33.265685    8.6213473    12.612127     22.30075    14.235163 
  856400    155.83691     59212286            0     59212893    12.683316    22.410353    14.179102    19.734012    33.265681    8.6266592    12.612127     22.30075    14.235163 
  856600    265.14961     59210487            0     59211519     12.68333    22.410353    14.179077    19.735431    33.265615     8.624127    12.612127     22.30075    14.235163 
  856800    359.66257     59210511            0     59211912    12.683312    22.410357    14.179095     19.73365    33.266057    8.6259498    12.612127     22.30075    14.235163 
  857000    287.14296     59211638            0     59212756    12.683298    22.410326    14.178706    19.732218    33.262935    8.5870366    12.612127     22.30075    14.235163 
  857200    158.28915     59211542            0     59212158    12.683304    22.410364    14.179008    19.732838    33.266752    8.6172568    12.612127     22.30075    14.235163 
  857400    203.27638     59211179            0     59211970    12.683312    22.410366     14.17883    19.733647    33.266987     8.599489    12.612127     22.30075    14.235163 
  857600    275.56755     59211191            0     59212264    12.683316    22.410353    14.179039    19.734012    33.265682    8.6204053    12.612127     22.30075    14.235163 
  857800    200.17898     59210962            0     59211741    12.683313    22.410353    14.179198    19.733789    33.265688    8.6362519    12.612127     22.30075    14.235163 
  858000    189.60348     59211111            0     59211849    12.683329    22.410353    14.178944    19.735322    33.265611    8.6108786    12.612127     22.30075    14.235163 
  858200    141.45348     59210804            0     59211355    12.683331    22.410358    14.178932    19.735521    33.266204    8.6096915    12.612127     22.30075    14.235163 
  858400    274.50852     59211045            0     59212113    12.683319    22.410352    14.179063     19.73435    33.265557    8.6227564    12.612127     22.30075    14.235163 
  858600    132.26887     59211379            0     59211893    12.683311    22.410352    14.178755    19.733573    33.265536    8.5919926    12.612127     22.30075    14.235163 
  858800    79.463395     59210353            0     59210663    12.683329    22.410352    14.179069    19.735334    33.265608    8.6233347    12.612127     22.30075    14.235163 
  859000    276.19044     59211347            0     59212422    12.683316    22.410353    14.178847    19.734012    33.265681    8.6011204    12.612127     22.30075    14.235163 
  859200    292.38715     59211361            0     59212499    12.683318     22.41034    14.179171    19.734293    33.264388     8.633526    12.612127     22.30075    14.235163 
  859400    243.39694     59212171            0     59213118    12.683309    22.410369    14.179057    19.733367    33.267223    8.6221349    12.612127     22.30075    14.235163 
  859600    171.75688     59211461            0     59212130    12.683355    22.410351    14.179059      19.7379    33.265467    8.6223138    12.612127     22.30075    14.235163 
  859800    259.36898     59211215            0     59212225    12.683277    22.410355    14.178875    19.730111    33.265899    8.6039464    12.612127     22.30075    14.235163 
  860000    122.52591     59211476            0     59211953    12.683302    22.410354    14.178746    19.732691    33.265735    8.5910178    12.612127     22.30075    14.235163 
  860200    177.24921     59211554            0     59212244    12.683334    22.410318    14.178783     19.73589    33.262153    8.5947484    12.612127     22.30075    14.235163 
  860400    225.27264     59211342            0     59212219    12.683261    22.410355    14.178998    19.728583    33.265825    8.6162437    12.612127     22.30075    14.235163 
  860600     234.0122     59210950            0     59211861    12.683319    22.410357    14.178993    19.734358    33.266041    8.6157681    12.612127     22.30075    14.235163 
  860800    232.69397     59211854            0     59212760    12.683322    22.410352    14.179066    19.734693    33.265568    8.6230253    12.612127     22.30075    14.235163 
  861000    136.84352     59211306            0     59211839    12.683324    22.410353    14.178842    19.734815    33.265686    8.6006956    12.612127     22.30075    14.235163 
  861200    257.73731     59210271            0     59211275    12.683326    22.410333    14.179046    19.735036    33.263659    8.6210721    12.612127     22.30075    14.235163 
  861400    160.73713     59211508            0     59212133    12.683316    22.410353     14.17885    19.734011    33.265677    8.6014417    12.612127     22.30075    14.235163 
  861600    146.51191     59211113            0     59211683    12.683316    22.410353    14.179152    19.734014    33.265681    8.6316274    12.612127     22.30075    14.235163 
  861800    283.40372     59211119            0     59212223    12.683286    22.410357    14.178876    19.731051    33.266087    8.6040382    12.612127     22.30075    14.235163 
  862000    177.66474     59211816            0     59212507    12.683322    22.410372    14.178772    19.734657    33.267563    8.5936423    12.612127     22.30075    14.235163 
  862200    144.37948     59211995            0     59212557    12.683312    22.410358    14.178813    19.733637    33.266118    8.5978008    12.612127     22.30075    14.235163 
  862400     122.8483     59210566            0     59211044    12.683314    22.410359    14.178957    19.733882    33.266234    8.6121177    12.612127     22.30075    14.235163 
  862600     170.3492     59213108            0     59213771    12.683331    22.410351    14.179052    19.735548     33.26542    8.6216911    12.612127     22.30075    14.235163 
  862800    258.67195     59211830            0     59212837    12.683318     22.41035     14.17895    19.734204    33.265394    8.6115002    12.612127     22.30075    14.235163 
  863000    319.74581     59211432            0     59212677     12.68329    22.410355    14.178932    19.731407    33.265825    8.6096168    12.612127     22.30075    14.235163 
  863200     218.7189     59211456            0     59212307    12.683295    22.410349    14.178928    19.731966    33.265212    8.6092681    12.612127     22.30075    14.235163 
  863400    220.61057     59211109            0     59211968    12.683308     22.41037    14.178783    19.733248    33.267312    8.5947471    12.612127     22.30075    14.235163 
  863600    252.81798     59211309            0     59212293    12.683329    22.410389    14.178845    19.735329    33.269233    8.6009152    12.612127     22.30075    14.235163 
  863800    274.03623     59210966            0     59212033    12.683318    22.410354    14.178814    19.734285    33.265749    8.5978908    12.612127     22.30075    14.235163 
  864000    174.25417     59211327            0     59212005    12.683326    22.410333    14.179005    19.735045    33.263627    8.6169294    12.612127     22.30075    14.235163 
  864200    130.45922     59211355            0     59211862    12.683347    22.410387    14.178956    19.737132    33.269012    8.6120088    12.612127     22.30075    14.235163 
  864400     100.7528     59210982            0     59211374     12.68332    22.410342    14.178971    19.734475    33.264583     8.613601    12.612127     22.30075    14.235163 
  864600    149.72592     59211826            0     59212409    12.683328    22.410296    14.179099    19.735266     33.25996    8.6263419    12.612127     22.30075    14.235163 
  864800    85.193909     59211318            0     59211650    12.683316    22.410359    14.178672    19.734017    33.266279    8.5836378    12.612127     22.30075    14.235163 
  865000    277.08344     59211621            0     59212700    12.683315    22.410353    14.179111    19.733944    33.265686    8.6276061    12.612127     22.30075    14.235163 
  865200    117.22916     59212222            0     59212678    12.683308    22.410339     14.17899    19.733285    33.264224    8.6154318    12.612127     22.30075    14.235163 
  865400    171.20979     59210869            0     59211535    12.683312    22.410353    14.178886    19.733637    33.265671    8.6050416    12.612127     22.30075    14.235163 
  865600    279.50594     59210863            0     59211951    12.683332    22.410353    14.178981    19.735621    33.265611    8.6145855    12.612127     22.30075    14.235163 
  865800    372.45645     59211105            0     59212555    12.683314    22.410345    14.178861    19.733897    33.264866    8.6026034    12.612127     22.30075    14.235163 
  866000    143.14263     59211562            0     59212119    12.683342    22.410352    14.178915    19.736614    33.265589    8.6079939    12.612127     22.30075    14.235163 
  866200    52.171923     59212367            0     59212570    12.683316    22.410357    14.178828    19.734083    33.266035    8.5992973    12.612127     22.30075    14.235163 
  866400    130.16194     59211749            0     59212256    12.683329    22.410346      14.1791    19.735375    33.264997    8.6264477    12.612127     22.30075    14.235163 
  866600    135.27376     59211281            0     59211808    12.683308    22.410358    14.178972    19.733273    33.266123    8.6136495    12.612127     22.30075    14.235163 
  866800    168.57265     59211000            0     59211656    12.683278    22.410355    14.179173    19.730254     33.26589    8.6337811    12.612127     22.30075    14.235163 
  867000    50.189734     59211393            0     59211589    12.683316    22.410353    14.179133    19.734002    33.265669    8.6297344    12.612127     22.30075    14.235163 
  867200    153.80166     59210585            0     59211184    12.683311    22.410351    14.179107    19.733583    33.265472    8.6271776    12.612127     22.30075    14.235163 
  867400    265.35399     59212438            0     59213471    12.683316    22.410353    14.178711    19.734014    33.265682    8.5875272    12.612127     22.30075    14.235163 
  867600     249.1786     59212293            0     59213263    12.683336    22.410355    14.178899    19.736022     33.26586    8.6063082    12.612127     22.30075    14.235163 
  867800    195.92002     59210717            0     59211480    12.683314    22.410357    14.178852    19.733844    33.266016    8.6016349    12.612127     22.30075    14.235163 
  868000    219.25472     59211785            0     59212638    12.683315    22.410353    14.179204    19.733986    33.265703    8.6368553    12.612127     22.30075    14.235163 
  868200    225.18672     59211443            0     59212319     12.68333    22.410325    14.178791     19.73544    33.262882    8.5955353    12.612127     22.30075    14.235163 
  868400    282.37428     59212146            0     59213245    12.683318    22.410356    14.179032    19.734202    33.266004     8.619665    12.612127     22.30075    14.235163 
  868600    226.79444     59211519            0     59212402    12.683294    22.410331    14.179064    19.731816    33.263468    8.6229024    12.612127     22.30075    14.235163 
  868800    297.23845     59211102            0     59212259    12.683319    22.410358    14.179075    19.734324     33.26618    8.6239822    12.612127     22.30075    14.235163 
  869000    131.41089     59210921            0     59211432     12.68327    22.410365    14.179048      19.7294    33.266835    8.6212786    12.612127     22.30075    14.235163 
  869200    233.68053     59211689            0     59212598    12.683304    22.410359    14.179208    19.732873    33.266294    8.6372412    12.612127     22.30075    14.235163 
  869400    121.73454     59211335            0     59211809    12.683323    22.410337    14.179092    19.734773    33.264016    8.6257033    12.612127     22.30075    14.235163 
  869600    303.54561     59211084            0     59212265    12.683316    22.410348    14.178995     19.73406    33.265136    8.6159412    12.612127     22.30075    14.235163 
  869800    187.69136     59210560            0     59211290    12.683296     22.41034    14.178884    19.732061    33.264376    8.6048709    12.612127     22.30075    14.235163 
  870000    245.85754     59211681            0     59212638    12.683298    22.410354    14.179002    19.732261    33.265802    8.6166602    12.612127     22.30075    14.235163 
  870200    210.97105     59212262            0     59213083    12.683305    22.410354    14.179162    19.732898    33.265733    8.6326369    12.612127     22.30075    14.235163 
  870400    354.18341     59210210            0     59211589    12.683317    22.410354     14.17905    19.734115    33.265789    8.6214935    12.612127     22.30075    14.235163 
  870600    187.88271     59210508            0     59211239    12.683332    22.410353    14.179114    19.735646    33.265635    8.6278954    12.612127     22.30075    14.235163 
  870800    108.64401     59211551            0     59211974    12.683309    22.410354    14.179156    19.733342     33.26572    8.6320893    12.612127     22.30075    14.235163 
  871000    89.334984     59211392            0     59211739     12.68331    22.410353    14.178704    19.733484    33.265654    8.5868019    12.612127     22.30075    14.235163 
  871200    120.86739     59211490            0     59211960    12.683312     22.41034    14.178891     19.73361    33.264357    8.6055114    12.612127     22.30075    14.235163 
  871400    182.30121     59210698            0     59211407    12.683324    22.410342    14.178781    19.734851    33.264538    8.5945938    12.612127     22.30075    14.235163 
  871600    374.09013     59211725            0     59213182    12.683316    22.410353    14.178822    19.734012    33.265682    8.5986448    12.612127     22.30075    14.235163 
  871800    141.32117     59211771            0     59212321    12.683333    22.410326    14.178751    19.735724     33.26299    8.5915332    12.612127     22.30075    14.235163 
  872000    281.26407     59211501            0     59212596    12.683321    22.410365    14.178911    19.734534    33.266861    8.6075864    12.612127     22.30075    14.235163 
  872200    267.17575     59211449            0     59212489    12.683337    22.410357     14.17904    19.736182    33.266009    8.6204664    12.612127     22.30075    14.235163 
  872400    203.18085     59211467            0     59212258    12.683317    22.410356    14.179124    19.734196    33.265963    8.6288198    12.612127     22.30075    14.235163 
  872600    141.35613     59212012            0     59212562    12.683316    22.410353    14.178885    19.734013    33.265684    8.6049716    12.612127     22.30075    14.235163 
  872800    208.68825     59211079            0     59211892    12.683335    22.410343    14.179046    19.735898    33.264696    8.6211016    12.612127     22.30075    14.235163 
  873000    162.71749     59211504            0     59212138     12.68331    22.410331    14.178867    19.733484    33.263475    8.6031846    12.612127     22.30075    14.235163 
  873200    209.67734     59211529            0     59212345    12.683314    22.410353    14.178902     19.73381    33.265692    8.6066613    12.612127     22.30075    14.235163 
  873400    356.44885     59211633            0     59213020    12.683292    22.410355    14.178754    19.731601    33.265815    8.5918721    12.612127     22.30075    14.235163 
  873600    183.75079     59211066            0     59211781    12.683293    22.410354    14.178977     19.73176    33.265807     8.614162    12.612127     22.30075    14.235163 
  873800    193.38991     59212295            0     59213048     12.68332    22.410368    14.178884    19.734479    33.267154    8.6048539    12.612127     22.30075    14.235163 
  874000    233.51459     59210807            0     59211716    12.683275    22.410354    14.179096    19.729928    33.265807    8.6261082    12.612127     22.30075    14.235163 
  874200    276.51971     59210929            0     59212005    12.683318    22.410356    14.179077    19.734263    33.265935    8.6241152    12.612127     22.30075    14.235163 
  874400    187.72085     59211392            0     59212123    12.683313    22.410354    14.179002    19.733771    33.265709     8.616678    12.612127     22.30075    14.235163 
  874600    159.31766     59212142            0     59212762    12.683319    22.410353    14.178829    19.734357    33.265663    8.5993348    12.612127     22.30075    14.235163 
  874800    229.67951     59211762            0     59212656     12.68333    22.410372    14.178911     19.73547    33.267535    8.6075608    12.612127     22.30075    14.235163 
  875000    184.49815     59211302            0     59212021    12.683318    22.410344    14.178942    19.734249    33.264776    8.6106177    12.612127     22.30075    14.235163 
  875200    168.96527     59211579            0     59212237    12.683292    22.410334    14.178815    19.731613    33.263712    8.5979332    12.612127     22.30075    14.235163 
  875400    189.70252     59212004            0     59212743    12.683333    22.410319     14.17888     19.73574    33.262266    8.6044575    12.612127     22.30075    14.235163 
  875600    197.45744     59210848            0     59211616    12.683296    22.410345    14.178798    19.732022    33.264867    8.5962426    12.612127     22.30075    14.235163 
  875800    255.95689     59211690            0     59212687    12.683316    22.410353    14.179063    19.734012    33.265682    8.6227714    12.612127     22.30075    14.235163 
  876000    189.27677     59211171            0     59211908      12.6833    22.410354    14.178995    19.732479    33.265775    8.6159825    12.612127     22.30075    14.235163 
  876200    212.34419     59211091            0     59211917    12.683316    22.410353    14.178932    19.734017    33.265688    8.6096381    12.612127     22.30075    14.235163 
  876400    300.06376     59210818            0     59211986    12.683291    22.410346    14.178988    19.731504    33.264912    8.6152962    12.612127     22.30075    14.235163 
  876600    194.75469     59211636            0     59212394    12.683316    22.410353    14.179239    19.734012    33.265682    8.6403891    12.612127     22.30075    14.235163 
  876800    189.53292     59211612            0     59212350    12.683332    22.410368    14.178834    19.735631    33.267112    8.5998483    12.612127     22.30075    14.235163 
  877000    274.79797     59211532            0     59212602    12.683288    22.410344    14.178978     19.73128    33.264748      8.61426    12.612127     22.30075    14.235163 
  877200    308.98994     59211002            0     59212205    12.683295     22.41036    14.179125    19.731975    33.266342    8.6289205    12.612127     22.30075    14.235163 
  877400    120.15298     59211776            0     59212243    12.683313    22.410353    14.178807    19.733791    33.265691    8.5971278    12.612127     22.30075    14.235163 
  877600    309.76203     59210997            0     59212203    12.683313    22.410348    14.178896    19.733736    33.265128    8.6060931    12.612127     22.30075    14.235163 
  877800    142.68941     59211412            0     59211967    12.683318    22.410354     14.17896    19.734229    33.265709    8.6124294    12.612127     22.30075    14.235163 
  878000    135.10452     59212014            0     59212540    12.683301     22.41039    14.178945    19.732572     33.26938      8.61097    12.612127     22.30075    14.235163 
  878200    125.71355     59211620            0     59212109    12.683343     22.41037    14.179088    19.736702    33.267403     8.625266    12.612127     22.30075    14.235163 
  878400     141.2939     59211532            0     59212082    12.683314    22.410368    14.179148    19.733855    33.267183    8.6313068    12.612127     22.30075    14.235163 
  878600    249.71004     59211475            0     59212447     12.68332    22.410359     14.17912    19.734436    33.266287    8.6285024    12.612127     22.30075    14.235163 
  878800    237.16482     59211344            0     59212267    12.683276    22.410355    14.178935    19.730038    33.265895    8.6099436    12.612127     22.30075    14.235163 
  879000    245.70958     59212247            0     59213203    12.683319    22.410359    14.179016    19.734379    33.266247    8.6180185    12.612127     22.30075    14.235163 
  879200    155.18705     59211111            0     59211715    12.683316    22.410353    14.178816    19.734023    33.265673    8.5980376    12.612127     22.30075    14.235163 
  879400    151.07281     59211136            0     59211724    12.683306    22.410354    14.178847    19.733003    33.265737    8.6011641    12.612127     22.30075    14.235163 
  879600    152.10575     59211421            0     59212014    12.683314    22.410371    14.178915    19.733868    33.267448    8.6079476    12.612127     22.30075    14.235163 
  879800    365.44392     59211429            0     59212852    12.683277    22.410354    14.179133    19.730155    33.265738    8.6297225    12.612127     22.30075    14.235163 
  880000    209.75932     59211343            0     59212160    12.683319    22.410353    14.179105    19.734345    33.265644    8.6269247    12.612127     22.30075    14.235163 
  880200    254.62971     59210634            0     59211626    12.683316    22.410353    14.179054    19.734013    33.265678    8.6218927    12.612127     22.30075    14.235163 
  880400    181.88394     59210572            0     59211280     12.68332    22.410371    14.178988     19.73448    33.267486    8.6152177    12.612127     22.30075    14.235163 
  880600    176.60767     59212053            0     59212741    12.683329    22.410366    14.179061     19.73531    33.266959     8.622576    12.612127     22.30075    14.235163 
  880800     236.0144     59211473            0     59212392    12.683303    22.410334     14.17903    19.732777     33.26379    8.6194255    12.612127     22.30075    14.235163 
  881000     164.7407     59210482            0     59211123    12.683316    22.410351    14.179045    19.734014    33.265474    8.6209246    12.612127     22.30075    14.235163 
  881200    234.88213     59210761            0     59211675    12.683311    22.410332    14.178839     19.73358    33.263529    8.6003157    12.612127     22.30075    14.235163 
  881400    173.07931     59211051            0     59211724    12.683311    22.410363    14.179035    19.733518    33.266695     8.619929    12.612127     22.30075    14.235163 
  881600    88.308246     59211863            0     59212207    12.683308     22.41033    14.178995    19.733256    33.263402    8.6159902    12.612127     22.30075    14.235163 
  881800    124.29047     59211500            0     59211984    12.683315    22.410354    14.178877    19.733954    33.265723    8.6041363    12.612127     22.30075    14.235163 
  882000    268.32774     59211493            0     59212537    12.683313    22.410353    14.178749    19.733698    33.265699    8.5913903    12.612127     22.30075    14.235163 
  882200    194.04851     59211888            0     59212643    12.683325    22.410334    14.179072    19.734996    33.263737    8.6236233    12.612127     22.30075    14.235163 
  882400    113.54596     59211467            0     59211909    12.683324    22.410362    14.178734    19.734897    33.266546    8.5898329    12.612127     22.30075    14.235163 
  882600     246.5979     59211347            0     59212307    12.683315    22.410352    14.178993     19.73397    33.265608    8.6157116    12.612127     22.30075    14.235163 
  882800    142.30732     59212810            0     59213364    12.683306    22.410344    14.178513    19.733027    33.264787    8.5677131    12.612127     22.30075    14.235163 
  883000    176.12795     59211865            0     59212551    12.683312    22.410356    14.178939    19.733652    33.266008    8.6103485    12.612127     22.30075    14.235163 
  883200    67.755898     59211859            0     59212123    12.683309    22.410354    14.179093    19.733325     33.26572    8.6257408    12.612127     22.30075    14.235163 
  883400    233.08158     59211511            0     59212419    12.683316    22.410353    14.178877    19.734006    33.265671    8.6041818    12.612127     22.30075    14.235163 
  883600    77.581296     59211633            0     59211935    12.683328    22.410331    14.178957    19.735256    33.263472    8.6121703    12.612127     22.30075    14.235163 
  883800    155.50273     59212221            0     59212827    12.683334    22.410336    14.178893    19.735845    33.263918    8.6058038    12.612127     22.30075    14.235163 
  884000    403.22744     59211492            0     59213062    12.683316    22.410353    14.179349    19.734012    33.265682    8.6513428    12.612127     22.30075    14.235163 
  884200     202.0936     59211642            0     59212429    12.683318    22.410325    14.179013    19.734218    33.262834    8.6177388    12.612127     22.30075    14.235163 
  884400     287.9318     59210135            0     59211256    12.683298    22.410378    14.179019    19.732268    33.268159    8.6183897    12.612127     22.30075    14.235163 
  884600    240.86436     59212060            0     59212997    12.683334    22.410351    14.178976    19.735838    33.265471     8.614018    12.612127     22.30075    14.235163 
  884800    164.10205     59210629            0     59211268    12.683329    22.410372    14.179086    19.735327    33.267564     8.625032    12.612127     22.30075    14.235163 
  885000    105.13758     59212106            0     59212516    12.683286    22.410335    14.179227    19.731087    33.263867    8.6391953    12.612127     22.30075    14.235163 
  885200    190.48061     59211228            0     59211970    12.683312    22.410352    14.178996    19.733693    33.265516     8.616045    12.612127     22.30075    14.235163 
  885400    58.124634     59212936            0     59213162    12.683362    22.410351    14.178805    19.738656    33.265428    8.5969042    12.612127     22.30075    14.235163 
  885600    209.06742     59211325            0     59212139    12.683341    22.410347    14.179127    19.736539    33.265013    8.6291792    12.612127     22.30075    14.235163 
  885800    350.90324     59211426            0     59212792    12.683316    22.410353    14.178858    19.734017     33.26568    8.6022832    12.612127     22.30075    14.235163 
  886000    311.16149     59210298            0     59211510    12.683292    22.410335    14.178891    19.731679    33.263836    8.6055965    12.612127     22.30075    14.235163 
  886200    231.58472     59210743            0     59211645    12.683378    22.410345    14.179033    19.740297    33.264876     8.619758    12.612127     22.30075    14.235163 
  886400    412.59701     59211389            0     59212995    12.683317    22.410356    14.179051    19.734197    33.265914    8.6215821    12.612127     22.30075    14.235163 
  886600    205.37376     59211202            0     59212002    12.683318    22.410357    14.178877    19.734269    33.266076    8.6041316    12.612127     22.30075    14.235163 
  886800    140.96963     59210397            0     59210946    12.683315    22.410354    14.178974    19.733992    33.265719    8.6138901    12.612127     22.30075    14.235163 
  887000    137.38825     59211123            0     59211658    12.683317    22.410355    14.178991    19.734129     33.26584    8.6156062    12.612127     22.30075    14.235163 
  887200    188.92833     59211698            0     59212433     12.68333    22.410343    14.178647    19.735431    33.264647    8.5811773    12.612127     22.30075    14.235163 
  887400    97.820814     59210730            0     59211111    12.683315    22.410354    14.179072    19.733917    33.265743     8.623648    12.612127     22.30075    14.235163 
  887600    193.55887     59211376            0     59212129      12.6833     22.41039    14.179084    19.732399    33.269326    8.6248744    12.612127     22.30075    14.235163 
  887800    152.18615     59211652            0     59212244    12.683289    22.410352    14.179205    19.731308    33.265572    8.6369303    12.612127     22.30075    14.235163 
  888000    141.85857     59210918            0     59211470    12.683317    22.410354    14.179121    19.734108    33.265736    8.6285756    12.612127     22.30075    14.235163 
  888200     217.3901     59211466            0     59212312    12.683379    22.410344    14.178812    19.740313    33.264746    8.5976045    12.612127     22.30075    14.235163 
  888400    277.14544     59212250            0     59213329    12.683316    22.410353    14.179346    19.734015    33.265652     8.651084    12.612127     22.30075    14.235163 
  888600    231.91977     59210992            0     59211894    12.683315    22.410354    14.179099    19.733963    33.265753    8.6263776    12.612127     22.30075    14.235163 
  888800    195.79165     59211827            0     59212589     12.68331    22.410364    14.179295    19.733415    33.266786    8.6459785    12.612127     22.30075    14.235163 
  889000    284.25669     59211639            0     59212746    12.683316    22.410353    14.178905     19.73401    33.265679    8.6069656    12.612127     22.30075    14.235163 
  889200    92.793223     59211455            0     59211817    12.683343    22.410351    14.178795    19.736775    33.265506    8.5959331    12.612127     22.30075    14.235163 
  889400    232.13208     59212102            0     59213006    12.683316    22.410353    14.178906    19.734012    33.265681    8.6070303    12.612127     22.30075    14.235163 
  889600    209.36037     59212476            0     59213291    12.683331    22.410351    14.179075    19.735545    33.265488    8.6239978    12.612127     22.30075    14.235163 
  889800    158.04955     59210931            0     59211546    12.683316    22.410353    14.178982    19.734012    33.265682    8.6146689    12.612127     22.30075    14.235163 
  890000    214.69845     59210575            0     59211411    12.683295    22.410355    14.178867    19.731908     33.26585    8.6031825    12.612127     22.30075    14.235163 
  890200    162.31276     59211596            0     59212227    12.683314    22.410347    14.179066     19.73383    33.265042    8.6230422    12.612127     22.30075    14.235163 
  890400    285.39961     59210521            0     59211632    12.683326    22.410355     14.17899    19.735021    33.265862    8.6154304    12.612127     22.30075    14.235163 
  890600    299.30963     59212001            0     59213166    12.683309    22.410336    14.178788    19.733392    33.264001    8.5952874    12.612127     22.30075    14.235163 
  890800     82.87458     59211527            0     59211850    12.683312    22.410344    14.178985    19.733633    33.264769    8.6149978    12.612127     22.30075    14.235163 
  891000    172.44622     59212035            0     59212707      12.6833    22.410343    14.179163    19.732492    33.264639    8.6327979    12.612127     22.30075    14.235163 
  891200    115.32454     59211640            0     59212089    12.683297     22.41036    14.178879      19.7321    33.266355    8.6043341    12.612127     22.30075    14.235163 
  891400    116.68922     59211157            0     59211611    12.683314    22.410321    14.178995    19.733877    33.262504     8.615931    12.612127     22.30075    14.235163 
  891600    239.59778     59210420            0     59211352    12.683371    22.410379    14.178937    19.739558    33.268283    8.6101854    12.612127     22.30075    14.235163 
  891800    238.69237     59211759            0     59212688    12.683323    22.410352    14.179007    19.734743    33.265537    8.6171728    12.612127     22.30075    14.235163 
  892000    192.57027     59211662            0     59212411    12.683304    22.410336    14.179026     19.73288     33.26399    8.6190648    12.612127     22.30075    14.235163 
  892200    124.32171     59211405            0     59211889    12.683307     22.41037    14.179104    19.733145    33.267397    8.6268784    12.612127     22.30075    14.235163 
  892400    164.74483     59211694            0     59212336    12.683335    22.410352    14.178895     19.73594    33.265551    8.6059084    12.612127     22.30075    14.235163 
  892600    241.88854     59210982            0     59211924    12.683317    22.410359    14.178914    19.734118    33.266244    8.6078637    12.612127     22.30075    14.235163 
  892800    159.02929     59211308            0     59211928    12.683281    22.410371    14.179138    19.730531    33.267444     8.630239    12.612127     22.30075    14.235163 
  893000    172.55167     59212230            0     59212902    12.683294    22.410395    14.178892    19.731873    33.269863     8.605619    12.612127     22.30075    14.235163 
  893200    252.92483     59211256            0     59212240    12.683315    22.410352    14.179077    19.733898    33.265538    8.6241198    12.612127     22.30075    14.235163 
  893400    176.24254     59211030            0     59211716    12.683329    22.410352    14.178923    19.735357    33.265599    8.6087168    12.612127     22.30075    14.235163 
  893600    232.19667     59211275            0     59212179    12.683317    22.410349    14.179131     19.73415    33.265245    8.6295731    12.612127     22.30075    14.235163 
  893800    212.01629     59212142            0     59212968    12.683336    22.410352    14.179202    19.736035     33.26557    8.6366335    12.612127     22.30075    14.235163 
  894000    120.80988     59211311            0     59211781    12.683307    22.410358    14.179092    19.733167    33.266129    8.6256669    12.612127     22.30075    14.235163 
  894200    139.07847     59211473            0     59212014    12.683309    22.410382    14.179139    19.733314    33.268521    8.6303251    12.612127     22.30075    14.235163 
  894400    58.549873     59212238            0     59212466    12.683312     22.41035     14.17879    19.733653     33.26534    8.5954355    12.612127     22.30075    14.235163 
  894600    138.73462     59211328            0     59211868    12.683316    22.410353    14.179078    19.734025    33.265666    8.6242146    12.612127     22.30075    14.235163 
  894800    260.86621     59211586            0     59212602    12.683299    22.410354    14.179201    19.732327     33.26578    8.6366061    12.612127     22.30075    14.235163 
  895000    304.83782     59211556            0     59212743    12.683335    22.410334     14.17881    19.735963    33.263782    8.5974501    12.612127     22.30075    14.235163 
  895200    75.753408     59211657            0     59211951    12.683313    22.410349     14.17891    19.733725     33.26522    8.6074172    12.612127     22.30075    14.235163 
  895400    141.76189     59212105            0     59212657    12.683322    22.410363    14.179066    19.734599    33.266651    8.6230442    12.612127     22.30075    14.235163 
  895600    88.753104     59211218            0     59211564    12.683307    22.410339    14.179033    19.733109    33.264255    8.6197374    12.612127     22.30075    14.235163 
  895800    341.95234     59211364            0     59212696    12.683312    22.410369    14.179179    19.733625    33.267255    8.6344047    12.612127     22.30075    14.235163 
  896000    186.95491     59210975            0     59211702    12.683304    22.410353       14.179    19.732823    33.265688    8.6164301    12.612127     22.30075    14.235163 
  896200    407.35603     59210581            0     59212167    12.683311    22.410358    14.178881    19.733526    33.266178    8.6046046    12.612127     22.30075    14.235163 
  896400    322.50835     59212126            0     59213381    12.683298    22.410387    14.178939    19.732233    33.269079    8.6103937    12.612127     22.30075    14.235163 
  896600    125.41671     59210337            0     59210825    12.683321    22.410359    14.178967    19.734596    33.266294     8.613143    12.612127     22.30075    14.235163 
  896800    153.91057     59211100            0     59211699     12.68329    22.410353    14.178868    19.731475    33.265629    8.6032336    12.612127     22.30075    14.235163 
  897000    242.66831     59210881            0     59211826    12.683315    22.410374    14.178977    19.733991    33.267763    8.6142057    12.612127     22.30075    14.235163 
  897200    140.20177     59212024            0     59212570      12.6833    22.410354    14.179226    19.732464    33.265802    8.6391017    12.612127     22.30075    14.235163 
  897400    259.16171     59211501            0     59212510    12.683316    22.410353    14.178835    19.734013    33.265682    8.5999264    12.612127     22.30075    14.235163 
  897600    144.17502     59211804            0     59212365    12.683331    22.410343    14.179215    19.735531    33.264698    8.6380168    12.612127     22.30075    14.235163 
  897800    174.40837     59210915            0     59211594    12.683315    22.410353    14.179048    19.733991    33.265683    8.6212963    12.612127     22.30075    14.235163 
  898000    59.029333     59211282            0     59211512     12.68334    22.410349    14.178946     19.73641    33.265221     8.611044    12.612127     22.30075    14.235163 
  898200    319.20059     59211451            0     59212694    12.683295    22.410355    14.178925     19.73192    33.265812    8.6089875    12.612127     22.30075    14.235163 
  898400    64.658374     59211322            0     59211574    12.683316    22.410353    14.178828    19.734012    33.265681    8.5992236    12.612127     22.30075    14.235163 
  898600    187.35497     59212003            0     59212733    12.683317    22.410363    14.178895    19.734166    33.266704    8.6060056    12.612127     22.30075    14.235163 
  898800    147.07273     59210941            0     59211513    12.683316    22.410353    14.178745    19.734002    33.265682    8.5909318    12.612127     22.30075    14.235163 
  899000    267.10961     59211285            0     59212325    12.683335    22.410344    14.178938    19.735907     33.26477    8.6102741    12.612127     22.30075    14.235163 
  899200    204.53662     59211320            0     59212116    12.683314    22.410353    14.179111    19.733846     33.26569    8.6275655    12.612127     22.30075    14.235163 
  899400    119.47115     59212815            0     59213280    12.683341    22.410351    14.179156    19.736568    33.265483     8.632045    12.612127     22.30075    14.235163 
  899600     99.18975     59211555            0     59211941    12.683316    22.410351    14.179217    19.734082    33.265413    8.6381496    12.612127     22.30075    14.235163 
  899800    207.71185     59211459            0     59212268    12.683348    22.410351    14.178989    19.737292      33.2655    8.6153823    12.612127     22.30075    14.235163 
  900000    176.80184     59210646            0     59211334    12.683315    22.410354     14.17908    19.733984    33.265738    8.6244297    12.612127     22.30075    14.235163 
  900200    155.15754     59211181            0     59211785    12.683306     22.41037    14.179153    19.733084    33.267386    8.6317542    12.612127     22.30075    14.235163 
  900400    149.16083     59212226            0     59212807    12.683315    22.410354    14.179083    19.733957    33.265745    8.6247756    12.612127     22.30075    14.235163 
  900600    253.60878     59211430            0     59212417    12.683299    22.410354     14.17891    19.732368    33.265764    8.6074914    12.612127     22.30075    14.235163 
  900800    193.82739     59210743            0     59211498    12.683308    22.410353    14.179077    19.733295    33.265699    8.6241785    12.612127     22.30075    14.235163 
  901000    179.76603     59211905            0     59212605    12.683339    22.410371    14.178766    19.736389    33.267414      8.59306    12.612127     22.30075    14.235163 
  901200    87.252159     59211670            0     59212010    12.683306    22.410352       14.179    19.733083    33.265587    8.6165062    12.612127     22.30075    14.235163 
  901400     172.1622     59211907            0     59212577    12.683302    22.410332    14.178927    19.732628    33.263522     8.609206    12.612127     22.30075    14.235163 
  901600    286.90972     59211010            0     59212126    12.683321    22.410354    14.178833    19.734584    33.265731    8.5997737    12.612127     22.30075    14.235163 
  901800    212.83932     59211144            0     59211973    12.683316    22.410353    14.179054    19.734012    33.265682    8.6218337    12.612127     22.30075    14.235163 
  902000    245.53711     59211762            0     59212718    12.683312    22.410353    14.179166    19.733692    33.265679    8.6331002    12.612127     22.30075    14.235163 
  902200    245.58762     59210965            0     59211921    12.683304    22.410356    14.178979    19.732894    33.265988    8.6144039    12.612127     22.30075    14.235163 
  902400    113.20298     59210638            0     59211079    12.683313    22.410326    14.178955    19.733764    33.262937    8.6120023    12.612127     22.30075    14.235163 
  902600    110.64985     59212583            0     59213014    12.683308    22.410357    14.179062    19.733202    33.266015    8.6226768    12.612127     22.30075    14.235163 
  902800    176.32376     59211221            0     59211907    12.683348    22.410342     14.17879    19.737265     33.26451    8.5954313    12.612127     22.30075    14.235163 
  903000    348.27208     59211809            0     59213165    12.683315    22.410353    14.178779    19.733943    33.265685    8.5943019    12.612127     22.30075    14.235163 
  903200     184.9401     59212351            0     59213071    12.683316    22.410353    14.179079    19.734013    33.265681     8.624375    12.612127     22.30075    14.235163 
  903400    345.28445     59210590            0     59211934    12.683351    22.410341    14.178999    19.737559    33.264483      8.61634    12.612127     22.30075    14.235163 
  903600    327.83425     59211252            0     59212528    12.683312    22.410354    14.178936    19.733638    33.265723    8.6100696    12.612127     22.30075    14.235163 
  903800    406.08717     59211856            0     59213437    12.683316    22.410353    14.179047    19.734012    33.265682    8.6211486    12.612127     22.30075    14.235163 
  904000    414.44086     59210986            0     59212600    12.683316    22.410353     14.17905    19.734011    33.265681    8.6215114    12.612127     22.30075    14.235163 
  904200    309.72308     59211172            0     59212377    12.683306    22.410369    14.179102    19.733032    33.267308     8.626713    12.612127     22.30075    14.235163 
  904400    182.99754     59210986            0     59211698    12.683306    22.410354    14.179049     19.73301    33.265718    8.6213322    12.612127     22.30075    14.235163 
  904600     79.08939     59212604            0     59212912    12.683327     22.41033    14.179021     19.73516    33.263372    8.6185344    12.612127     22.30075    14.235163 
  904800    258.23229     59210861            0     59211866    12.683295    22.410344    14.179049    19.731995    33.264713    8.6213127    12.612127     22.30075    14.235163 
  905000     250.8927     59211315            0     59212291    12.683322    22.410378    14.179076    19.734616    33.268146    8.6240817    12.612127     22.30075    14.235163 
  905200    120.55297     59211768            0     59212237    12.683321    22.410346    14.178903    19.734513    33.264923    8.6067303    12.612127     22.30075    14.235163 
  905400    313.00708     59210655            0     59211874    12.683316    22.410353    14.179017    19.734019    33.265685    8.6181379    12.612127     22.30075    14.235163 
  905600    155.34325     59211157            0     59211761    12.683331    22.410352    14.178899    19.735573    33.265551    8.6063848    12.612127     22.30075    14.235163 
  905800    349.91805     59211676            0     59213038    12.683314     22.41035    14.178784    19.733819    33.265323    8.5948226    12.612127     22.30075    14.235163 
  906000    208.35433     59210572            0     59211383    12.683322    22.410362    14.178802    19.734659    33.266575      8.59667    12.612127     22.30075    14.235163 
  906200    135.37977     59210718            0     59211245    12.683271    22.410356    14.178904    19.729532    33.265929    8.6068506    12.612127     22.30075    14.235163 
  906400    177.87729     59210526            0     59211219    12.683328    22.410353    14.178933    19.735253    33.265652    8.6097722    12.612127     22.30075    14.235163 
  906600    324.59022     59211446            0     59212709    12.683317    22.410355    14.179051    19.734158    33.265907    8.6215463    12.612127     22.30075    14.235163 
  906800     205.4698     59211489            0     59212289    12.683333    22.410379    14.179076    19.735711    33.268273    8.6240988    12.612127     22.30075    14.235163 
  907000    208.11845     59211387            0     59212197    12.683316    22.410353    14.178878    19.734017    33.265674    8.6042078    12.612127     22.30075    14.235163 
  907200    256.74398     59211877            0     59212877    12.683315    22.410352    14.179001    19.733947    33.265571    8.6165666    12.612127     22.30075    14.235163 
  907400    230.66157     59212715            0     59213613    12.683316    22.410354    14.178951    19.734058    33.265761    8.6115989    12.612127     22.30075    14.235163 
  907600    141.17268     59211300            0     59211850    12.683266    22.410355    14.179168    19.728998    33.265891    8.6332256    12.612127     22.30075    14.235163 
  907800    290.99565     59211459            0     59212592    12.683312    22.410353    14.178904     19.73365    33.265702     8.606817    12.612127     22.30075    14.235163 
  908000    227.12449     59211266            0     59212150     12.68333    22.410361    14.179023    19.735442    33.266441    8.6187813    12.612127     22.30075    14.235163 
  908200    128.48482     59210811            0     59211311    12.683317    22.410354    14.179009    19.734149    33.265719    8.6173905    12.612127     22.30075    14.235163 
  908400    122.27975     59212464            0     59212940    12.683308    22.410368    14.179105     19.73325    33.267187    8.6269398    12.612127     22.30075    14.235163 
  908600    136.17218     59211801            0     59212331    12.683324    22.410365    14.179138    19.734811    33.266885    8.6302573    12.612127     22.30075    14.235163 
  908800    200.90961     59211638            0     59212420    12.683315    22.410352    14.179028    19.733963    33.265596    8.6192893    12.612127     22.30075    14.235163 
  909000    155.47552     59211314            0     59211919    12.683321    22.410355    14.178921    19.734546    33.265906    8.6086017    12.612127     22.30075    14.235163 
  909200    163.93075     59210355            0     59210993    12.683333    22.410341     14.17907    19.735714    33.264483    8.6234911    12.612127     22.30075    14.235163 
  909400    216.06211     59211193            0     59212034    12.683321    22.410361     14.17907    19.734505    33.266426    8.6234783    12.612127     22.30075    14.235163 
  909600    199.69247     59210731            0     59211509    12.683317    22.410353     14.17895    19.734179    33.265655    8.6114353    12.612127     22.30075    14.235163 
  909800    166.93498     59211368            0     59212018    12.683306     22.41036    14.178995    19.733015    33.266321    8.6159305    12.612127     22.30075    14.235163 
  910000    120.71877     59210273            0     59210743    12.683312    22.410366    14.178869    19.733663    33.266925    8.6033161    12.612127     22.30075    14.235163 
  910200    341.38338     59211401            0     59212730    12.683316    22.410372    14.179157    19.734016     33.26758    8.6321622    12.612127     22.30075    14.235163 
  910400    304.05401     59210255            0     59211438    12.683316    22.410353    14.178976    19.734007    33.265657    8.6141013    12.612127     22.30075    14.235163 
  910600    322.90735     59211428            0     59212685    12.683316    22.410353     14.17883    19.734012    33.265683    8.5994974    12.612127     22.30075    14.235163 
  910800    257.04854     59212365            0     59213366    12.683343    22.410352    14.178731    19.736774    33.265528     8.589532    12.612127     22.30075    14.235163 
  911000     285.4414     59212746            0     59213857    12.683316    22.410353    14.178786    19.734008    33.265697    8.5950153    12.612127     22.30075    14.235163 
  911200    162.43153     59210882            0     59211514     12.68328    22.410368    14.179023    19.730403    33.267116     8.618808    12.612127     22.30075    14.235163 
  911400    58.707687     59211044            0     59211273    12.683331    22.410336    14.178954    19.735585    33.263926    8.6118739    12.612127     22.30075    14.235163 
  911600    131.57151     59211240            0     59211752    12.683331    22.410352    14.178906    19.735587    33.265596    8.6070276    12.612127     22.30075    14.235163 
  911800    171.40017     59210910            0     59211577    12.683299    22.410359    14.178983      19.7323    33.266237    8.6147215    12.612127     22.30075    14.235163 
  912000    135.88015     59211097            0     59211626      12.6833    22.410353    14.178916    19.732467    33.265699    8.6080299    12.612127     22.30075    14.235163 
  912200    219.82437     59211244            0     59212100     12.68331    22.410356    14.178935    19.733434    33.265911    8.6099699    12.612127     22.30075    14.235163 
  912400    172.95038     59210963            0     59211637    12.683281    22.410355    14.179081    19.730581    33.265848    8.6245416    12.612127     22.30075    14.235163 
  912600     90.05637     59212684            0     59213034    12.683316    22.410353    14.179187     19.73401    33.265681    8.6351353    12.612127     22.30075    14.235163 
  912800    147.81735     59210770            0     59211346    12.683346    22.410368    14.179035    19.737093    33.267146    8.6200046    12.612127     22.30075    14.235163 
  913000    256.04244     59211345            0     59212342    12.683316    22.410353    14.179063    19.734017    33.265675    8.6227754    12.612127     22.30075    14.235163 
  913200    138.94138     59211305            0     59211846    12.683316    22.410354    14.178921     19.73403     33.26577    8.6085964    12.612127     22.30075    14.235163 
  913400    180.46759     59211029            0     59211731    12.683316    22.410352    14.178961    19.734065    33.265578    8.6125518    12.612127     22.30075    14.235163 
  913600    120.61335     59211019            0     59211489    12.683315    22.410354    14.178903    19.733969    33.265766    8.6067335    12.612127     22.30075    14.235163 
  913800    123.07054     59211366            0     59211845    12.683312    22.410351    14.179038     19.73369    33.265498    8.6202771    12.612127     22.30075    14.235163 
  914000    250.82358     59211420            0     59212396    12.683335    22.410314    14.179078    19.735979     33.26174    8.6242218    12.612127     22.30075    14.235163 
  914200    169.05041     59211759            0     59212417    12.683299    22.410385    14.178907    19.732388    33.268886    8.6071152    12.612127     22.30075    14.235163 
  914400    229.81637     59211187            0     59212082    12.683329    22.410353    14.178914    19.735389    33.265699    8.6078151    12.612127     22.30075    14.235163 
  914600    95.268882     59212035            0     59212405    12.683315    22.410352    14.178974    19.733997    33.265604    8.6138745    12.612127     22.30075    14.235163 
  914800    277.66759     59210764            0     59211845     12.68333    22.410371    14.178885    19.735422    33.267435    8.6049698    12.612127     22.30075    14.235163 
  915000    208.50708     59211742            0     59212554    12.683325    22.410355    14.178926    19.734988    33.265847    8.6090865    12.612127     22.30075    14.235163 
  915200    93.321702     59211355            0     59211718    12.683284    22.410349    14.178751    19.730845    33.265257    8.5915511    12.612127     22.30075    14.235163 
  915400    244.36696     59211093            0     59212044    12.683316     22.41033      14.1789    19.734081    33.263326    8.6065014    12.612127     22.30075    14.235163 
  915600    190.37269     59211047            0     59211788    12.683302    22.410336    14.178936    19.732666    33.263996     8.610072    12.612127     22.30075    14.235163 
  915800     166.1249     59211499            0     59212146    12.683331    22.410332    14.179039    19.735577    33.263511    8.6203737    12.612127     22.30075    14.235163 
  916000    263.67744     59210368            0     59211394    12.683319    22.410356    14.178979    19.734309    33.265921    8.6143822    12.612127     22.30075    14.235163 
  916200    425.34653     59211281            0     59212937    12.683302    22.410358     14.17908     19.73262    33.266147    8.6245099    12.612127     22.30075    14.235163 
  916400    134.10608     59211262            0     59211784    12.683326    22.410339    14.178887    19.735081    33.264229    8.6051809    12.612127     22.30075    14.235163 
  916600    423.71087     59210733            0     59212383    12.683313    22.410337    14.179012    19.733729    33.264105    8.6177019    12.612127     22.30075    14.235163 
  916800      348.087     59211073            0     59212428    12.683316    22.410354    14.178936     19.73404    33.265728    8.6100557    12.612127     22.30075    14.235163 
  917000    264.73684     59210855            0     59211886    12.683301    22.410323     14.17911    19.732549     33.26261    8.6275001    12.612127     22.30075    14.235163 
  917200    217.65537     59211252            0     59212099    12.683309    22.410354     14.17904    19.733341    33.265719     8.620451    12.612127     22.30075    14.235163 
  917400    233.08084     59211205            0     59212113    12.683316    22.410353    14.179125    19.734018     33.26568    8.6289316    12.612127     22.30075    14.235163 
  917600    97.070254     59211455            0     59211833    12.683313    22.410329    14.178937    19.733708    33.263226    8.6101086    12.612127     22.30075    14.235163 
  917800    87.294415     59211077            0     59211417    12.683346    22.410355    14.178896    19.737051    33.265829    8.6061007    12.612127     22.30075    14.235163 
  918000    266.70431     59211113            0     59212151    12.683311    22.410344    14.178852    19.733504    33.264747    8.6016053    12.612127     22.30075    14.235163 
  918200    178.11995     59212966            0     59213659    12.683315    22.410353    14.179177    19.733968    33.265678    8.6341725    12.612127     22.30075    14.235163 
  918400    172.72539     59210914            0     59211586    12.683296    22.410354    14.179176    19.732008    33.265785    8.6341083    12.612127     22.30075    14.235163 
  918600     148.5487     59212045            0     59212624    12.683317    22.410351    14.178924    19.734108    33.265498    8.6088874    12.612127     22.30075    14.235163 
  918800    200.74233     59212075            0     59212857    12.683331    22.410344     14.17907    19.735594    33.264756    8.6234517    12.612127     22.30075    14.235163 
  919000    173.37694     59210599            0     59211274    12.683329    22.410352    14.179021    19.735362    33.265537     8.618576    12.612127     22.30075    14.235163 
  919200    166.05033     59211771            0     59212417    12.683316    22.410353    14.179026    19.734029    33.265646     8.619094    12.612127     22.30075    14.235163 
  919400    239.80476     59210463            0     59211396    12.683328     22.41035    14.179083    19.735212     33.26534    8.6247405    12.612127     22.30075    14.235163 
  919600    99.104275     59210703            0     59211088    12.683312    22.410364    14.179003    19.733615    33.266735     8.616715    12.612127     22.30075    14.235163 
  919800    152.84197     59211727            0     59212322    12.683338    22.410331     14.17909    19.736263    33.263482     8.625426    12.612127     22.30075    14.235163 
  920000    187.72616     59211422            0     59212152    12.683297    22.410352    14.179006    19.732104    33.265567    8.6170385    12.612127     22.30075    14.235163 
  920200     265.8859     59210852            0     59211887    12.683289    22.410354    14.179007     19.73133    33.265735    8.6171543    12.612127     22.30075    14.235163 
  920400     253.4627     59210761            0     59211747    12.683298     22.41036    14.178949     19.73228     33.26634    8.6113602    12.612127     22.30075    14.235163 
  920600    173.23883     59211515            0     59212190    12.683293    22.410383    14.179212    19.731775     33.26866    8.6376601    12.612127     22.30075    14.235163 
  920800    284.43689     59211597            0     59212705    12.683328    22.410353    14.178921    19.735249    33.265614    8.6085467    12.612127     22.30075    14.235163 
  921000    221.65809     59211147            0     59212010    12.683318    22.410365    14.178986    19.734218    33.266865    8.6150965    12.612127     22.30075    14.235163 
  921200    156.48962     59212647            0     59213257    12.683315    22.410355    14.178834    19.733968    33.265859     8.599833    12.612127     22.30075    14.235163 
  921400    189.87199     59210812            0     59211551    12.683305    22.410354    14.178932    19.732916    33.265727    8.6096869    12.612127     22.30075    14.235163 
  921600    79.802267     59211579            0     59211890    12.683312    22.410357    14.178933    19.733657    33.266105    8.6097425    12.612127     22.30075    14.235163 
  921800    209.71157     59211308            0     59212124     12.68334    22.410368    14.178909    19.736426    33.267181    8.6073582    12.612127     22.30075    14.235163 
  922000    166.15224     59211816            0     59212463    12.683303    22.410353    14.179082    19.732759     33.26564    8.6246929    12.612127     22.30075    14.235163 
  922200    217.77979     59211485            0     59212332    12.683322    22.410354    14.178829    19.734669    33.265745    8.5993149    12.612127     22.30075    14.235163 
  922400    316.37025     59210760            0     59211991    12.683356    22.410358    14.178753    19.738082    33.266141    8.5917334    12.612127     22.30075    14.235163 
  922600    212.20613     59211075            0     59211901    12.683337    22.410336    14.179022    19.736116     33.26396    8.6186143    12.612127     22.30075    14.235163 
  922800    118.64516     59211140            0     59211602    12.683294    22.410354    14.178999    19.731833    33.265802    8.6164063    12.612127     22.30075    14.235163 
  923000    136.39191     59210758            0     59211289     12.68333    22.410354    14.178903    19.735483    33.265731    8.6067282    12.612127     22.30075    14.235163 
  923200    219.47486     59210538            0     59211392    12.683336    22.410358    14.178964    19.736098    33.266137    8.6128727    12.612127     22.30075    14.235163 
  923400    157.82003     59210296            0     59210910    12.683337    22.410343     14.17893    19.736191    33.264647    8.6094821    12.612127     22.30075    14.235163 
  923600    146.66373     59211255            0     59211826    12.683317    22.410353     14.17891    19.734152    33.265656    8.6074627    12.612127     22.30075    14.235163 
  923800     333.2948     59210399            0     59211696    12.683316    22.410353    14.178919    19.734071    33.265688    8.6083919    12.612127     22.30075    14.235163 
  924000    175.93972     59211684            0     59212369    12.683322    22.410352    14.178915     19.73466    33.265527    8.6079226    12.612127     22.30075    14.235163 
  924200    198.49706     59211476            0     59212249    12.683292    22.410354     14.17911    19.731661    33.265738    8.6274624    12.612127     22.30075    14.235163 
  924400    138.12335     59210992            0     59211529    12.683328    22.410353    14.178892    19.735278    33.265612    8.6056262    12.612127     22.30075    14.235163 
  924600    304.10948     59211292            0     59212475    12.683315    22.410353    14.179138     19.73399     33.26568    8.6302518    12.612127     22.30075    14.235163 
  924800    293.84695     59211502            0     59212646    12.683319    22.410358    14.179037    19.734344    33.266191    8.6201369    12.612127     22.30075    14.235163 
  925000    268.41893     59211780            0     59212825    12.683316    22.410355    14.179032    19.734074    33.265848    8.6196554    12.612127     22.30075    14.235163 
  925200    104.73711     59212127            0     59212535    12.683304    22.410354      14.1789    19.732807    33.265782    8.6064243    12.612127     22.30075    14.235163 
  925400    131.47524     59213014            0     59213526    12.683316    22.410353    14.178725    19.734013    33.265682    8.5889167    12.612127     22.30075    14.235163 
  925600    126.59559     59211255            0     59211748    12.683317    22.410353    14.178915    19.734156    33.265674     8.607939    12.612127     22.30075    14.235163 
  925800    85.530309     59211744            0     59212077    12.683316    22.410353    14.179001    19.734014    33.265686    8.6165287    12.612127     22.30075    14.235163 
  926000    345.97943     59212324            0     59213671    12.683313    22.410361    14.178944    19.733751     33.26648     8.610883    12.612127     22.30075    14.235163 
  926200    197.57511     59211325            0     59212094    12.683316    22.410354    14.178911    19.734034    33.265716    8.6075471    12.612127     22.30075    14.235163 
  926400    217.47922     59211854            0     59212701    12.683334    22.410352    14.179252    19.735873    33.265554    8.6416322    12.612127     22.30075    14.235163 
  926600    203.62262     59211590            0     59212383    12.683321    22.410343    14.178735    19.734501    33.264644     8.589974    12.612127     22.30075    14.235163 
  926800    372.87852     59210963            0     59212415    12.683315    22.410348     14.17909    19.733986    33.265197    8.6254467    12.612127     22.30075    14.235163 
  927000     195.9439     59211355            0     59212117     12.68329    22.410358    14.178726    19.731476    33.266116    8.5890747    12.612127     22.30075    14.235163 
  927200    211.45263     59211287            0     59212111    12.683316    22.410353    14.178952    19.734035    33.265616    8.6116088    12.612127     22.30075    14.235163 
  927400    177.85587     59210550            0     59211243    12.683316    22.410353    14.178996    19.734013    33.265682     8.616027    12.612127     22.30075    14.235163 
  927600    304.17821     59210949            0     59212133    12.683346    22.410349    14.178944     19.73709    33.265262     8.610907    12.612127     22.30075    14.235163 
  927800    283.90325     59211739            0     59212844      12.6833    22.410379    14.178772    19.732455    33.268296    8.5936081    12.612127     22.30075    14.235163 
  928000    134.33167     59210759            0     59211282     12.68332     22.41035    14.178906    19.734432    33.265327    8.6070471    12.612127     22.30075    14.235163 
  928200    192.20728     59211333            0     59212081    12.683325    22.410346    14.178823     19.73498    33.264927    8.5987362    12.612127     22.30075    14.235163 
  928400    201.93052     59211815            0     59212601    12.683368    22.410341    14.179268    19.739271    33.264425    8.6432255    12.612127     22.30075    14.235163 
  928600    119.83057     59211779            0     59212245    12.683314    22.410346    14.179086    19.733881    33.264953    8.6251084    12.612127     22.30075    14.235163 
  928800    197.04565     59210860            0     59211627    12.683325    22.410382    14.178824    19.734994    33.268561    8.5988531    12.612127     22.30075    14.235163 
  929000    173.75103     59210592            0     59211268    12.683307    22.410351    14.179009    19.733119    33.265448     8.617337    12.612127     22.30075    14.235163 
  929200    113.20245     59210979            0     59211420    12.683332    22.410359    14.178894    19.735636    33.266266    8.6058836    12.612127     22.30075    14.235163 
  929400    229.81179     59212332            0     59213226    12.683289    22.410355    14.178921    19.731297    33.265862    8.6085643    12.612127     22.30075    14.235163 
  929600    230.71327     59211136            0     59212034     12.68328    22.410342    14.178948    19.730438    33.264538    8.6112547    12.612127     22.30075    14.235163 
  929800     105.5356     59210407            0     59210818    12.683343    22.410346    14.178922    19.736752    33.264936    8.6086169    12.612127     22.30075    14.235163 
  930000    185.48974     59211773            0     59212495     12.68331     22.41035     14.17883     19.73347     33.26537    8.5994845    12.612127     22.30075    14.235163 
  930200    230.39701     59211384            0     59212280    12.683273     22.41035    14.179019    19.729752     33.26535    8.6183583    12.612127     22.30075    14.235163 
  930400    257.82402     59210934            0     59211938     12.68332    22.410351    14.178988    19.734459    33.265436     8.615257    12.612127     22.30075    14.235163 
  930600    232.52006     59211483            0     59212388    12.683307    22.410341    14.179018    19.733179    33.264442    8.6182626    12.612127     22.30075    14.235163 
  930800    199.47798     59210958            0     59211735    12.683295    22.410361    14.178916     19.73198    33.266429    8.6080983    12.612127     22.30075    14.235163 
  931000    252.30874     59211640            0     59212622    12.683316    22.410353    14.178912    19.734009    33.265678     8.607694    12.612127     22.30075    14.235163 
  931200     233.3441     59211302            0     59212210    12.683358    22.410358    14.178784    19.738229    33.266208    8.5948401    12.612127     22.30075    14.235163 
  931400      204.722     59211040            0     59211837    12.683297    22.410368    14.178963    19.732108    33.267167    8.6127778    12.612127     22.30075    14.235163 
  931600    240.58882     59211502            0     59212438    12.683323    22.410351    14.179062    19.734747    33.265498    8.6226911    12.612127     22.30075    14.235163 
  931800    240.11617     59210638            0     59211573    12.683299    22.410385    14.179001    19.732369    33.268902    8.6165695    12.612127     22.30075    14.235163 
  932000    201.87828     59211935            0     59212721    12.683319    22.410353    14.178953    19.734363    33.265687    8.6117418    12.612127     22.30075    14.235163 
  932200    219.90138     59211278            0     59212135    12.683313    22.410325    14.179106    19.733785    33.262812     8.627037    12.612127     22.30075    14.235163 
  932400    75.161077     59210702            0     59210995    12.683315    22.410355    14.178888    19.733913    33.265854    8.6052376    12.612127     22.30075    14.235163 
  932600    171.29758     59211824            0     59212491    12.683316    22.410353    14.178949    19.734052    33.265678    8.6113935    12.612127     22.30075    14.235163 
  932800    205.40249     59212042            0     59212842    12.683322    22.410365    14.179093    19.734696     33.26684    8.6257719    12.612127     22.30075    14.235163 
  933000    468.35297     59210370            0     59212193     12.68331    22.410361    14.178968    19.733448    33.266439    8.6132908    12.612127     22.30075    14.235163 
  933200    100.95614     59211715            0     59212108    12.683316    22.410353    14.179177    19.734006     33.26568    8.6341618    12.612127     22.30075    14.235163 
  933400     198.1919     59211073            0     59211845    12.683307     22.41034    14.178802    19.733147    33.264387    8.5966369    12.612127     22.30075    14.235163 
  933600    336.38844     59211054            0     59212364    12.683313    22.410356     14.17905    19.733709    33.265921    8.6214788    12.612127     22.30075    14.235163 
  933800    331.00724     59211078            0     59212366    12.683306    22.410372    14.178959    19.733057    33.267572    8.6123445    12.612127     22.30075    14.235163 
  934000     227.6059     59211498            0     59212385    12.683316    22.410353    14.179138    19.734016    33.265675    8.6302184    12.612127     22.30075    14.235163 
  934200     212.8508     59211691            0     59212520    12.683316    22.410353    14.178789    19.734026    33.265655    8.5953138    12.612127     22.30075    14.235163 
  934400    202.73865     59210632            0     59211421    12.683296    22.410379    14.179035    19.732075    33.268239    8.6199854    12.612127     22.30075    14.235163 
  934600    211.52078     59210082            0     59210906    12.683316    22.410353    14.178859    19.734008    33.265632     8.602322    12.612127     22.30075    14.235163 
  934800    271.07712     59211891            0     59212946    12.683325    22.410352    14.179048    19.734991    33.265598    8.6212773    12.612127     22.30075    14.235163 
  935000    133.49776     59210999            0     59211518    12.683287    22.410377    14.178884    19.731114    33.268045    8.6048723    12.612127     22.30075    14.235163 
  935200    213.83219     59211728            0     59212561    12.683317     22.41037    14.179046    19.734117    33.267388     8.621095    12.612127     22.30075    14.235163 
  935400    181.55291     59211162            0     59211869    12.683323    22.410339     14.17903    19.734729    33.264264    8.6194164    12.612127     22.30075    14.235163 
  935600    279.50385     59211248            0     59212336    12.683295    22.410372    14.178769    19.731918    33.267587    8.5933215    12.612127     22.30075    14.235163 
  935800    292.02868     59210644            0     59211781    12.683316     22.41035    14.179022    19.734062    33.265316    8.6186466    12.612127     22.30075    14.235163 
  936000    272.45098     59210318            0     59211378    12.683295    22.410367    14.178896    19.731981    33.267025    8.6060219    12.612127     22.30075    14.235163 
  936200    285.67556     59211127            0     59212239    12.683308    22.410358    14.178996    19.733293    33.266133    8.6160698    12.612127     22.30075    14.235163 
  936400    191.30065     59211376            0     59212121    12.683314    22.410353    14.178812     19.73384    33.265693    8.5976859    12.612127     22.30075    14.235163 
  936600    192.31941     59210807            0     59211556    12.683308    22.410375    14.178877    19.733249    33.267897    8.6041852    12.612127     22.30075    14.235163 
  936800    134.42034     59211835            0     59212358    12.683325    22.410367    14.179087    19.734934    33.267093    8.6251598    12.612127     22.30075    14.235163 
  937000    386.36973     59210576            0     59212080    12.683324    22.410366    14.178951    19.734828    33.266949    8.6115554    12.612127     22.30075    14.235163 
  937200     99.50007     59210926            0     59211313    12.683292    22.410352     14.17881    19.731691    33.265523    8.5974527    12.612127     22.30075    14.235163 
  937400    345.32482     59210200            0     59211544    12.683324    22.410369    14.179002    19.734889    33.267275    8.6166947    12.612127     22.30075    14.235163 
  937600    225.79069     59211481            0     59212360    12.683335    22.410352    14.179104    19.735976    33.265574    8.6268469    12.612127     22.30075    14.235163 
  937800    206.37369     59211309            0     59212112    12.683315    22.410353    14.178835    19.733942    33.265705    8.5999504    12.612127     22.30075    14.235163 
  938000     170.9456     59211450            0     59212115    12.683303    22.410378    14.178801    19.732747    33.268183    8.5966003    12.612127     22.30075    14.235163 
  938200    180.92877     59210980            0     59211685    12.683299    22.410354    14.178837    19.732367    33.265773     8.600179    12.612127     22.30075    14.235163 
  938400    260.57797     59212586            0     59213601    12.683319    22.410353    14.178959    19.734382    33.265658    8.6124042    12.612127     22.30075    14.235163 
  938600    294.97696     59211193            0     59212341    12.683315    22.410347    14.178888    19.733963    33.265025    8.6052646    12.612127     22.30075    14.235163 
  938800    257.30168     59210668            0     59211670    12.683305    22.410336     14.17905    19.732902    33.263984    8.6215094    12.612127     22.30075    14.235163 
  939000    241.67021     59210376            0     59211317    12.683316    22.410353    14.179064    19.734013    33.265682    8.6228483    12.612127     22.30075    14.235163 
  939200     106.5714     59212421            0     59212836    12.683311    22.410353    14.178878    19.733531    33.265704    8.6042599    12.612127     22.30075    14.235163 
  939400    133.67265     59210905            0     59211426    12.683349    22.410348     14.17883    19.737397    33.265172    8.5994378    12.612127     22.30075    14.235163 
  939600    240.52591     59211309            0     59212245    12.683325    22.410353    14.178864    19.734929    33.265642    8.6028377    12.612127     22.30075    14.235163 
  939800    262.55087     59210724            0     59211746    12.683315    22.410353    14.178976    19.733968    33.265613    8.6140128    12.612127     22.30075    14.235163 
  940000    174.34292     59212437            0     59213115    12.683324    22.410362    14.178894    19.734822    33.266543      8.60589    12.612127     22.30075    14.235163 
  940200    284.23522     59211535            0     59212642    12.683325    22.410376    14.178936    19.734917    33.267942    8.6100217    12.612127     22.30075    14.235163 
  940400    81.968552     59210537            0     59210856    12.683316    22.410353    14.178789    19.734023    33.265681    8.5953537    12.612127     22.30075    14.235163 
  940600    415.09284     59210959            0     59212575    12.683351    22.410348     14.17888    19.737527    33.265193    8.6044592    12.612127     22.30075    14.235163 
  940800    234.60099     59210856            0     59211769    12.683287    22.410364    14.178932    19.731126    33.266808    8.6096842    12.612127     22.30075    14.235163 
  941000    226.88436     59211240            0     59212124    12.683312    22.410352    14.178815    19.733652    33.265585    8.5979922    12.612127     22.30075    14.235163 
  941200    115.19524     59211170            0     59211619    12.683337    22.410344    14.178976    19.736153    33.264786    8.6140653    12.612127     22.30075    14.235163 
  941400     296.9626     59211091            0     59212247    12.683323    22.410365    14.179068    19.734718    33.266847    8.6233076    12.612127     22.30075    14.235163 
  941600    172.18692     59210905            0     59211575    12.683327    22.410325    14.178984    19.735126    33.262896     8.614825    12.612127     22.30075    14.235163 
  941800    362.36922     59211166            0     59212577    12.683318    22.410362    14.178956    19.734268    33.266571    8.6120921    12.612127     22.30075    14.235163 
  942000    119.08442     59210374            0     59210838    12.683307    22.410367    14.179087    19.733158    33.267096    8.6251176    12.612127     22.30075    14.235163 
  942200    235.56106     59211408            0     59212325    12.683317    22.410353    14.178752     19.73418    33.265669    8.5916458    12.612127     22.30075    14.235163 
  942400    159.05177     59211786            0     59212405    12.683321    22.410333    14.178753    19.734507     33.26365    8.5917021    12.612127     22.30075    14.235163 
  942600    247.21685     59211366            0     59212328    12.683328    22.410352    14.178786    19.735286    33.265593    8.5950238    12.612127     22.30075    14.235163 
  942800    170.73323     59211532            0     59212197    12.683367    22.410355    14.178776    19.739116     33.26584    8.5940373    12.612127     22.30075    14.235163 
  943000    186.64279     59211303            0     59212030    12.683364    22.410363    14.179015    19.738808    33.266648    8.6179428    12.612127     22.30075    14.235163 
  943200    137.17808     59212557            0     59213091    12.683331    22.410375    14.179002    19.735576    33.267907    8.6166462    12.612127     22.30075    14.235163 
  943400    147.38337     59210905            0     59211478    12.683316    22.410353    14.178985    19.734007    33.265683    8.6149304    12.612127     22.30075    14.235163 
  943600    168.53792     59211827            0     59212483    12.683314    22.410351    14.178834     19.73385    33.265429    8.5998658    12.612127     22.30075    14.235163 
  943800     82.12702     59211077            0     59211396    12.683319    22.410364    14.178851    19.734352    33.266764    8.6015055    12.612127     22.30075    14.235163 
  944000    269.28116     59211037            0     59212085      12.6833    22.410354    14.178705    19.732409    33.265787    8.5869869    12.612127     22.30075    14.235163 
  944200    94.942956     59212260            0     59212630    12.683313    22.410366    14.178598    19.733757    33.266947    8.5762038    12.612127     22.30075    14.235163 
  944400    139.64069     59211136            0     59211680    12.683331    22.410356    14.179095    19.735566    33.265959    8.6259666    12.612127     22.30075    14.235163 
  944600    110.67031     59210518            0     59210949    12.683318    22.410354    14.179045    19.734258    33.265727    8.6209398    12.612127     22.30075    14.235163 
  944800    204.14895     59210291            0     59211086    12.683343    22.410335    14.179052    19.736731    33.263893    8.6216192    12.612127     22.30075    14.235163 
  945000    377.74784     59210435            0     59211905    12.683311    22.410346    14.178846    19.733565    33.264949    8.6010679    12.612127     22.30075    14.235163 
  945200    117.07273     59211014            0     59211470    12.683314    22.410357    14.179156    19.733806    33.266088    8.6320524    12.612127     22.30075    14.235163 
  945400    217.35171     59210832            0     59211678    12.683311    22.410353    14.178873    19.733551    33.265611    8.6037339    12.612127     22.30075    14.235163 
  945600    366.87681     59211245            0     59212673    12.683316    22.410353    14.178773    19.734014    33.265681    8.5937171    12.612127     22.30075    14.235163 
  945800     158.4854     59211404            0     59212021    12.683305    22.410373    14.179172    19.732994    33.267699    8.6336258    12.612127     22.30075    14.235163 
  946000    266.09916     59210946            0     59211982     12.68328    22.410346    14.179197    19.730441    33.264926     8.636171    12.612127     22.30075    14.235163 
  946200    189.78791     59211235            0     59211973    12.683318    22.410369    14.178819    19.734296    33.267239    8.5983822    12.612127     22.30075    14.235163 
  946400    300.30191     59211890            0     59213059    12.683318    22.410354    14.178965    19.734296    33.265709    8.6129556    12.612127     22.30075    14.235163 
  946600    201.52905     59210866            0     59211651    12.683305    22.410362    14.178943    19.732957    33.266561    8.6107905    12.612127     22.30075    14.235163 
  946800    227.87713     59211353            0     59212240    12.683316    22.410353    14.179075    19.734012    33.265682    8.6239753    12.612127     22.30075    14.235163 
  947000    250.37811     59210954            0     59211929    12.683316    22.410354    14.179047    19.734086    33.265708     8.621212    12.612127     22.30075    14.235163 
  947200    273.05752     59210606            0     59211669    12.683317    22.410351    14.179004    19.734139    33.265414    8.6168315    12.612127     22.30075    14.235163 
  947400    179.67803     59211481            0     59212180    12.683314    22.410359     14.17915      19.7338    33.266246    8.6314876    12.612127     22.30075    14.235163 
  947600    183.47994     59210972            0     59211686    12.683313    22.410378    14.178925     19.73377    33.268116    8.6089655    12.612127     22.30075    14.235163 
  947800     136.1839     59211554            0     59212084    12.683297    22.410358    14.179098     19.73218    33.266138    8.6262235    12.612127     22.30075    14.235163 
  948000    153.93645     59211629            0     59212228    12.683332    22.410346    14.179016    19.735692     33.26496    8.6180494    12.612127     22.30075    14.235163 
  948200    168.42567     59211100            0     59211756    12.683316    22.410353    14.178923    19.734013    33.265682    8.6088017    12.612127     22.30075    14.235163 
  948400    270.50969     59211358            0     59212411    12.683299    22.410363     14.17893    19.732345    33.266694    8.6094123    12.612127     22.30075    14.235163 
  948600    163.79765     59210881            0     59211518    12.683332     22.41037    14.179153    19.735669    33.267395     8.631757    12.612127     22.30075    14.235163 
  948800     112.4805     59211796            0     59212234    12.683365    22.410347    14.179061    19.738946    33.265021    8.6225884    12.612127     22.30075    14.235163 
  949000    135.26092     59211400            0     59211927    12.683314    22.410356    14.179026    19.733871    33.265944    8.6190449    12.612127     22.30075    14.235163 
  949200    103.81917     59210975            0     59211379    12.683334    22.410381    14.179057    19.735872    33.268416    8.6221903    12.612127     22.30075    14.235163 
  949400    232.52882     59210496            0     59211401    12.683307    22.410374     14.17913    19.733188    33.267716    8.6294958    12.612127     22.30075    14.235163 
  949600    308.59763     59211679            0     59212880    12.683316    22.410353    14.178955    19.734013    33.265682    8.6119814    12.612127     22.30075    14.235163 
  949800    177.20199     59211098            0     59211788    12.683316    22.410353    14.179142    19.734024    33.265653    8.6306906    12.612127     22.30075    14.235163 
  950000    317.35678     59211787            0     59213022    12.683311    22.410361    14.179162    19.733585    33.266435    8.6326845    12.612127     22.30075    14.235163 
  950200    200.79303     59211938            0     59212719    12.683309    22.410352    14.178769    19.733356    33.265534    8.5933812    12.612127     22.30075    14.235163 
  950400    233.88753     59210424            0     59211334    12.683292    22.410349     14.17901    19.731664    33.265268    8.6174162    12.612127     22.30075    14.235163 
  950600    180.49218     59212091            0     59212793    12.683294    22.410354    14.178862    19.731799    33.265804    8.6026823    12.612127     22.30075    14.235163 
  950800    159.78748     59211881            0     59212503    12.683326    22.410349    14.178713    19.735005    33.265252    8.5876996    12.612127     22.30075    14.235163 
  951000    181.34964     59211074            0     59211780    12.683318     22.41032    14.179015    19.734277    33.262372    8.6179701    12.612127     22.30075    14.235163 
  951200    133.91177     59210412            0     59210934     12.68336    22.410323    14.178939    19.738423     33.26267    8.6103956    12.612127     22.30075    14.235163 
  951400    165.71877     59211185            0     59211830    12.683316    22.410353      14.1791    19.734021    33.265705    8.6264529    12.612127     22.30075    14.235163 
  951600    156.08672     59212043            0     59212651    12.683308    22.410354    14.179117    19.733231    33.265726    8.6281753    12.612127     22.30075    14.235163 
  951800    97.716426     59211466            0     59211846    12.683343    22.410349    14.179082    19.736743    33.265288    8.6246179    12.612127     22.30075    14.235163 
  952000    235.92363     59210261            0     59211179    12.683335    22.410353    14.178817    19.735935    33.265647    8.5981552    12.612127     22.30075    14.235163 
  952200    296.19855     59212417            0     59213570    12.683323    22.410354    14.178804    19.734793    33.265715    8.5968785    12.612127     22.30075    14.235163 
  952400    216.67424     59211413            0     59212256    12.683309    22.410367    14.179109    19.733315    33.267058    8.6274065    12.612127     22.30075    14.235163 
  952600    189.12469     59211174            0     59211911    12.683314    22.410324    14.178949     19.73387     33.26276    8.6113299    12.612127     22.30075    14.235163 
  952800    114.12125     59210703            0     59211147    12.683323    22.410339    14.179005    19.734732     33.26426     8.617009    12.612127     22.30075    14.235163 
  953000    201.97599     59211933            0     59212719    12.683368    22.410338    14.179018    19.739292     33.26413    8.6183095    12.612127     22.30075    14.235163 
  953200     203.8081     59212672            0     59213466    12.683317    22.410347    14.179144    19.734111    33.265104    8.6308338    12.612127     22.30075    14.235163 
  953400    191.59377     59210776            0     59211522    12.683314    22.410342    14.178951    19.733813    33.264551    8.6115465    12.612127     22.30075    14.235163 
  953600    167.79103     59211635            0     59212288    12.683321    22.410353    14.179148    19.734589     33.26565    8.6313011    12.612127     22.30075    14.235163 
  953800     309.6181     59211283            0     59212488    12.683316    22.410353    14.178889    19.734025    33.265681    8.6053394    12.612127     22.30075    14.235163 
  954000    194.89709     59211357            0     59212116    12.683334    22.410334    14.178866     19.73588    33.263725    8.6030929    12.612127     22.30075    14.235163 
  954200    81.078302     59211462            0     59211778    12.683316    22.410353    14.178973    19.734014    33.265681    8.6137448    12.612127     22.30075    14.235163 
  954400    129.83814     59211076            0     59211581    12.683344    22.410348    14.178852    19.736831    33.265109    8.6016699    12.612127     22.30075    14.235163 
  954600    255.28347     59211730            0     59212723    12.683309    22.410365     14.17887    19.733381    33.266817    8.6034644    12.612127     22.30075    14.235163 
  954800    260.49595     59211139            0     59212153    12.683314    22.410353    14.178878    19.733848    33.265679    8.6042357    12.612127     22.30075    14.235163 
  955000      177.361     59211406            0     59212097    12.683281    22.410377    14.178889    19.730551    33.268069    8.6053132    12.612127     22.30075    14.235163 
  955200    148.57815     59211442            0     59212020    12.683308    22.410351    14.178912    19.733235    33.265466    8.6076429    12.612127     22.30075    14.235163 
  955400    186.06885     59211836            0     59212560    12.683314    22.410351    14.178895    19.733802    33.265418    8.6059896    12.612127     22.30075    14.235163 
  955600    200.89519     59210491            0     59211273    12.683325    22.410339    14.178897    19.734913    33.264247    8.6061793    12.612127     22.30075    14.235163 
  955800    196.70776     59210359            0     59211125    12.683315    22.410373    14.178827    19.733917    33.267702    8.5991742    12.612127     22.30075    14.235163 
  956000     297.3721     59211036            0     59212194    12.683315    22.410353    14.178868    19.733975    33.265684    8.6032228    12.612127     22.30075    14.235163 
  956200    163.82781     59211210            0     59211848    12.683316    22.410353     14.17888    19.734012    33.265682    8.6044952    12.612127     22.30075    14.235163 
  956400    167.47324     59211785            0     59212437    12.683359     22.41034    14.179056     19.73835    33.264364    8.6220739    12.612127     22.30075    14.235163 
  956600    137.94218     59211554            0     59212091    12.683324    22.410366    14.178938    19.734855    33.266963    8.6102739    12.612127     22.30075    14.235163 
  956800    212.86282     59211258            0     59212087    12.683315    22.410353    14.179011    19.733991    33.265684    8.6175189    12.612127     22.30075    14.235163 
  957000    416.87988     59210122            0     59211745    12.683321    22.410352    14.179013     19.73453    33.265604    8.6177801    12.612127     22.30075    14.235163 
  957200     103.6634     59211986            0     59212389    12.683316    22.410353    14.178925    19.734012    33.265682    8.6089789    12.612127     22.30075    14.235163 
  957400    382.15044     59212137            0     59213625    12.683316    22.410353    14.179061    19.734001    33.265665    8.6225764    12.612127     22.30075    14.235163 
  957600    228.73261     59211474            0     59212365    12.683353    22.410372    14.179088    19.737719    33.267552    8.6252476    12.612127     22.30075    14.235163 
  957800    138.97116     59211053            0     59211594    12.683337    22.410371    14.178867    19.736196    33.267441     8.603198    12.612127     22.30075    14.235163 
  958000     115.7808     59211297            0     59211748    12.683317    22.410355    14.179031    19.734153    33.265899    8.6195827    12.612127     22.30075    14.235163 
  958200    208.00788     59212961            0     59213771    12.683321    22.410355    14.178957    19.734574    33.265899    8.6121483    12.612127     22.30075    14.235163 
  958400    190.01553     59212400            0     59213139    12.683292    22.410354    14.178877    19.731692    33.265752     8.604196    12.612127     22.30075    14.235163 
  958600    301.22803     59210797            0     59211970    12.683322    22.410353    14.178973    19.734619    33.265646    8.6137328    12.612127     22.30075    14.235163 
  958800    284.41707     59211890            0     59212997    12.683318    22.410354    14.178904    19.734241    33.265764    8.6068918    12.612127     22.30075    14.235163 
  959000    230.99685     59210812            0     59211711    12.683309    22.410365    14.179101    19.733339    33.266834    8.6265608    12.612127     22.30075    14.235163 
  959200    129.21273     59212027            0     59212530    12.683317    22.410351     14.17898    19.734098    33.265505    8.6144791    12.612127     22.30075    14.235163 
  959400    118.68069     59210622            0     59211084    12.683321     22.41036    14.179006    19.734499    33.266344    8.6170606    12.612127     22.30075    14.235163 
  959600     232.1972     59210709            0     59211613     12.68328    22.410355    14.178837    19.730401    33.265881    8.6001139    12.612127     22.30075    14.235163 
  959800    144.83974     59212207            0     59212771    12.683317    22.410353    14.178995    19.734175    33.265673    8.6159848    12.612127     22.30075    14.235163 
  960000    244.96886     59211236            0     59212190    12.683316    22.410354    14.179087       19.734    33.265714    8.6251766    12.612127     22.30075    14.235163 
  960200    162.37078     59212465            0     59213097    12.683316    22.410353    14.179107    19.734013    33.265683     8.627167    12.612127     22.30075    14.235163 
  960400    219.84818     59211935            0     59212791    12.683316    22.410353     14.17912    19.734011    33.265682    8.6284249    12.612127     22.30075    14.235163 
  960600    221.00311     59211353            0     59212213    12.683301    22.410382    14.178878    19.732537    33.268598    8.6042956    12.612127     22.30075    14.235163 
  960800    306.27806     59212270            0     59213463    12.683348    22.410351    14.178782    19.737246    33.265503    8.5946339    12.612127     22.30075    14.235163 
  961000    183.78378     59212447            0     59213162    12.683317    22.410358    14.179049    19.734144    33.266138    8.6213339    12.612127     22.30075    14.235163 
  961200    210.47714     59212060            0     59212880    12.683339    22.410351    14.178986    19.736302    33.265437     8.615071    12.612127     22.30075    14.235163 
  961400    153.26829     59212497            0     59213094    12.683338    22.410341    14.178784    19.736211    33.264453     8.594871    12.612127     22.30075    14.235163 
  961600    224.54639     59212599            0     59213473    12.683334    22.410352    14.178807    19.735895    33.265573    8.5971882    12.612127     22.30075    14.235163 
  961800    135.30729     59212256            0     59212782    12.683319    22.410332    14.179064    19.734355     33.26351    8.6229001    12.612127     22.30075    14.235163 
  962000    261.97978     59211721            0     59212741    12.683306    22.410339    14.179077    19.733092    33.264282    8.6241151    12.612127     22.30075    14.235163 
  962200     208.2989     59211212            0     59212023    12.683316    22.410353    14.178765    19.734006    33.265684    8.5929619    12.612127     22.30075    14.235163 
  962400    76.484501     59211759            0     59212057    12.683283    22.410355    14.179097    19.730786    33.265858    8.6261559    12.612127     22.30075    14.235163 
  962600    229.86371     59210884            0     59211779    12.683364     22.41036    14.179092    19.738899    33.266332    8.6256173    12.612127     22.30075    14.235163 
  962800    227.45692     59210596            0     59211481    12.683337    22.410377    14.179001     19.73615    33.268083    8.6165512    12.612127     22.30075    14.235163 
  963000    248.97022     59211456            0     59212426    12.683302    22.410366     14.17911    19.732617    33.266912    8.6274252    12.612127     22.30075    14.235163 
  963200    411.71224     59211049            0     59212652    12.683321    22.410353    14.178976    19.734548    33.265652    8.6140617    12.612127     22.30075    14.235163 
  963400    234.39388     59210535            0     59211447    12.683319    22.410353    14.179065    19.734343    33.265673     8.623001    12.612127     22.30075    14.235163 
  963600    240.16524     59210861            0     59211796    12.683309    22.410354    14.179065    19.733339    33.265719    8.6229573    12.612127     22.30075    14.235163 
  963800    244.40262     59211711            0     59212662    12.683316    22.410353    14.178942    19.734012    33.265682    8.6106223    12.612127     22.30075    14.235163 
  964000    299.05012     59210923            0     59212087    12.683271     22.41035    14.179169     19.72957    33.265336    8.6333225    12.612127     22.30075    14.235163 
  964200    253.73157     59211430            0     59212417    12.683311    22.410359    14.179023    19.733561    33.266279     8.618722    12.612127     22.30075    14.235163 
  964400    125.14246     59212189            0     59212676    12.683316    22.410353    14.179079    19.734012    33.265682    8.6243859    12.612127     22.30075    14.235163 
  964600    286.14335     59210730            0     59211844    12.683314    22.410353    14.178895    19.733819    33.265674    8.6059447    12.612127     22.30075    14.235163 
  964800     206.4578     59210964            0     59211768    12.683316    22.410353    14.178931    19.734032    33.265645    8.6095774    12.612127     22.30075    14.235163 
  965000    110.54103     59211406            0     59211837    12.683313    22.410355    14.178969    19.733796    33.265898    8.6133304    12.612127     22.30075    14.235163 
  965200    195.91421     59212114            0     59212877    12.683316    22.410367    14.178777    19.734017    33.267095    8.5941745    12.612127     22.30075    14.235163 
  965400    212.23394     59211023            0     59211849    12.683325    22.410347    14.178907    19.734975    33.265089    8.6071212    12.612127     22.30075    14.235163 
  965600     203.3907     59210430            0     59211222    12.683321    22.410346     14.17909    19.734531    33.264935    8.6254202    12.612127     22.30075    14.235163 
  965800    209.73234     59211043            0     59211859    12.683315    22.410353    14.179112    19.733979    33.265695    8.6276464    12.612127     22.30075    14.235163 
  966000    88.648856     59210960            0     59211306    12.683326    22.410353    14.178849    19.735052    33.265624    8.6013531    12.612127     22.30075    14.235163 
  966200    198.11745     59211379            0     59212150    12.683313    22.410339    14.178894     19.73372    33.264209    8.6058488    12.612127     22.30075    14.235163 
  966400    187.01697     59211189            0     59211917    12.683337    22.410311    14.178941    19.736184    33.261414    8.6105925    12.612127     22.30075    14.235163 
  966600     245.8572     59210491            0     59211448     12.68332    22.410344     14.17884    19.734469    33.264778    8.6004078    12.612127     22.30075    14.235163 
  966800    201.45223     59210935            0     59211720    12.683331    22.410324    14.178745    19.735529     33.26272     8.590977    12.612127     22.30075    14.235163 
  967000    183.70107     59211412            0     59212127    12.683315    22.410353    14.178992    19.733989    33.265682    8.6156292    12.612127     22.30075    14.235163 
  967200     190.6104     59210962            0     59211704    12.683323    22.410365    14.178903    19.734768    33.266843    8.6067762    12.612127     22.30075    14.235163 
  967400    173.66515     59211340            0     59212016    12.683326    22.410365    14.178828    19.735023    33.266889    8.5992089    12.612127     22.30075    14.235163 
  967600     274.2861     59212399            0     59213467    12.683318    22.410353    14.179169    19.734204    33.265671     8.633354    12.612127     22.30075    14.235163 
  967800    303.63331     59211032            0     59212214    12.683318    22.410377    14.179096    19.734267    33.268045    8.6260223    12.612127     22.30075    14.235163 
  968000    299.00425     59211286            0     59212450    12.683315    22.410353    14.178892    19.733974    33.265684    8.6056104    12.612127     22.30075    14.235163 
  968200    230.33932     59211374            0     59212270    12.683276    22.410323    14.178987    19.730014    33.262695      8.61515    12.612127     22.30075    14.235163 
  968400    274.51465     59211432            0     59212501    12.683325    22.410367    14.178963     19.73494    33.267105    8.6127907    12.612127     22.30075    14.235163 
  968600    150.75412     59212314            0     59212901    12.683315    22.410353    14.179084    19.733928    33.265686    8.6248967    12.612127     22.30075    14.235163 
  968800    178.67631     59211036            0     59211731    12.683278    22.410355    14.178895      19.7302    33.265816    8.6059529    12.612127     22.30075    14.235163 
  969000    148.20453     59211005            0     59211582    12.683314    22.410349    14.178987    19.733865    33.265289    8.6151968    12.612127     22.30075    14.235163 
  969200    247.65789     59211561            0     59212525    12.683316    22.410353    14.178983    19.734014    33.265682    8.6147861    12.612127     22.30075    14.235163 
  969400    194.82163     59211763            0     59212522    12.683331    22.410342    14.179005    19.735578    33.264522    8.6169563    12.612127     22.30075    14.235163 
  969600    273.13411     59211183            0     59212246    12.683346    22.410347    14.178929    19.737006    33.265053    8.6093422    12.612127     22.30075    14.235163 
  969800     191.3044     59211901            0     59212646    12.683296    22.410354    14.179187    19.732034     33.26578    8.6351485    12.612127     22.30075    14.235163 
  970000    179.95181     59211183            0     59211883    12.683323    22.410342     14.17893    19.734781     33.26453    8.6094212    12.612127     22.30075    14.235163 
  970200    138.83946     59210497            0     59211038    12.683275    22.410376    14.178964    19.729951    33.267988    8.6128863    12.612127     22.30075    14.235163 
  970400    176.81479     59211337            0     59212025    12.683332    22.410355     14.17896    19.735666    33.265895    8.6124196    12.612127     22.30075    14.235163 
  970600    278.37562     59210903            0     59211987    12.683323    22.410348    14.178995    19.734722    33.265144    8.6159673    12.612127     22.30075    14.235163 
  970800    278.84234     59211463            0     59212549    12.683303    22.410354     14.17902    19.732715    33.265754    8.6184754    12.612127     22.30075    14.235163 
  971000    157.73854     59211025            0     59211639    12.683313    22.410353     14.17892    19.733738    33.265697    8.6084996    12.612127     22.30075    14.235163 
  971200    130.92277     59212044            0     59212553    12.683322     22.41035    14.179005    19.734598    33.265366    8.6169686    12.612127     22.30075    14.235163 
  971400    212.84332     59212625            0     59213453    12.683325    22.410341    14.178813    19.734951    33.264474    8.5977475    12.612127     22.30075    14.235163 
  971600    210.34383     59211791            0     59212610     12.68333    22.410352      14.1788    19.735489     33.26558    8.5964516    12.612127     22.30075    14.235163 
  971800    131.76077     59211803            0     59212316    12.683316    22.410353    14.178828    19.734062    33.265679    8.5992642    12.612127     22.30075    14.235163 
  972000    176.79609     59212330            0     59213018    12.683333    22.410347    14.179014    19.735746    33.265087    8.6178844    12.612127     22.30075    14.235163 
  972200    291.45131     59211371            0     59212506    12.683316    22.410353    14.178947     19.73401    33.265685     8.611188    12.612127     22.30075    14.235163 
  972400    165.22822     59211612            0     59212255    12.683316    22.410353    14.178897    19.734013    33.265682    8.6061223    12.612127     22.30075    14.235163 
  972600    211.93232     59210867            0     59211692    12.683325    22.410364    14.179065    19.734917    33.266759    8.6229626    12.612127     22.30075    14.235163 
  972800    207.38401     59211135            0     59211942    12.683329    22.410353    14.178885    19.735357     33.26567    8.6049741    12.612127     22.30075    14.235163 
  973000    181.95778     59211360            0     59212068    12.683345    22.410382    14.178984    19.736959    33.268537      8.61484    12.612127     22.30075    14.235163 
  973200    352.97298     59211518            0     59212892    12.683317    22.410354    14.178753    19.734135    33.265725    8.5917496    12.612127     22.30075    14.235163 
  973400    128.28513     59211066            0     59211565    12.683316    22.410353    14.178896    19.734011    33.265682    8.6060511    12.612127     22.30075    14.235163 
  973600     129.3395     59211191            0     59211694    12.683296    22.410305    14.179163    19.732006    33.260825    8.6327782    12.612127     22.30075    14.235163 
  973800    189.61012     59212202            0     59212940    12.683326    22.410354    14.179122    19.735048    33.265714    8.6287069    12.612127     22.30075    14.235163 
  974000    238.70604     59211965            0     59212894    12.683305    22.410354    14.178978    19.732974    33.265739    8.6142522    12.612127     22.30075    14.235163 
  974200    136.28512     59211141            0     59211672    12.683316    22.410353    14.178944    19.734012    33.265682    8.6108455    12.612127     22.30075    14.235163 
  974400    278.48506     59211348            0     59212432    12.683339    22.410362    14.178935     19.73635    33.266559    8.6099457    12.612127     22.30075    14.235163 
  974600    120.94098     59211789            0     59212259    12.683326    22.410362    14.178957    19.735007    33.266581    8.6121846    12.612127     22.30075    14.235163 
  974800    125.75415     59211567            0     59212056    12.683314    22.410353    14.179055    19.733894    33.265689    8.6219551    12.612127     22.30075    14.235163 
  975000    217.05227     59210769            0     59211614    12.683284    22.410365    14.178903    19.730834    33.266837     8.606787    12.612127     22.30075    14.235163 
  975200    70.433638     59211023            0     59211297    12.683316    22.410353    14.178863    19.734052    33.265678    8.6027064    12.612127     22.30075    14.235163 
  975400    130.05132     59211100            0     59211606    12.683291    22.410341    14.178989    19.731503    33.264442    8.6153834    12.612127     22.30075    14.235163 
  975600     219.8671     59210821            0     59211677    12.683341    22.410317    14.178969    19.736538    33.262041    8.6133405    12.612127     22.30075    14.235163 
  975800    157.41825     59211222            0     59211835    12.683313    22.410351    14.178959    19.733793    33.265475    8.6123738    12.612127     22.30075    14.235163 
  976000    106.36914     59210766            0     59211180    12.683335    22.410367     14.17896    19.735951    33.267031    8.6124594    12.612127     22.30075    14.235163 
  976200     168.7155     59211782            0     59212439    12.683303    22.410333    14.178896    19.732715    33.263617    8.6060714    12.612127     22.30075    14.235163 
  976400     183.8603     59211544            0     59212260     12.68332    22.410353    14.178983    19.734482    33.265655    8.6147376    12.612127     22.30075    14.235163 
  976600    68.241342     59212415            0     59212680    12.683315    22.410353    14.179214    19.733971    33.265621    8.6378878    12.612127     22.30075    14.235163 
  976800    137.24841     59210781            0     59211315    12.683316    22.410353    14.178859    19.734012    33.265682    8.6023883    12.612127     22.30075    14.235163 
  977000    202.12081     59211422            0     59212209    12.683305     22.41036      14.1791    19.732986    33.266399    8.6264855    12.612127     22.30075    14.235163 
  977200    248.25782     59211783            0     59212750    12.683314    22.410353    14.179038    19.733803    33.265679    8.6202865    12.612127     22.30075    14.235163 
  977400    137.56048     59210956            0     59211492    12.683297    22.410354    14.178854    19.732146    33.265789    8.6018406    12.612127     22.30075    14.235163 
  977600     469.3677     59211480            0     59213307    12.683318    22.410349    14.179147    19.734229    33.265251    8.6311829    12.612127     22.30075    14.235163 
  977800    156.03845     59211504            0     59212111    12.683308    22.410328    14.179049    19.733279    33.263197    8.6213575    12.612127     22.30075    14.235163 
  978000    216.65988     59210925            0     59211768    12.683316    22.410353    14.179109     19.73402    33.265682    8.6273621    12.612127     22.30075    14.235163 
  978200    250.91826     59212841            0     59213818    12.683316    22.410353    14.178768    19.734011    33.265683    8.5932516    12.612127     22.30075    14.235163 
  978400    168.62455     59211715            0     59212372    12.683256    22.410357    14.178908    19.728025    33.266013    8.6072174    12.612127     22.30075    14.235163 
  978600    195.16901     59210390            0     59211150    12.683327    22.410344    14.178882    19.735151    33.264782    8.6046301    12.612127     22.30075    14.235163 
  978800    178.57501     59211511            0     59212206      12.6833     22.41033     14.17903    19.732441     33.26333    8.6195104    12.612127     22.30075    14.235163 
  979000    255.46911     59211494            0     59212489    12.683305    22.410377    14.178912    19.732937    33.268101    8.6076141    12.612127     22.30075    14.235163 
  979200    225.77193     59212193            0     59213072    12.683321    22.410353    14.179178    19.734562    33.265661    8.6342513    12.612127     22.30075    14.235163 
  979400    256.47151     59211922            0     59212920    12.683316    22.410352    14.179018    19.734058    33.265608    8.6182805    12.612127     22.30075    14.235163 
  979600    235.74538     59210944            0     59211862    12.683316    22.410353    14.179064    19.734019    33.265668    8.6228621    12.612127     22.30075    14.235163 
  979800    188.31724     59211131            0     59211864    12.683325    22.410329    14.178992    19.734908    33.263259    8.6156228    12.612127     22.30075    14.235163 
  980000    73.552309     59211071            0     59211357    12.683313    22.410353    14.178971    19.733741    33.265696    8.6135344    12.612127     22.30075    14.235163 
  980200    159.67573     59211307            0     59211928    12.683304    22.410353     14.17906    19.732815    33.265689    8.6224332    12.612127     22.30075    14.235163 
  980400    129.18444     59211314            0     59211817    12.683284    22.410355    14.178942    19.730862    33.265901    8.6106114    12.612127     22.30075    14.235163 
  980600    238.09788     59212175            0     59213102    12.683312    22.410353    14.178924    19.733652      33.2657    8.6088579    12.612127     22.30075    14.235163 
  980800    105.94998     59211975            0     59212387    12.683298    22.410374    14.179153     19.73222    33.267716    8.6317714    12.612127     22.30075    14.235163 
  981000    129.40108     59212183            0     59212686    12.683317    22.410354    14.178616    19.734146    33.265796    8.5780423    12.612127     22.30075    14.235163 
  981200    213.23118     59211285            0     59212115    12.683338    22.410353    14.178997    19.736215    33.265636    8.6161226    12.612127     22.30075    14.235163 
  981400    194.91372     59211213            0     59211972    12.683298    22.410322    14.178885    19.732274    33.262579    8.6049583    12.612127     22.30075    14.235163 
  981600    160.19821     59210890            0     59211513    12.683299    22.410374    14.178856    19.732386    33.267801    8.6020807    12.612127     22.30075    14.235163 
  981800    335.95133     59210879            0     59212187    12.683318    22.410348    14.178815    19.734279    33.265199    8.5979223    12.612127     22.30075    14.235163 
  982000    143.49886     59210969            0     59211527    12.683317    22.410355     14.17902     19.73412    33.265847    8.6184827    12.612127     22.30075    14.235163 
  982200    208.38229     59210919            0     59211730    12.683319    22.410369    14.179058    19.734336    33.267292    8.6222706    12.612127     22.30075    14.235163 
  982400    162.32614     59212067            0     59212699      12.6833      22.4103    14.179016    19.732412    33.260405    8.6180836    12.612127     22.30075    14.235163 
  982600    155.99639     59212795            0     59213402    12.683377    22.410374     14.17878    19.740141    33.267783    8.5944394    12.612127     22.30075    14.235163 
  982800    241.25468     59211951            0     59212890    12.683327    22.410356    14.178989    19.735187    33.265919    8.6153651    12.612127     22.30075    14.235163 
  983000    103.79417     59212220            0     59212624    12.683316    22.410353    14.179366    19.734012    33.265682    8.6530673    12.612127     22.30075    14.235163 
  983200    181.35354     59211583            0     59212289    12.683286    22.410357    14.178965     19.73102    33.266017    8.6129598    12.612127     22.30075    14.235163 
  983400    86.192963     59211991            0     59212326    12.683325    22.410368    14.178974    19.734965     33.26712    8.6138822    12.612127     22.30075    14.235163 
  983600    307.42077     59212405            0     59213602    12.683322    22.410354    14.179109    19.734655    33.265732    8.6273905    12.612127     22.30075    14.235163 
  983800    59.133869     59211264            0     59211494    12.683315    22.410355    14.178803      19.7339    33.265905    8.5967332    12.612127     22.30075    14.235163 
  984000     231.7424     59211173            0     59212075    12.683283    22.410355    14.178929    19.730769    33.265862    8.6093974    12.612127     22.30075    14.235163 
  984200    154.98452     59210904            0     59211507    12.683329    22.410348    14.178952    19.735387    33.265147    8.6116516    12.612127     22.30075    14.235163 
  984400    129.89283     59211723            0     59212229    12.683316    22.410353    14.179085    19.734016    33.265673    8.6249423    12.612127     22.30075    14.235163 
  984600    228.23259     59210870            0     59211759      12.6833    22.410401    14.179027    19.732472    33.270464    8.6191563    12.612127     22.30075    14.235163 
  984800    245.34892     59210600            0     59211555    12.683301    22.410353    14.179028    19.732584    33.265642    8.6192156    12.612127     22.30075    14.235163 
  985000    173.91639     59211249            0     59211926    12.683316    22.410353    14.178787    19.734022    33.265654    8.5951393    12.612127     22.30075    14.235163 
  985200    438.87535     59211231            0     59212940    12.683298    22.410351    14.178966    19.732208    33.265483    8.6130329    12.612127     22.30075    14.235163 
  985400    151.27341     59211035            0     59211624    12.683335    22.410351    14.179011    19.735904    33.265451     8.617547    12.612127     22.30075    14.235163 
  985600    229.78191     59211135            0     59212030    12.683311    22.410346    14.178967    19.733553    33.264981     8.613142    12.612127     22.30075    14.235163 
  985800    233.39011     59211509            0     59212417    12.683316    22.410353    14.179168    19.734012    33.265682    8.6333051    12.612127     22.30075    14.235163 
  986000    131.78949     59211536            0     59212049    12.683331    22.410365    14.179251    19.735539    33.266846      8.64153    12.612127     22.30075    14.235163 
  986200    149.05632     59212442            0     59213022    12.683335    22.410383    14.178963    19.735983    33.268682    8.6127521    12.612127     22.30075    14.235163 
  986400    171.31267     59210600            0     59211267    12.683308    22.410368     14.17897    19.733254    33.267175     8.613438    12.612127     22.30075    14.235163 
  986600    201.86075     59212192            0     59212978    12.683296    22.410355    14.179091    19.732058     33.26587    8.6255998    12.612127     22.30075    14.235163 
  986800    132.86955     59211215            0     59211732    12.683336    22.410404    14.179003    19.736067    33.270735    8.6167351    12.612127     22.30075    14.235163 
  987000    247.07315     59210693            0     59211655    12.683318    22.410353     14.17907    19.734297    33.265666    8.6234318    12.612127     22.30075    14.235163 
  987200    151.44253     59210815            0     59211405    12.683346    22.410352    14.179114    19.737083    33.265522    8.6278339    12.612127     22.30075    14.235163 
  987400    244.71778     59211527            0     59212479    12.683316    22.410353    14.178852    19.734013    33.265682    8.6016117    12.612127     22.30075    14.235163 
  987600    308.06001     59211262            0     59212461    12.683324    22.410367    14.179109    19.734802    33.267062    8.6273587    12.612127     22.30075    14.235163 
  987800    302.11502     59210943            0     59212119    12.683287    22.410375     14.17923    19.731154    33.267843    8.6395015    12.612127     22.30075    14.235163 
  988000     213.0678     59211495            0     59212324    12.683316    22.410353    14.179074    19.734072    33.265687    8.6238148    12.612127     22.30075    14.235163 
  988200    218.72677     59211045            0     59211896     12.68332    22.410345    14.179083    19.734463     33.26481    8.6247703    12.612127     22.30075    14.235163 
  988400    268.86149     59212386            0     59213433    12.683314    22.410363    14.178933    19.733832    33.266626    8.6097191    12.612127     22.30075    14.235163 
  988600    172.60225     59210978            0     59211650    12.683304    22.410336    14.179076    19.732799    33.263944    8.6240276    12.612127     22.30075    14.235163 
  988800    77.625585     59211388            0     59211690    12.683316    22.410353    14.179007    19.734012    33.265681    8.6171637    12.612127     22.30075    14.235163 
  989000    344.26943     59210655            0     59211995    12.683324    22.410351    14.178915    19.734828    33.265443     8.607946    12.612127     22.30075    14.235163 
  989200    213.28282     59211412            0     59212243    12.683331    22.410324    14.179147    19.735505    33.262732    8.6311754    12.612127     22.30075    14.235163 
  989400    194.48986     59210939            0     59211696     12.68331    22.410354    14.179001    19.733438    33.265713    8.6165434    12.612127     22.30075    14.235163 
  989600    317.72465     59211379            0     59212616    12.683353    22.410349    14.179058    19.737753    33.265231    8.6222426    12.612127     22.30075    14.235163 
  989800    461.92137     59210964            0     59212762    12.683329    22.410369    14.179012    19.735328    33.267222    8.6176189    12.612127     22.30075    14.235163 
  990000    224.87443     59211799            0     59212675    12.683317    22.410357    14.178975    19.734172    33.266027    8.6139378    12.612127     22.30075    14.235163 
  990200    216.81791     59211552            0     59212396    12.683316    22.410353    14.179045    19.734012    33.265682    8.6209968    12.612127     22.30075    14.235163 
  990400    219.10141     59211229            0     59212082    12.683325    22.410335    14.178897    19.734912    33.263901    8.6061723    12.612127     22.30075    14.235163 
  990600    291.52663     59210999            0     59212134    12.683321    22.410353    14.178936     19.73455    33.265652     8.610034    12.612127     22.30075    14.235163 
  990800    229.24094     59211045            0     59211938    12.683315    22.410353    14.179021    19.733937    33.265688    8.6185847    12.612127     22.30075    14.235163 
  991000    228.34534     59211472            0     59212361    12.683335    22.410311    14.178903    19.735996    33.261496    8.6067747    12.612127     22.30075    14.235163 
  991200    186.58836     59211434            0     59212160      12.6833    22.410383    14.178758    19.732431    33.268634    8.5922777    12.612127     22.30075    14.235163 
  991400    160.16462     59211029            0     59211653    12.683318    22.410338     14.17904    19.734236    33.264132     8.620464    12.612127     22.30075    14.235163 
  991600     219.3209     59210572            0     59211426    12.683293    22.410354    14.178976    19.731787    33.265805    8.6140878    12.612127     22.30075    14.235163 
  991800      295.486     59211082            0     59212233    12.683296    22.410354    14.178896    19.732057     33.26579    8.6061042    12.612127     22.30075    14.235163 
  992000    243.94459     59210856            0     59211805    12.683317    22.410351     14.17887    19.734106     33.26548    8.6034358    12.612127     22.30075    14.235163 
  992200    223.54642     59211308            0     59212178    12.683339    22.410352    14.178904    19.736341    33.265553    8.6068966    12.612127     22.30075    14.235163 
  992400    165.67549     59211450            0     59212095    12.683296    22.410383    14.178904    19.732083    33.268695    8.6068295    12.612127     22.30075    14.235163 
  992600    258.74989     59211831            0     59212838    12.683315    22.410353    14.179006    19.733995    33.265681    8.6170508    12.612127     22.30075    14.235163 
  992800     227.9902     59210881            0     59211769    12.683307     22.41034     14.17911    19.733128    33.264383    8.6274154    12.612127     22.30075    14.235163 
  993000    291.30333     59210558            0     59211692    12.683328    22.410353     14.17905    19.735244    33.265628    8.6214946    12.612127     22.30075    14.235163 
  993200    235.31821     59211638            0     59212554    12.683307    22.410327    14.178997    19.733175    33.263072    8.6161284    12.612127     22.30075    14.235163 
  993400     209.1152     59211850            0     59212664    12.683291    22.410355    14.179114    19.731504    33.265825    8.6278261    12.612127     22.30075    14.235163 
  993600    180.58605     59211913            0     59212616    12.683303    22.410356    14.179001    19.732751    33.265955    8.6165404    12.612127     22.30075    14.235163 
  993800    180.29145     59211910            0     59212612    12.683318    22.410353    14.179239    19.734218    33.265639     8.640403    12.612127     22.30075    14.235163 
  994000    324.69082     59211605            0     59212869    12.683316    22.410353    14.179133    19.734007    33.265681    8.6297451    12.612127     22.30075    14.235163 
  994200    233.07437     59210861            0     59211768    12.683311    22.410358    14.179041    19.733556    33.266147    8.6206015    12.612127     22.30075    14.235163 
  994400    211.10647     59211584            0     59212406    12.683316    22.410353     14.17903    19.734012    33.265682    8.6194346    12.612127     22.30075    14.235163 
  994600    142.91839     59211459            0     59212015    12.683295    22.410394    14.178784    19.731938    33.269737    8.5948237    12.612127     22.30075    14.235163 
  994800    354.55629     59211265            0     59212646    12.683348    22.410351    14.178951    19.737215    33.265504    8.6116058    12.612127     22.30075    14.235163 
  995000    149.75163     59212813            0     59213396    12.683313    22.410349     14.17891    19.733758    33.265294    8.6074272    12.612127     22.30075    14.235163 
  995200    340.93355     59210783            0     59212110    12.683316    22.410353    14.179117    19.734013    33.265682    8.6281162    12.612127     22.30075    14.235163 
  995400    213.17788     59211300            0     59212130    12.683289    22.410355    14.179074    19.731359    33.265828    8.6238612    12.612127     22.30075    14.235163 
  995600    134.71098     59211715            0     59212240    12.683327    22.410354    14.178708    19.735125    33.265765    8.5872439    12.612127     22.30075    14.235163 
  995800    201.18192     59211849            0     59212633    12.683309    22.410343    14.178921    19.733326    33.264629    8.6085283    12.612127     22.30075    14.235163 
  996000    119.31805     59212054            0     59212519    12.683316    22.410353    14.178945     19.73401    33.265674    8.6109724    12.612127     22.30075    14.235163 
  996200    206.70443     59212067            0     59212872    12.683325    22.410367    14.178944    19.734947    33.267024    8.6108822    12.612127     22.30075    14.235163 
  996400    259.64433     59211458            0     59212469    12.683315    22.410353    14.179063    19.733941    33.265686    8.6227459    12.612127     22.30075    14.235163 
  996600    79.129914     59211020            0     59211328    12.683287    22.410376    14.178956    19.731155    33.267964    8.6120606    12.612127     22.30075    14.235163 
  996800    168.12945     59211735            0     59212390    12.683345     22.41035    14.179074    19.736906     33.26536    8.6238347    12.612127     22.30075    14.235163 
  997000    337.55021     59211514            0     59212828    12.683314     22.41035    14.179142    19.733818    33.265384    8.6306217    12.612127     22.30075    14.235163 
  997200    211.98856     59211134            0     59211959    12.683345    22.410352    14.179156    19.736922    33.265522    8.6321018    12.612127     22.30075    14.235163 
  997400    307.92219     59210749            0     59211947    12.683297    22.410354    14.178884    19.732156    33.265787    8.6048866    12.612127     22.30075    14.235163 
  997600    136.49644     59212218            0     59212749    12.683266    22.410331    14.178934    19.729081    33.263462    8.6098963    12.612127     22.30075    14.235163 
  997800    131.78278     59211468            0     59211981    12.683332    22.410378    14.179017    19.735614    33.268193    8.6181468    12.612127     22.30075    14.235163 
  998000     311.2554     59211416            0     59212628    12.683308    22.410368    14.179059    19.733286    33.267192    8.6223224    12.612127     22.30075    14.235163 
  998200    233.43106     59211069            0     59211978    12.683293    22.410354    14.179025    19.731749    33.265799    8.6190027    12.612127     22.30075    14.235163 
  998400    126.52535     59211514            0     59212007    12.683315    22.410353    14.178977    19.733971    33.265652    8.6141419    12.612127     22.30075    14.235163 
  998600    197.62432     59211440            0     59212209    12.683315    22.410336    14.178957    19.733937    33.263953    8.6121473    12.612127     22.30075    14.235163 
  998800    199.48119     59211340            0     59212117    12.683282    22.410355    14.178992    19.730689    33.265871    8.6156792    12.612127     22.30075    14.235163 
  999000    266.59043     59212400            0     59213438    12.683315    22.410349    14.178861     19.73392    33.265253    8.6025282    12.612127     22.30075    14.235163 
  999200    130.08803     59211340            0     59211847    12.683317    22.410357    14.178803     19.73411      33.2661    8.5967697    12.612127     22.30075    14.235163 
  999400    109.57119     59211217            0     59211644    12.683297     22.41035    14.179069    19.732159    33.265309    8.6234108    12.612127     22.30075    14.235163 
  999600    121.49975     59211790            0     59212263    12.683316    22.410353    14.179013     19.73402    33.265682     8.617752    12.612127     22.30075    14.235163 
  999800     126.1329     59210649            0     59211140    12.683299    22.410361    14.179175    19.732308    33.266497    8.6339932    12.612127     22.30075    14.235163 
 1000000    170.79781     59211188            0     59211853    12.683317    22.410353    14.178884    19.734126    33.265675    8.6048079    12.612127     22.30075    14.235163 
 1000200    238.91966     59212121            0     59213051    12.683325    22.410377    14.178863    19.734924    33.268075    8.6027749    12.612127     22.30075    14.235163 
 1000400    192.97207     59211877            0     59212628    12.683342    22.410392     14.17897    19.736693    33.269537    8.6134841    12.612127     22.30075    14.235163 
 1000600    80.298877     59211290            0     59211603    12.683308    22.410354    14.178706    19.733249    33.265724    8.5870566    12.612127     22.30075    14.235163 
 1000800    259.50019     59211505            0     59212516    12.683289    22.410381    14.179049    19.731394    33.268445    8.6213811    12.612127     22.30075    14.235163 
 1001000    269.78235     59210705            0     59211755    12.683316    22.410353    14.178976    19.734043    33.265623    8.6140485    12.612127     22.30075    14.235163 
 1001200    175.67917     59211630            0     59212314    12.683284    22.410367    14.179204    19.730845    33.267032    8.6368424    12.612127     22.30075    14.235163 
 1001400    120.03371     59211597            0     59212064     12.68333    22.410341    14.179058    19.735487    33.264436    8.6222421    12.612127     22.30075    14.235163 
 1001600    176.21725     59211651            0     59212337    12.683316    22.410354    14.179027    19.734017    33.265744    8.6191276    12.612127     22.30075    14.235163 
 1001800    286.51033     59211614            0     59212729    12.683315    22.410353    14.179054    19.733954    33.265685    8.6219108    12.612127     22.30075    14.235163 
 1002000    194.61477     59210510            0     59211268    12.683289    22.410343    14.178973    19.731365    33.264628     8.613727    12.612127     22.30075    14.235163 
 1002200    158.21213     59211737            0     59212353    12.683304    22.410335    14.178751    19.732877    33.263837    8.5915687    12.612127     22.30075    14.235163 
 1002400    237.64132     59211489            0     59212414    12.683337    22.410356    14.179091    19.736182    33.265935    8.6255144    12.612127     22.30075    14.235163 
 1002600    221.30307     59210990            0     59211851    12.683318    22.410353    14.178918    19.734271    33.265677    8.6082483    12.612127     22.30075    14.235163 
 1002800    183.83533     59210668            0     59211384    12.683313    22.410353    14.179101     19.73378    33.265696    8.6265147    12.612127     22.30075    14.235163 
 1003000     293.8108     59211394            0     59212538    12.683306    22.410342     14.17894    19.733032    33.264594    8.6104696    12.612127     22.30075    14.235163 
 1003200    313.79643     59211525            0     59212747    12.683313    22.410348    14.179216    19.733723    33.265169    8.6380596    12.612127     22.30075    14.235163 
 1003400    250.36503     59211331            0     59212306    12.683282    22.410383    14.179053      19.7306    33.268705    8.6217776    12.612127     22.30075    14.235163 
 1003600    172.41365     59211267            0     59211938    12.683316    22.410353    14.179084    19.734029    33.265681    8.6249091    12.612127     22.30075    14.235163 
 1003800    186.94542     59211934            0     59212662    12.683316    22.410351    14.179085    19.734059    33.265489    8.6249476    12.612127     22.30075    14.235163 
 1004000    143.40668     59212378            0     59212936    12.683348    22.410351     14.17896    19.737227    33.265425    8.6124803    12.612127     22.30075    14.235163 
 1004200     176.6919     59211818            0     59212506    12.683306     22.41036     14.17894    19.733066    33.266397     8.610471    12.612127     22.30075    14.235163 
 1004400    232.68237     59212230            0     59213136    12.683298    22.410326    14.178968     19.73223     33.26294    8.6132431    12.612127     22.30075    14.235163 
 1004600    203.14031     59211825            0     59212616    12.683291    22.410396    14.178782    19.731563     33.26996    8.5946716    12.612127     22.30075    14.235163 
 1004800    202.08757     59211272            0     59212059    12.683314    22.410353    14.178823    19.733828     33.26569    8.5987427    12.612127     22.30075    14.235163 
 1005000    256.14142     59211050            0     59212047     12.68332    22.410347    14.178997    19.734448    33.265052    8.6161617    12.612127     22.30075    14.235163 
 1005200    126.49775     59211947            0     59212440    12.683315    22.410353    14.179038    19.733909    33.265702    8.6202495    12.612127     22.30075    14.235163 
 1005400    141.95018     59211210            0     59211763    12.683316    22.410353    14.178985    19.734009    33.265682    8.6149696    12.612127     22.30075    14.235163 
 1005600     133.6754     59211787            0     59212307    12.683316    22.410353    14.179114    19.734012    33.265682      8.62786    12.612127     22.30075    14.235163 
 1005800     195.4844     59211092            0     59211853    12.683336    22.410357     14.17914    19.736085    33.266108    8.6304971    12.612127     22.30075    14.235163 
 1006000    238.84585     59211727            0     59212656    12.683316    22.410354    14.178931    19.734044     33.26573    8.6095819    12.612127     22.30075    14.235163 
 1006200    194.51072     59211058            0     59211816    12.683298    22.410368    14.178864    19.732245    33.267146    8.6028562    12.612127     22.30075    14.235163 
 1006400    335.92209     59209956            0     59211264    12.683316    22.410353    14.178999    19.734042    33.265638    8.6163395    12.612127     22.30075    14.235163 
 1006600    104.99562     59211244            0     59211653    12.683287    22.410379    14.178953    19.731135    33.268242    8.6117449    12.612127     22.30075    14.235163 
 1006800    150.00435     59212097            0     59212681    12.683326    22.410333    14.179186    19.735013    33.263668    8.6350312    12.612127     22.30075    14.235163 
 1007000    165.51046     59211935            0     59212579    12.683297    22.410358    14.179257    19.732185    33.266158    8.6421219    12.612127     22.30075    14.235163 
 1007200    176.14809     59211355            0     59212041    12.683315    22.410353     14.17897    19.733906    33.265687    8.6134638    12.612127     22.30075    14.235163 
 1007400    160.07737     59211674            0     59212297    12.683316    22.410353    14.179063    19.734013    33.265682    8.6227833    12.612127     22.30075    14.235163 
 1007600    102.13821     59212524            0     59212922    12.683328    22.410353     14.17876     19.73527    33.265612    8.5924761    12.612127     22.30075    14.235163 
 1007800    398.03383     59210370            0     59211920     12.68333    22.410355    14.178946    19.735481    33.265812    8.6110393    12.612127     22.30075    14.235163 
 1008000    147.16359     59211183            0     59211756    12.683315    22.410353    14.178869    19.733986    33.265672    8.6033313    12.612127     22.30075    14.235163 
 1008200    205.55981     59210944            0     59211744    12.683316    22.410353    14.178928    19.734013    33.265682    8.6092628    12.612127     22.30075    14.235163 
 1008400    93.614326     59211022            0     59211386    12.683312    22.410349     14.17904    19.733657    33.265245    8.6204302    12.612127     22.30075    14.235163 
 1008600     156.9977     59211988            0     59212599    12.683303     22.41033    14.178803    19.732772    33.263366    8.5967065    12.612127     22.30075    14.235163 
 1008800    215.51097     59212701            0     59213540    12.683304    22.410354    14.178693    19.732876    33.265744    8.5857294    12.612127     22.30075    14.235163 
 1009000    224.27498     59210628            0     59211502    12.683313    22.410351      14.1791    19.733797    33.265498    8.6264818    12.612127     22.30075    14.235163 
 1009200    305.95542     59211577            0     59212768    12.683333    22.410345    14.179039    19.735716    33.264881    8.6204027    12.612127     22.30075    14.235163 
 1009400    220.84074     59211979            0     59212839    12.683318    22.410349    14.179114    19.734267    33.265227    8.6278292    12.612127     22.30075    14.235163 
 1009600    387.33885     59211159            0     59212667    12.683303    22.410366    14.178955    19.732732    33.266992    8.6119462    12.612127     22.30075    14.235163 
 1009800    187.90379     59210924            0     59211655    12.683303    22.410335    14.178983     19.73276    33.263834    8.6147876    12.612127     22.30075    14.235163 
 1010000    172.16023     59211258            0     59211928     12.68334    22.410332    14.178988    19.736481    33.263587     8.615255    12.612127     22.30075    14.235163 
 1010200    202.81883     59211585            0     59212374    12.683339    22.410358    14.178951     19.73639    33.266199    8.6116064    12.612127     22.30075    14.235163 
 1010400    188.07162     59211606            0     59212338    12.683308    22.410341    14.178807    19.733236    33.264489    8.5971192    12.612127     22.30075    14.235163 
 1010600    160.79969     59211904            0     59212530    12.683325    22.410326    14.179083    19.734905    33.262922    8.6247892    12.612127     22.30075    14.235163 
 1010800    145.11612     59210962            0     59211527    12.683308    22.410354    14.178846    19.733282     33.26574     8.601101    12.612127     22.30075    14.235163 
 1011000    218.68634     59211166            0     59212018    12.683341    22.410408    14.178841    19.736509    33.271132    8.6005877    12.612127     22.30075    14.235163 
 1011200     260.9717     59210637            0     59211653    12.683315    22.410389    14.178932    19.733967    33.269305     8.609663    12.612127     22.30075    14.235163 
 1011400    200.71763     59212249            0     59213030    12.683341     22.41035    14.179009    19.736545    33.265359    8.6173493    12.612127     22.30075    14.235163 
 1011600    109.59163     59211417            0     59211843    12.683316    22.410353    14.179054    19.734014    33.265678    8.6218489    12.612127     22.30075    14.235163 
 1011800    252.87185     59211743            0     59212727    12.683317    22.410353    14.179028    19.734109    33.265676    8.6192626    12.612127     22.30075    14.235163 
 1012000     181.5195     59211458            0     59212164    12.683334    22.410352    14.178944    19.735819    33.265581    8.6108974    12.612127     22.30075    14.235163 
 1012200      152.089     59210737            0     59211330      12.6833    22.410374    14.178891    19.732444    33.267722    8.6055594    12.612127     22.30075    14.235163 
 1012400    102.49612     59210965            0     59211364    12.683359    22.410327    14.179001    19.738324    33.263101    8.6165776    12.612127     22.30075    14.235163 
 1012600    294.71133     59211606            0     59212753    12.683314    22.410321     14.17888    19.733842    33.262497     8.604439    12.612127     22.30075    14.235163 
 1012800    251.04053     59211205            0     59212182    12.683324    22.410337    14.179052    19.734839    33.264078    8.6216424    12.612127     22.30075    14.235163 
 1013000    58.987069     59211491            0     59211721    12.683314    22.410353    14.178731    19.733816     33.26569    8.5895173    12.612127     22.30075    14.235163 
 1013200    133.68726     59211902            0     59212422    12.683328    22.410376    14.178963    19.735265    33.268007    8.6127849    12.612127     22.30075    14.235163 
 1013400    102.00446     59210627            0     59211024    12.683338    22.410352    14.178989    19.736275    33.265562    8.6153114    12.612127     22.30075    14.235163 
 1013600    209.60525     59211079            0     59211895     12.68333    22.410352    14.178821    19.735406    33.265582    8.5985484    12.612127     22.30075    14.235163 
 1013800    190.21516     59210891            0     59211632    12.683311    22.410379    14.178949    19.733504    33.268241    8.6113828    12.612127     22.30075    14.235163 
 1014000    281.51495     59210629            0     59211725    12.683347    22.410352    14.179084    19.737117    33.265525    8.6248517    12.612127     22.30075    14.235163 
 1014200    64.627273     59210740            0     59210991    12.683323    22.410364    14.179045    19.734708    33.266727    8.6209841    12.612127     22.30075    14.235163 
 1014400    129.23255     59210969            0     59211472    12.683335    22.410351    14.178988     19.73597    33.265504    8.6153008    12.612127     22.30075    14.235163 
 1014600     273.7609     59211519            0     59212584     12.68332    22.410353    14.178905    19.734445    33.265657    8.6069973    12.612127     22.30075    14.235163 
 1014800    152.98862     59211638            0     59212234    12.683322    22.410353    14.178881    19.734692    33.265644     8.604601    12.612127     22.30075    14.235163 
 1015000    162.39121     59212506            0     59213139    12.683316    22.410353    14.178831    19.734014    33.265681    8.5995087    12.612127     22.30075    14.235163 
 1015200    174.08056     59210616            0     59211294     12.68333    22.410325    14.178965    19.735439    33.262854      8.61294    12.612127     22.30075    14.235163 
 1015400    172.64646     59210586            0     59211258     12.68329    22.410355    14.179025    19.731455    33.265809    8.6189241    12.612127     22.30075    14.235163 
 1015600    177.00873     59211766            0     59212455    12.683314    22.410356    14.179102    19.733849    33.266006    8.6267049    12.612127     22.30075    14.235163 
 1015800    219.53855     59212887            0     59213742    12.683285    22.410367    14.179151     19.73093    33.267076    8.6315474    12.612127     22.30075    14.235163 
 1016000    247.63894     59210629            0     59211593    12.683316    22.410353    14.178881    19.734012    33.265681    8.6045912    12.612127     22.30075    14.235163 
 1016200    313.92751     59211592            0     59212814    12.683315    22.410355    14.179117     19.73394    33.265815    8.6282127    12.612127     22.30075    14.235163 
 1016400    122.27624     59211902            0     59212378    12.683318    22.410353    14.179191    19.734244    33.265679    8.6355414    12.612127     22.30075    14.235163 
 1016600    166.80106     59212401            0     59213050    12.683357    22.410343    14.179157     19.73819     33.26467    8.6321699    12.612127     22.30075    14.235163 
 1016800    150.86292     59211923            0     59212510    12.683312    22.410359    14.178714    19.733606    33.266295    8.5878028    12.612127     22.30075    14.235163 
 1017000     107.8076     59211404            0     59211823    12.683318    22.410356    14.178879     19.73422    33.266001    8.6043129    12.612127     22.30075    14.235163 
 1017200    178.11186     59210649            0     59211343    12.683307     22.41034    14.178875    19.733148    33.264359    8.6039253    12.612127     22.30075    14.235163 
 1017400    157.29978     59211242            0     59211854    12.683316    22.410353     14.17908    19.734028    33.265689    8.6244387    12.612127     22.30075    14.235163 
 1017600    159.72295     59212072            0     59212694    12.683311    22.410354    14.178858    19.733568    33.265721    8.6022515    12.612127     22.30075    14.235163 
 1017800    218.72713     59211968            0     59212819    12.683316    22.410354    14.178764    19.734022    33.265716    8.5928664    12.612127     22.30075    14.235163 
 1018000    57.384188     59210782            0     59211005    12.683343    22.410352    14.179054    19.736721    33.265574    8.6218924    12.612127     22.30075    14.235163 
 1018200    209.19346     59211234            0     59212048     12.68332    22.410378    14.179132     19.73442    33.268118    8.6296809    12.612127     22.30075    14.235163 
 1018400    134.62455     59212371            0     59212895    12.683289    22.410355    14.179048    19.731298    33.265837    8.6212788    12.612127     22.30075    14.235163 
 1018600    220.70066     59210998            0     59211857    12.683302    22.410354    14.178831    19.732686    33.265755    8.5995667    12.612127     22.30075    14.235163 
 1018800    168.98333     59210899            0     59211557    12.683312    22.410351     14.17876    19.733697    33.265446    8.5924471    12.612127     22.30075    14.235163 
 1019000    292.72505     59211259            0     59212399    12.683309    22.410354    14.178877     19.73334    33.265748    8.6041875    12.612127     22.30075    14.235163 
 1019200    287.83557     59210739            0     59211860    12.683319    22.410359    14.179013     19.73438    33.266246    8.6177499    12.612127     22.30075    14.235163 
 1019400     163.6446     59212186            0     59212823    12.683285    22.410326    14.178924    19.730979    33.262992    8.6088668    12.612127     22.30075    14.235163 
 1019600    153.05037     59211577            0     59212173    12.683341    22.410345    14.179036    19.736568    33.264894    8.6200406    12.612127     22.30075    14.235163 
 1019800    202.21466     59212152            0     59212939    12.683307    22.410353     14.17896     19.73319    33.265632    8.6124977    12.612127     22.30075    14.235163 
 1020000    212.76528     59212321            0     59213149    12.683316    22.410353    14.179183    19.734016    33.265682    8.6347203    12.612127     22.30075    14.235163 
 1020200    283.35618     59210826            0     59211929    12.683336     22.41034    14.179169    19.736059    33.264402    8.6333465    12.612127     22.30075    14.235163 
 1020400    185.56081     59210202            0     59210925    12.683322    22.410388    14.179083    19.734669    33.269175    8.6247381    12.612127     22.30075    14.235163 
 1020600     270.1827     59210840            0     59211892    12.683316    22.410353     14.17886    19.734052    33.265679    8.6024475    12.612127     22.30075    14.235163 
 1020800    81.505053     59211002            0     59211320    12.683335     22.41039    14.178963     19.73594    33.269341    8.6127587    12.612127     22.30075    14.235163 
 1021000    285.18655     59210599            0     59211709    12.683316    22.410353     14.17906    19.734013    33.265682    8.6224144    12.612127     22.30075    14.235163 
 1021200    299.44852     59211445            0     59212611    12.683307    22.410369    14.178935    19.733135    33.267275    8.6099827    12.612127     22.30075    14.235163 
 1021400    295.22037     59211113            0     59212263    12.683316    22.410353    14.178922    19.734004    33.265683    8.6087057    12.612127     22.30075    14.235163 
 1021600    171.98556     59211549            0     59212218     12.68329    22.410359    14.178945    19.731487    33.266214    8.6109313    12.612127     22.30075    14.235163 
 1021800    245.14235     59211031            0     59211985    12.683295    22.410354    14.178935    19.731964    33.265795     8.609934    12.612127     22.30075    14.235163 
 1022000    203.93594     59211132            0     59211926    12.683313    22.410351    14.179062    19.733741    33.265507     8.622712    12.612127     22.30075    14.235163 
 1022200    276.65967     59210606            0     59211683    12.683316    22.410353    14.179037    19.734037     33.26568    8.6201398    12.612127     22.30075    14.235163 
 1022400    231.13529     59211052            0     59211952     12.68331    22.410356    14.178797    19.733397    33.265984    8.5962013    12.612127     22.30075    14.235163 
 1022600    185.78087     59211994            0     59212717    12.683314    22.410356    14.178764    19.733879    33.265953    8.5928031    12.612127     22.30075    14.235163 
 1022800     203.5854     59211991            0     59212783    12.683325    22.410338    14.179049    19.734904    33.264157    8.6213774    12.612127     22.30075    14.235163 
 1023000    154.26516     59210970            0     59211570    12.683305    22.410354    14.178964    19.732974    33.265736     8.612811    12.612127     22.30075    14.235163 
 1023200    247.58521     59212517            0     59213481    12.683326    22.410343    14.179069    19.735052    33.264653    8.6233637    12.612127     22.30075    14.235163 
 1023400    43.827602     59211158            0     59211329    12.683321    22.410361     14.17892    19.734541    33.266492    8.6084205    12.612127     22.30075    14.235163 
 1023600    80.594188     59211117            0     59211431    12.683332    22.410377    14.178807    19.735685    33.268016    8.5971749    12.612127     22.30075    14.235163 
 1023800    231.82719     59211788            0     59212691    12.683343    22.410363    14.178955    19.736712    33.266627    8.6119405    12.612127     22.30075    14.235163 
 1024000    127.30085     59210660            0     59211156    12.683289    22.410358    14.178891    19.731394    33.266146    8.6055279    12.612127     22.30075    14.235163 
 1024200    162.65095     59211578            0     59212211    12.683315    22.410353    14.178888    19.733965    33.265669    8.6052868    12.612127     22.30075    14.235163 
 1024400    175.09746     59210981            0     59211663    12.683314    22.410328    14.178983    19.733846    33.263123    8.6147584    12.612127     22.30075    14.235163 
 1024600    226.05455     59210769            0     59211649    12.683304    22.410335     14.17913    19.732881    33.263845    8.6294806    12.612127     22.30075    14.235163 
 1024800    91.803292     59211372            0     59211730    12.683311    22.410362    14.179119    19.733563    33.266566     8.628363    12.612127     22.30075    14.235163 
 1025000    175.00832     59211942            0     59212623    12.683302    22.410359    14.178966    19.732627    33.266271    8.6130658    12.612127     22.30075    14.235163 
 1025200    280.31145     59210699            0     59211790    12.683307    22.410354    14.178991    19.733156    33.265804    8.6156005    12.612127     22.30075    14.235163 
 1025400    200.78535     59212120            0     59212902    12.683311    22.410351    14.178696    19.733518    33.265484    8.5860648    12.612127     22.30075    14.235163 
 1025600    180.56719     59211325            0     59212028    12.683351    22.410359    14.179009    19.737506    33.266224    8.6173685    12.612127     22.30075    14.235163 
 1025800    82.652022     59211701            0     59212022    12.683311    22.410364    14.178873    19.733498    33.266718    8.6037813    12.612127     22.30075    14.235163 
 1026000    168.31032     59211168            0     59211823    12.683304    22.410354    14.179025    19.732881    33.265744    8.6189724    12.612127     22.30075    14.235163 
 1026200    315.23272     59210670            0     59211897    12.683316    22.410353    14.178816     19.73407    33.265679    8.5980126    12.612127     22.30075    14.235163 
 1026400    140.50498     59211254            0     59211801    12.683297    22.410319    14.178998    19.732144    33.262218    8.6162879    12.612127     22.30075    14.235163 
 1026600    124.39729     59212388            0     59212872    12.683316    22.410353    14.179112    19.734012    33.265682    8.6277142    12.612127     22.30075    14.235163 
 1026800    186.13626     59211520            0     59212245    12.683293    22.410355    14.178922     19.73172    33.265887    8.6086392    12.612127     22.30075    14.235163 
 1027000    132.89939     59211590            0     59212107    12.683316    22.410353     14.17898    19.734011    33.265682    8.6144334    12.612127     22.30075    14.235163 
 1027200    285.98021     59211718            0     59212832    12.683317    22.410353    14.178788    19.734119    33.265676    8.5952053    12.612127     22.30075    14.235163 
 1027400    229.20279     59211749            0     59212642    12.683338    22.410379    14.179029    19.736208    33.268296     8.619326    12.612127     22.30075    14.235163 
 1027600    325.00197     59210920            0     59212185    12.683313    22.410351    14.178987    19.733737     33.26546    8.6151919    12.612127     22.30075    14.235163 
 1027800    261.74763     59210924            0     59211943    12.683326    22.410373    14.178887    19.735005    33.267634     8.605177    12.612127     22.30075    14.235163 
 1028000     121.1798     59212082            0     59212553    12.683312    22.410359    14.179021    19.733697     33.26626    8.6185945    12.612127     22.30075    14.235163 
 1028200    104.06564     59211743            0     59212149     12.68331    22.410353     14.17891    19.733409    33.265707    8.6074141    12.612127     22.30075    14.235163 
 1028400    156.95965     59211582            0     59212193    12.683308    22.410364    14.178844    19.733278    33.266759    8.6008315    12.612127     22.30075    14.235163 
 1028600    212.03373     59210881            0     59211707    12.683346     22.41037    14.178995    19.737021     33.26739    8.6159192    12.612127     22.30075    14.235163 
 1028800    241.38969     59210890            0     59211830    12.683288    22.410326     14.17886    19.731227     33.26291    8.6024416    12.612127     22.30075    14.235163 
 1029000    243.89294     59210766            0     59211716    12.683349    22.410351    14.178867    19.737365    33.265474    8.6031425    12.612127     22.30075    14.235163 
 1029200    88.439482     59211038            0     59211383    12.683298    22.410361    14.179046    19.732214    33.266466    8.6210353    12.612127     22.30075    14.235163 
 1029400    242.57631     59210901            0     59211846    12.683313    22.410349    14.179108    19.733791    33.265225    8.6272514    12.612127     22.30075    14.235163 
 1029600    200.06153     59210866            0     59211645    12.683327    22.410332    14.179151    19.735128    33.263547    8.6316086    12.612127     22.30075    14.235163 
 1029800    139.28027     59211678            0     59212221    12.683316    22.410352    14.179017    19.734008    33.265573    8.6181316    12.612127     22.30075    14.235163 
 1030000    173.98259     59211353            0     59212030    12.683317    22.410351     14.17898    19.734106    33.265498    8.6145048    12.612127     22.30075    14.235163 
 1030200    161.98375     59211169            0     59211800    12.683284    22.410355    14.179048     19.73083     33.26581    8.6212335    12.612127     22.30075    14.235163 
 1030400     233.3245     59210494            0     59211402    12.683316    22.410353    14.178971    19.734008    33.265677    8.6135886    12.612127     22.30075    14.235163 
 1030600    285.08406     59210662            0     59211772    12.683332     22.41034    14.178935    19.735626    33.264319    8.6099985    12.612127     22.30075    14.235163 
 1030800    245.80264     59210871            0     59211828    12.683314    22.410353    14.178821    19.733842    33.265691     8.598531    12.612127     22.30075    14.235163 
 1031000    81.839379     59210681            0     59210999    12.683327    22.410325    14.179061    19.735145    33.262885    8.6225489    12.612127     22.30075    14.235163 
 1031200    198.41181     59211831            0     59212603    12.683285    22.410346     14.17889     19.73098    33.264975    8.6054934    12.612127     22.30075    14.235163 
 1031400    248.64482     59210781            0     59211749    12.683322    22.410362    14.178978    19.734599     33.26658    8.6142462    12.612127     22.30075    14.235163 
 1031600    231.91063     59211511            0     59212414    12.683328    22.410356    14.178976    19.735199    33.265988    8.6140413    12.612127     22.30075    14.235163 
 1031800     227.6516     59210915            0     59211801      12.6833    22.410378    14.178932    19.732446    33.268151    8.6096359    12.612127     22.30075    14.235163 
 1032000    158.35417     59212329            0     59212946     12.68331    22.410349    14.179121    19.733399    33.265256    8.6285419    12.612127     22.30075    14.235163 
 1032200    229.19005     59210730            0     59211623    12.683316    22.410354     14.17894    19.734025    33.265719    8.6104353    12.612127     22.30075    14.235163 
 1032400    138.64416     59211479            0     59212019    12.683316    22.410353    14.179123    19.734054    33.265671    8.6287685    12.612127     22.30075    14.235163 
 1032600    302.27346     59211066            0     59212243    12.683286    22.410355    14.179092    19.731052    33.265843    8.6256372    12.612127     22.30075    14.235163 
 1032800    263.50107     59210763            0     59211788    12.683315    22.410338    14.178938    19.733918    33.264164    8.6102113    12.612127     22.30075    14.235163 
 1033000    107.70618     59212018            0     59212437    12.683312     22.41033    14.178622    19.733688    33.263309    8.5786115    12.612127     22.30075    14.235163 
 1033200    188.45385     59210864            0     59211598    12.683279    22.410395    14.179005    19.730297    33.269902    8.6169598    12.612127     22.30075    14.235163 
 1033400    223.87172     59210850            0     59211721    12.683316    22.410353    14.178937    19.734012    33.265682    8.6101272    12.612127     22.30075    14.235163 
 1033600     182.9422     59211892            0     59212604    12.683306    22.410354    14.179145     19.73309    33.265734    8.6309243    12.612127     22.30075    14.235163 
 1033800    300.74673     59210549            0     59211720    12.683312    22.410361    14.179143    19.733665    33.266436    8.6307283    12.612127     22.30075    14.235163 
 1034000    149.90987     59211052            0     59211635    12.683336    22.410309    14.179057    19.736008    33.261298    8.6221876    12.612127     22.30075    14.235163 
 1034200    185.47691     59210139            0     59210861    12.683325    22.410354    14.179008    19.734987    33.265783    8.6172584    12.612127     22.30075    14.235163 
 1034400     312.3045     59211087            0     59212302    12.683287    22.410349    14.178862    19.731168    33.265209     8.602617    12.612127     22.30075    14.235163 
 1034600     135.1899     59211027            0     59211553    12.683314     22.41035    14.179015     19.73383    33.265347    8.6179795    12.612127     22.30075    14.235163 
 1034800    198.83493     59211515            0     59212289    12.683316    22.410353    14.179256    19.734011    33.265683    8.6420317    12.612127     22.30075    14.235163 
 1035000    201.33741     59211355            0     59212139      12.6833    22.410355    14.178916    19.732417    33.265897    8.6080631    12.612127     22.30075    14.235163 
 1035200    202.97919     59210798            0     59211588    12.683338    22.410352    14.178898    19.736265    33.265557    8.6062752    12.612127     22.30075    14.235163 
 1035400    121.24811     59211214            0     59211686    12.683366    22.410379    14.178751    19.739047    33.268243    8.5915886    12.612127     22.30075    14.235163 
 1035600    151.82306     59210546            0     59211137    12.683328    22.410353    14.178929    19.735212    33.265615    8.6093331    12.612127     22.30075    14.235163 
 1035800    123.28675     59210703            0     59211182    12.683342    22.410352    14.179129    19.736612    33.265521    8.6293187    12.612127     22.30075    14.235163 
 1036000    194.36123     59210679            0     59211436    12.683308    22.410331    14.178903    19.733224    33.263476    8.6067482    12.612127     22.30075    14.235163 
 1036200     182.7152     59212784            0     59213496    12.683316    22.410353     14.17872    19.734015    33.265685    8.5884335    12.612127     22.30075    14.235163 
 1036400    181.88432     59211415            0     59212123    12.683294    22.410338    14.179022    19.731814     33.26412    8.6186516    12.612127     22.30075    14.235163 
 1036600    231.14779     59211356            0     59212256    12.683321    22.410362    14.179029    19.734564    33.266563    8.6193736    12.612127     22.30075    14.235163 
 1036800    187.05766     59211338            0     59212066    12.683316    22.410361    14.178956    19.734092    33.266443    8.6121007    12.612127     22.30075    14.235163 
 1037000    141.99341     59213108            0     59213661    12.683317    22.410373    14.179042    19.734182    33.267696    8.6206224    12.612127     22.30075    14.235163 
 1037200    182.19217     59211831            0     59212540    12.683319    22.410371    14.179107    19.734368    33.267435    8.6271928    12.612127     22.30075    14.235163 
 1037400    178.00763     59210863            0     59211556    12.683331    22.410325    14.179046    19.735506    33.262816    8.6210274    12.612127     22.30075    14.235163 
 1037600    153.43329     59210999            0     59211597    12.683324    22.410371    14.178921    19.734847    33.267458    8.6085786    12.612127     22.30075    14.235163 
 1037800    126.74471     59211257            0     59211751    12.683307    22.410372    14.179028    19.733144     33.26753     8.619279    12.612127     22.30075    14.235163 
 1038000    219.90627     59211338            0     59212194    12.683303    22.410317    14.178903    19.732741    33.262032    8.6067173    12.612127     22.30075    14.235163 
 1038200     190.1531     59211353            0     59212093    12.683311    22.410347     14.17916    19.733551    33.265023    8.6324831    12.612127     22.30075    14.235163 
 1038400    275.14107     59211461            0     59212532    12.683326     22.41037     14.17891    19.735091    33.267312    8.6074478    12.612127     22.30075    14.235163 
 1038600    233.83265     59211773            0     59212684    12.683306     22.41034    14.179157    19.733082    33.264383    8.6321582    12.612127     22.30075    14.235163 
 1038800    86.021207     59211085            0     59211420    12.683322    22.410353     14.17908    19.734629    33.265647    8.6244279    12.612127     22.30075    14.235163 
 1039000     146.6733     59211038            0     59211609    12.683318    22.410352    14.179132    19.734267    33.265595    8.6296819    12.612127     22.30075    14.235163 
 1039200    164.73356     59211586            0     59212228    12.683314    22.410352    14.178891    19.733893    33.265574    8.6055204    12.612127     22.30075    14.235163 
 1039400     322.1023     59210539            0     59211793    12.683295    22.410347    14.179162    19.731995    33.265085      8.63263    12.612127     22.30075    14.235163 
 1039600    306.83039     59211816            0     59213011    12.683316    22.410355    14.178989    19.734072    33.265813    8.6154017    12.612127     22.30075    14.235163 
 1039800    151.70334     59211748            0     59212338     12.68334    22.410351    14.178907    19.736468    33.265436    8.6071626    12.612127     22.30075    14.235163 
 1040000    136.47433     59211120            0     59211652    12.683353    22.410354    14.179199    19.737754    33.265749     8.636385    12.612127     22.30075    14.235163 
 1040200    250.69425     59211299            0     59212275    12.683316    22.410353    14.178953    19.734013    33.265683    8.6117735    12.612127     22.30075    14.235163 
 1040400    136.50431     59210901            0     59211433    12.683297    22.410331    14.179001    19.732183    33.263466    8.6166008    12.612127     22.30075    14.235163 
 1040600    197.40325     59211737            0     59212506    12.683316    22.410353    14.178752    19.734083    33.265678    8.5916992    12.612127     22.30075    14.235163 
 1040800    158.04929     59211349            0     59211964    12.683316    22.410353    14.178894    19.734034     33.26564    8.6058811    12.612127     22.30075    14.235163 
 1041000    165.37497     59211052            0     59211695    12.683297    22.410367    14.178938      19.7321    33.267014    8.6102735    12.612127     22.30075    14.235163 
 1041200    214.17866     59210940            0     59211774    12.683321     22.41032    14.178806     19.73456    33.262396    8.5970589    12.612127     22.30075    14.235163 
 1041400    218.06481     59212352            0     59213201    12.683316    22.410353     14.17871     19.73401    33.265678    8.5874746    12.612127     22.30075    14.235163 
 1041600    230.83487     59211461            0     59212360    12.683316    22.410353    14.178786    19.734015    33.265682    8.5950939    12.612127     22.30075    14.235163 
 1041800    144.18295     59211823            0     59212384    12.683321    22.410329    14.179114    19.734575    33.263215    8.6278317    12.612127     22.30075    14.235163 
 1042000    163.88846     59211541            0     59212179    12.683358    22.410354    14.178845    19.738249    33.265782    8.6009535    12.612127     22.30075    14.235163 
 1042200    201.83592     59210693            0     59211479    12.683305    22.410324    14.179215    19.732962     33.26278    8.6379208    12.612127     22.30075    14.235163 
 1042400    124.77372     59211196            0     59211681    12.683316    22.410353    14.179079    19.734013    33.265682    8.6243842    12.612127     22.30075    14.235163 
 1042600    203.81557     59211447            0     59212241    12.683329    22.410344    14.178902    19.735353    33.264728     8.606652    12.612127     22.30075    14.235163 
 1042800    192.43276     59211172            0     59211922    12.683316    22.410353    14.178982    19.734024    33.265678    8.6146724    12.612127     22.30075    14.235163 
 1043000    148.38313     59210677            0     59211254    12.683316    22.410353    14.179076    19.734012    33.265682    8.6240632    12.612127     22.30075    14.235163 
 1043200    192.79304     59210190            0     59210941    12.683352    22.410361    14.178919    19.737687    33.266489    8.6083241    12.612127     22.30075    14.235163 
 1043400    120.01021     59211407            0     59211874    12.683269    22.410353    14.178994    19.729364    33.265633    8.6158182    12.612127     22.30075    14.235163 
 1043600    295.98849     59211341            0     59212493    12.683315    22.410354    14.178857     19.73398    33.265746    8.6021782    12.612127     22.30075    14.235163 
 1043800    199.44561     59212259            0     59213036    12.683316    22.410353    14.179013    19.734012    33.265683    8.6177685    12.612127     22.30075    14.235163 
 1044000    228.73991     59211751            0     59212642    12.683323    22.410361    14.178999     19.73474     33.26647    8.6163487    12.612127     22.30075    14.235163 
 1044200    144.86494     59212313            0     59212877    12.683316    22.410353    14.178827    19.734015    33.265681    8.5991083    12.612127     22.30075    14.235163 
 1044400    165.46102     59212475            0     59213119    12.683299    22.410366    14.179284    19.732309    33.266983    8.6449176    12.612127     22.30075    14.235163 
 1044600    309.52584     59211702            0     59212906    12.683314    22.410357    14.179092    19.733828    33.266066    8.6256642    12.612127     22.30075    14.235163 
 1044800    286.22152     59212040            0     59213154    12.683367    22.410339    14.179003    19.739173    33.264237    8.6167658    12.612127     22.30075    14.235163 
 1045000    226.55982     59210631            0     59211513    12.683311    22.410349    14.179016     19.73355      33.2653    8.6180218    12.612127     22.30075    14.235163 
 1045200    262.19138     59211967            0     59212988    12.683319    22.410359    14.179208    19.734392    33.266263    8.6373097    12.612127     22.30075    14.235163 
 1045400    217.63275     59210910            0     59211757    12.683317    22.410355    14.179023    19.734142    33.265879    8.6187696    12.612127     22.30075    14.235163 
 1045600    187.09771     59210999            0     59211727    12.683317    22.410358    14.178903    19.734143    33.266194    8.6067534    12.612127     22.30075    14.235163 
 1045800    325.38969     59210903            0     59212169    12.683314    22.410333    14.178909    19.733882    33.263706    8.6074041    12.612127     22.30075    14.235163 
 1046000    245.28898     59211270            0     59212225    12.683295    22.410324    14.178809    19.731982    33.262791     8.597362    12.612127     22.30075    14.235163 
 1046200    225.45461     59210692            0     59211570    12.683316    22.410353     14.17886    19.734013    33.265682    8.6024595    12.612127     22.30075    14.235163 
 1046400    312.39093     59211627            0     59212843    12.683312     22.41035     14.17903    19.733617    33.265349    8.6194675    12.612127     22.30075    14.235163 
 1046600    183.09736     59211141            0     59211854    12.683337    22.410361    14.178994    19.736159     33.26646    8.6158169    12.612127     22.30075    14.235163 
 1046800     236.6317     59210937            0     59211858    12.683315    22.410352    14.179046     19.73399    33.265517    8.6210205    12.612127     22.30075    14.235163 
 1047000    185.38013     59212170            0     59212892    12.683325    22.410348    14.178905    19.734929    33.265199    8.6069827    12.612127     22.30075    14.235163 
 1047200    221.55126     59212042            0     59212904    12.683318    22.410346    14.178929    19.734198    33.264983    8.6093742    12.612127     22.30075    14.235163 
 1047400    125.30268     59211223            0     59211711    12.683317    22.410398    14.179064    19.734164    33.270174     8.622856    12.612127     22.30075    14.235163 
 1047600    161.23601     59212024            0     59212651    12.683337    22.410331    14.178657    19.736178    33.263414     8.582111    12.612127     22.30075    14.235163 
 1047800    289.22819     59211576            0     59212702    12.683316    22.410353    14.179044    19.734015    33.265671    8.6208529    12.612127     22.30075    14.235163 
 1048000    117.06035     59211523            0     59211979    12.683313    22.410353    14.179052    19.733714     33.26569    8.6216151    12.612127     22.30075    14.235163 
 1048200     173.6998     59212962            0     59213638    12.683314    22.410382    14.179175    19.733855    33.268526    8.6340131    12.612127     22.30075    14.235163 
 1048400    170.55448     59211449            0     59212113     12.68331    22.410342    14.178958    19.733479    33.264594    8.6122281    12.612127     22.30075    14.235163 
 1048600    91.289492     59211513            0     59211869    12.683301    22.410369    14.179109    19.732538     33.26725    8.6274031    12.612127     22.30075    14.235163 
 1048800    182.02894     59211146            0     59211854    12.683343    22.410329    14.179066    19.736744    33.263256    8.6230638    12.612127     22.30075    14.235163 
 1049000    142.67723     59211615            0     59212170    12.683302    22.410356    14.178928    19.732632    33.265957     8.609262    12.612127     22.30075    14.235163 
 1049200    155.02677     59210824            0     59211428    12.683271    22.410347    14.179068    19.729515    33.265076    8.6232992    12.612127     22.30075    14.235163 
 1049400     305.1623     59210779            0     59211967    12.683313    22.410393    14.178984    19.733733     33.26967    8.6148694    12.612127     22.30075    14.235163 
 1049600    342.84309     59211731            0     59213065    12.683314    22.410355    14.178952    19.733864    33.265823    8.6116737    12.612127     22.30075    14.235163 
 1049800    193.40505     59211874            0     59212627    12.683301    22.410329    14.178914    19.732541     33.26325    8.6078308    12.612127     22.30075    14.235163 
 1050000    330.78094     59210474            0     59211762    12.683316    22.410353    14.178869    19.734013    33.265682    8.6034016    12.612127     22.30075    14.235163 
 1050200    170.44776     59211143            0     59211807    12.683283    22.410336    14.178995    19.730795    33.263929    8.6159116    12.612127     22.30075    14.235163 
 1050400    190.79468     59211785            0     59212528    12.683317    22.410355    14.178998    19.734124    33.265869    8.6162921    12.612127     22.30075    14.235163 
 1050600    231.79835     59211790            0     59212692    12.683328    22.410352    14.178839    19.735289    33.265538    8.6003559    12.612127     22.30075    14.235163 
 1050800    260.08937     59210703            0     59211716    12.683315    22.410353    14.179041    19.733994    33.265654    8.6205187    12.612127     22.30075    14.235163 
 1051000    93.340738     59211114            0     59211478    12.683297    22.410342    14.178927    19.732145    33.264603    8.6091244    12.612127     22.30075    14.235163 
 1051200    384.99039     59211659            0     59213157    12.683314    22.410351     14.17912    19.733866    33.265453    8.6284573    12.612127     22.30075    14.235163 
 1051400    215.43362     59211858            0     59212697    12.683321    22.410353    14.179172    19.734565    33.265652    8.6336831    12.612127     22.30075    14.235163 
 1051600    135.69307     59211353            0     59211881    12.683322    22.410346    14.179044    19.734638    33.264971    8.6208376    12.612127     22.30075    14.235163 
 1051800    413.60635     59211004            0     59212614     12.68331    22.410358    14.179072    19.733416    33.266194    8.6237025    12.612127     22.30075    14.235163 
 1052000    159.26655     59211837            0     59212457    12.683316    22.410353    14.178996    19.734012    33.265682    8.6160981    12.612127     22.30075    14.235163 
 1052200    176.56947     59211933            0     59212620    12.683286    22.410316    14.178949    19.731021    33.261914    8.6113485    12.612127     22.30075    14.235163 
 1052400    89.282981     59211380            0     59211727    12.683328    22.410353    14.178975    19.735289    33.265614    8.6139316    12.612127     22.30075    14.235163 
 1052600    211.37869     59210887            0     59211710    12.683333    22.410353    14.179161    19.735724    33.265624    8.6325212    12.612127     22.30075    14.235163 
 1052800     227.9118     59211646            0     59212533    12.683329    22.410353    14.179104    19.735329     33.26561     8.626862    12.612127     22.30075    14.235163 
 1053000      152.943     59212625            0     59213220    12.683332    22.410378    14.179131    19.735696    33.268198    8.6295793    12.612127     22.30075    14.235163 
 1053200    206.49267     59211213            0     59212017    12.683336    22.410338    14.178991    19.735999    33.264139    8.6155581    12.612127     22.30075    14.235163 
 1053400    183.78615     59211495            0     59212211    12.683293    22.410354    14.178802    19.731758     33.26575    8.5966709    12.612127     22.30075    14.235163 
 1053600    94.089496     59210847            0     59211213    12.683316    22.410353    14.178979    19.734013    33.265682    8.6143801    12.612127     22.30075    14.235163 
 1053800    120.33968     59211397            0     59211865    12.683305    22.410375    14.178783    19.732918     33.26785    8.5947443    12.612127     22.30075    14.235163 
 1054000     113.1962     59210580            0     59211021    12.683332    22.410338    14.178957    19.735618    33.264136    8.6121433    12.612127     22.30075    14.235163 
 1054200    219.85274     59211355            0     59212211    12.683324    22.410336    14.178969    19.734897    33.263932    8.6133723    12.612127     22.30075    14.235163 
 1054400     327.2076     59211160            0     59212433    12.683306    22.410339    14.179094    19.733095     33.26426    8.6259027    12.612127     22.30075    14.235163 
 1054600    229.25458     59211003            0     59211896    12.683329    22.410367    14.178935    19.735359    33.267022     8.609958    12.612127     22.30075    14.235163 
 1054800    185.49808     59211129            0     59211851    12.683316    22.410353    14.179072    19.734013    33.265682    8.6237032    12.612127     22.30075    14.235163 
 1055000     283.6204     59210719            0     59211823    12.683298    22.410354    14.178914    19.732238     33.26578     8.607828    12.612127     22.30075    14.235163 
 1055200    193.70585     59210659            0     59211413    12.683314     22.41035    14.178932    19.733833     33.26533    8.6096106    12.612127     22.30075    14.235163 
 1055400    291.96062     59210354            0     59211490    12.683324    22.410351    14.179065    19.734874    33.265484    8.6229616    12.612127     22.30075    14.235163 
 1055600    156.66444     59211724            0     59212334    12.683316    22.410353    14.178917    19.734004      33.2657    8.6081217    12.612127     22.30075    14.235163 
 1055800    182.78621     59210705            0     59211417    12.683316    22.410345    14.178881    19.734022    33.264821     8.604544    12.612127     22.30075    14.235163 
 1056000    227.34402     59210563            0     59211448    12.683318    22.410367    14.179146    19.734252    33.267014    8.6310965    12.612127     22.30075    14.235163 
 1056200    276.33551     59211873            0     59212949    12.683329    22.410377    14.178981    19.735365     33.26801    8.6145401    12.612127     22.30075    14.235163 
 1056400    202.67229     59210588            0     59211377    12.683303    22.410372    14.178873     19.73276    33.267597     8.603769    12.612127     22.30075    14.235163 
 1056600    168.11431     59211666            0     59212320    12.683299    22.410354    14.179113     19.73238    33.265713    8.6277806    12.612127     22.30075    14.235163 
 1056800    167.22022     59211135            0     59211786    12.683303    22.410378    14.178763    19.732764    33.268129     8.592742    12.612127     22.30075    14.235163 
 1057000    103.34107     59212132            0     59212534    12.683311    22.410356    14.179116    19.733538    33.265971    8.6280814    12.612127     22.30075    14.235163 
 1057200    84.111052     59211879            0     59212207      12.6833    22.410343     14.17875    19.732481    33.264664    8.5914257    12.612127     22.30075    14.235163 
 1057400    171.52942     59211794            0     59212462    12.683321    22.410343    14.179027     19.73452    33.264707    8.6191559    12.612127     22.30075    14.235163 
 1057600    190.80751     59211796            0     59212539    12.683326    22.410354    14.179073    19.735033    33.265806    8.6237385    12.612127     22.30075    14.235163 
 1057800    308.14191     59210991            0     59212191     12.68331    22.410339    14.179039    19.733408    33.264278     8.620328    12.612127     22.30075    14.235163 
 1058000    142.90051     59210608            0     59211164     12.68329    22.410338    14.178867    19.731452     33.26414    8.6031122    12.612127     22.30075    14.235163 
 1058200    215.82344     59211873            0     59212714    12.683316    22.410353    14.178712    19.734067    33.265621    8.5876385    12.612127     22.30075    14.235163 
 1058400    99.365972     59211709            0     59212096    12.683295    22.410366    14.178977    19.731989    33.266925    8.6141574    12.612127     22.30075    14.235163 
 1058600    309.24886     59210367            0     59211571    12.683328    22.410329    14.179037    19.735205    33.263238    8.6201871    12.612127     22.30075    14.235163 
 1058800     186.4479     59211228            0     59211954    12.683322    22.410353    14.178902    19.734664    33.265645    8.6066964    12.612127     22.30075    14.235163 
 1059000    171.43343     59211518            0     59212185    12.683316    22.410353    14.178976    19.733998     33.26566    8.6140727    12.612127     22.30075    14.235163 
 1059200    265.51432     59212338            0     59213372    12.683316    22.410353    14.178899    19.734011    33.265682    8.6064042    12.612127     22.30075    14.235163 
 1059400    209.86809     59211136            0     59211953    12.683329    22.410352    14.178979    19.735335    33.265608     8.614354    12.612127     22.30075    14.235163 
 1059600    151.96566     59210451            0     59211042    12.683307    22.410385    14.178786    19.733147    33.268905    8.5950896    12.612127     22.30075    14.235163 
 1059800    246.29467     59210716            0     59211674    12.683316    22.410352     14.17889    19.734065    33.265579    8.6054343    12.612127     22.30075    14.235163 
 1060000    129.28947     59211483            0     59211986    12.683313    22.410344    14.179011    19.733724    33.264742    8.6175554    12.612127     22.30075    14.235163 
Loop time of 12168.5 on 1 procs for 1000000 steps with 1307 atoms

Performance: 3.550 ns/day, 6.760 hours/ns, 82.179 timesteps/s
100.0% CPU use with 1 MPI tasks x no OpenMP threads

MPI task timing breakdown:
Section |  min time  |  avg time  |  max time  |%varavg| %total
---------------------------------------------------------------
Pair    | 6259.2     | 6259.2     | 6259.2     |   0.0 | 51.44
Bond    | 0.1595     | 0.1595     | 0.1595     |   0.0 |  0.00
Kspace  | 5866.4     | 5866.4     | 5866.4     |   0.0 | 48.21
Neigh   | 0          | 0          | 0          |   0.0 |  0.00
Comm    | 26.611     | 26.611     | 26.611     |   0.0 |  0.22
Output  | 0.2752     | 0.2752     | 0.2752     |   0.0 |  0.00
Modify  | 7.6718     | 7.6718     | 7.6718     |   0.0 |  0.06
Other   |            | 8.191      |            |       |  0.07

Nlocal:    1307 ave 1307 max 1307 min
Histogram: 1 0 0 0 0 0 0 0 0 0
Nghost:    7931 ave 7931 max 7931 min
Histogram: 1 0 0 0 0 0 0 0 0 0
Neighs:    491251 ave 491251 max 491251 min
Histogram: 1 0 0 0 0 0 0 0 0 0

Total # of neighbors = 491251
Ave neighs/atom = 375.862
Ave special neighs/atom = 0
Neighbor list builds = 0
Dangerous builds = 0
write_data         data_nvt_eq.data
PPPMDisp initialization ...
  Coulomb G vector (1/distance) = 0.264777
  Coulomb grid = 30 50 30
  Coulomb stencil order = 5
  Coulomb estimated absolute RMS force accuracy = 0.000346238
  Coulomb estimated relative force accuracy = 1.04269e-06
  using double precision FFTs
  3d grid and FFT values/proc = 78033 45000

# data collection
reset_timestep     0
fix                5 GUEST ave/time 1 1 10 f_4[1] f_4[2] f_4[3] f_4[13] f_4[14] f_4[15] file traj.CofMs mode vector
ERROR: Fix ave/time fix does not calculate an array (../fix_ave_time.cpp:238)
