LAMMPS (30 Jul 2016)

# ----------------- Init Section -----------------

units real
processors 1 1 1
newton off
atom_style full
atom_modify sort 0 10.0

# ----------------- Atom Definition Section -----------------

read_data "MgMOF74-Pressure50000.data"
  orthogonal box = (0.4447 0.31425 -0.401771) to (26.5587 45.5442 27.2652)
  1 by 1 by 1 MPI processor grid
  reading atoms ...
  1307 atoms
  0 = max # of 1-2 neighbors
  0 = max # of 1-3 neighbors
  0 = max # of 1-4 neighbors
  1 = max # of special neighbors

# ----------------- Settings Section -----------------

#include "MgMOF74-Pressure50000.in.settings"

# ----------------- Run Section -----------------

# define groups
group GUEST type 1
11 atoms in group GUEST
group MOF type 2 3 4 5 6 7 8 9 10
1296 atoms in group MOF

# define computes
compute comT all com
compute comG GUEST com
compute comM MOF com

# settings
timestep           0.5
thermo             200
thermo_style       custom step temp epair emol etotal c_comT[1] c_comT[2] c_comT[3] c_comG[1] c_comG[2] c_comG[3] c_comM[1] c_comM[2] c_comM[3]
restart            2000000 sim.restart

# reset box to start at 0
change_box         all x delta $(-xlo) $(-xlo) y delta $(-ylo) $(-ylo) z delta $(-zlo) $(-zlo) remap units box
change_box         all x delta -0.44469999999999998419 $(-xlo) y delta $(-ylo) $(-ylo) z delta $(-zlo) $(-zlo) remap units box
change_box         all x delta -0.44469999999999998419 -0.44469999999999998419 y delta $(-ylo) $(-ylo) z delta $(-zlo) $(-zlo) remap units box
change_box         all x delta -0.44469999999999998419 -0.44469999999999998419 y delta -0.3142499999999999738 $(-ylo) z delta $(-zlo) $(-zlo) remap units box
change_box         all x delta -0.44469999999999998419 -0.44469999999999998419 y delta -0.3142499999999999738 -0.3142499999999999738 z delta $(-zlo) $(-zlo) remap units box
change_box         all x delta -0.44469999999999998419 -0.44469999999999998419 y delta -0.3142499999999999738 -0.3142499999999999738 z delta 0.40177099999999998925 $(-zlo) remap units box
change_box         all x delta -0.44469999999999998419 -0.44469999999999998419 y delta -0.3142499999999999738 -0.3142499999999999738 z delta 0.40177099999999998925 0.40177099999999998925 remap units box
  orthogonal box = (0 0.31425 -0.401771) to (26.114 45.5442 27.2652)
  orthogonal box = (0 0 -0.401771) to (26.114 45.23 27.2652)
  orthogonal box = (0 0 0) to (26.114 45.23 27.667)
write_data         data_changebox.data

# get rid of overlapping atoms
run                0
WARNING: No fixes defined, atoms won't move (../verlet.cpp:55)
Memory usage per processor = 0.478851 Mbytes
Step Temp E_pair E_mol TotEng comT[1] comT[2] comT[3] comG[1] comG[2] comG[3] comM[1] comM[2] comM[3] 
       0            0            0            0            0    12.683318    22.424053    14.189073    19.734246    34.636249    9.6241346    12.612127     22.30075    14.235163 
Loop time of 9.53674e-07 on 1 procs for 0 steps with 1307 atoms

0.0% CPU use with 1 MPI tasks x no OpenMP threads

MPI task timing breakdown:
Section |  min time  |  avg time  |  max time  |%varavg| %total
---------------------------------------------------------------
Pair    | 0          | 0          | 0          |   0.0 |  0.00
Bond    | 0          | 0          | 0          |   0.0 |  0.00
Neigh   | 0          | 0          | 0          |   0.0 |  0.00
Comm    | 0          | 0          | 0          |   0.0 |  0.00
Output  | 0          | 0          | 0          |   0.0 |  0.00
Modify  | 0          | 0          | 0          |   0.0 |  0.00
Other   |            | 9.537e-07  |            |       |100.00

Nlocal:    1307 ave 1307 max 1307 min
Histogram: 1 0 0 0 0 0 0 0 0 0
Nghost:    0 ave 0 max 0 min
Histogram: 1 0 0 0 0 0 0 0 0 0
Neighs:    0 ave 0 max 0 min
Histogram: 1 0 0 0 0 0 0 0 0 0

Total # of neighbors = 0
Ave neighs/atom = 0
Ave special neighs/atom = 0
Neighbor list builds = 0
Dangerous builds = 0
velocity           GUEST create 313 1738
fix                1 GUEST nvt temp 313 313 100.0
pair_style         soft 5.0
pair_coeff         * * 0.0 5.0
kspace_style       none
variable           prefactor equal ramp(1.0,20.0)
fix                2 all adapt 1 pair soft a * * v_prefactor
run                2000
Neighbor list info ...
  1 neighbor list requests
  update every 1 steps, delay 10 steps, check yes
  max neighbors/atom: 2000, page size: 100000
  master list distance cutoff = 7
  ghost atom cutoff = 7
  binsize = 3.5 -> bins = 8 13 8
Memory usage per processor = 5.44173 Mbytes
Step Temp E_pair E_mol TotEng comT[1] comT[2] comT[3] comG[1] comG[2] comG[3] comM[1] comM[2] comM[3] 
       0    2.3966309    8995.3087            0    9004.6386    12.683318    22.424053    14.189073    19.734246    34.636249    9.6241346    12.612127     22.30075    14.235163 
     200    4.5023721    26074.309            0    26091.836    12.683332     22.42382    14.189083    19.735612    34.612932    9.6251655    12.612127     22.30075    14.235163 
     400    21.062518    42979.691            0    43061.686    12.683493    22.421737    14.188964    19.751736    34.404557    9.6133009    12.612127     22.30075    14.235163 
     600    17.760017    59769.623            0    59838.762    12.683645    22.419594    14.188718     19.76697    34.190192    9.5886352    12.612127     22.30075    14.235163 
     800    5.4882568    76557.718            0    76579.083     12.68363      22.4156    14.188317    19.765425    33.790547    9.5485559    12.612127     22.30075    14.235163 
    1000   0.94478664    93470.842            0     93474.52    12.683665      22.4137    14.188006    19.768993    33.600542    9.5174109    12.612127     22.30075    14.235163 
    1200   0.70808681    110384.61            0    110387.37    12.683686    22.412593    14.187824      19.7711    33.489783    9.4992001    12.612127     22.30075    14.235163 
    1400    1.8727031    127298.38            0    127305.67    12.683712    22.411236    14.187601    19.773682    33.354039    9.4768812    12.612127     22.30075    14.235163 
    1600    3.6324607    144216.31            0    144230.45     12.68376    22.408922      14.1872    19.778468    33.122517    9.4367989    12.612127     22.30075    14.235163 
    1800    4.4255859       161126            0    161143.23    12.683951    22.409155    14.186058    19.797544    33.145804    9.3225315    12.612127     22.30075    14.235163 
    2000    1.6587189    178042.66            0    178049.12    12.684152    22.411047     14.18485    19.817661    33.335061     9.201683    12.612127     22.30075    14.235163 
Loop time of 2.77378 on 1 procs for 2000 steps with 1307 atoms

Performance: 31.149 ns/day, 0.770 hours/ns, 721.039 timesteps/s
99.9% CPU use with 1 MPI tasks x no OpenMP threads

MPI task timing breakdown:
Section |  min time  |  avg time  |  max time  |%varavg| %total
---------------------------------------------------------------
Pair    | 2.6838     | 2.6838     | 2.6838     |   0.0 | 96.76
Bond    | 0.00013137 | 0.00013137 | 0.00013137 |   0.0 |  0.00
Neigh   | 0.057012   | 0.057012   | 0.057012   |   0.0 |  2.06
Comm    | 0.011402   | 0.011402   | 0.011402   |   0.0 |  0.41
Output  | 0.00043225 | 0.00043225 | 0.00043225 |   0.0 |  0.02
Modify  | 0.013765   | 0.013765   | 0.013765   |   0.0 |  0.50
Other   |            | 0.007233   |            |       |  0.26

Nlocal:    1307 ave 1307 max 1307 min
Histogram: 1 0 0 0 0 0 0 0 0 0
Nghost:    2723 ave 2723 max 2723 min
Histogram: 1 0 0 0 0 0 0 0 0 0
Neighs:    53112 ave 53112 max 53112 min
Histogram: 1 0 0 0 0 0 0 0 0 0

Total # of neighbors = 53112
Ave neighs/atom = 40.6366
Ave special neighs/atom = 0
Neighbor list builds = 20
Dangerous builds = 0
unfix              2
write_data         data_overlap.data

# reset force field parameters
# Set 1-2, 1-3, and 1-4 pairwise interactions to zero; not needed if no bonded terms
#special_bonds      lj/coul 0.0 0.0 0.0
kspace_style       pppm/disp 1.0e-6
neigh_modify       delay 0 every 1 check yes
include "MgMOF74-Pressure50000.in.settings"
# UFF parameters for all atoms not defined by force field
pair_style         hybrid lj/long/coul/long cut long 12.8 buck/long/coul/long cut long 12.8
pair_modify        mix arithmetic shift yes
pair_coeff         7 7 lj/long/coul/long 0.111 2.691
pair_coeff         2 2 lj/long/coul/long 0.105 3.431
pair_coeff         3 3 lj/long/coul/long 0.105 3.431
pair_coeff         4 4 lj/long/coul/long 0.105 3.431
pair_coeff         5 5 lj/long/coul/long 0.105 3.431
pair_coeff         6 6 lj/long/coul/long 0.044 2.571
pair_coeff         8 8 lj/long/coul/long 0.060 3.118
pair_coeff         9 9 lj/long/coul/long 0.060 3.118
pair_coeff         10 10 lj/long/coul/long 0.060 3.118
pair_coeff         1 1 lj/long/coul/long 0.294 3.730
# Lennard-Jones parameters from force field
pair_coeff         1 6 lj/long/coul/long 0.114 3.15
# Buckingham parameters from force field
pair_coeff         1 7 buck/long/coul/long 503735.46 4.915 869.75957
pair_coeff         1 8 buck/long/coul/long 36618.413 2.965 943.43844
pair_coeff         1 9 buck/long/coul/long 40336.705 3.265 943.43844
pair_coeff         1 10 buck/long/coul/long 20010.424 2.790 943.43844
pair_coeff         1 2 buck/long/coul/long 151480.54 3.995 1627.7890
pair_coeff         1 3 buck/long/coul/long 70571.228 3.280 1627.7890
pair_coeff         1 4 buck/long/coul/long 460219.42 4.370 1627.7890
pair_coeff         1 5 buck/long/coul/long 5085.8640 2.315 1627.7890

# melt crystalline guest molecules
unfix              1
run                0
WARNING: No fixes defined, atoms won't move (../verlet.cpp:55)
PPPMDisp initialization ...
  Coulomb G vector (1/distance) = 0.264777
  Coulomb grid = 30 50 30
  Coulomb stencil order = 5
  Coulomb estimated absolute RMS force accuracy = 0.000346238
  Coulomb estimated relative force accuracy = 1.04269e-06
  using double precision FFTs
  3d grid and FFT values/proc = 78033 45000
Neighbor list info ...
  3 neighbor list requests
  update every 1 steps, delay 0 steps, check yes
  max neighbors/atom: 2000, page size: 100000
  master list distance cutoff = 14.8
  ghost atom cutoff = 14.8
  binsize = 7.4 -> bins = 4 7 4
Memory usage per processor = 12.3721 Mbytes
Step Temp E_pair E_mol TotEng comT[1] comT[2] comT[3] comG[1] comG[2] comG[3] comM[1] comM[2] comM[3] 
    2000    1.6587189     60258162            0     60258168    12.684152    22.411047     14.18485    19.817661    33.335061     9.201683    12.612127     22.30075    14.235163 
Loop time of 0 on 1 procs for 0 steps with 1307 atoms

0.0% CPU use with 1 MPI tasks x no OpenMP threads

MPI task timing breakdown:
Section |  min time  |  avg time  |  max time  |%varavg| %total
---------------------------------------------------------------
Pair    | 0          | 0          | 0          |   0.0 |  0.00
Bond    | 0          | 0          | 0          |   0.0 |  0.00
Kspace  | 0          | 0          | 0          |   0.0 |  0.00
Neigh   | 0          | 0          | 0          |   0.0 |  0.00
Comm    | 0          | 0          | 0          |   0.0 |  0.00
Output  | 0          | 0          | 0          |   0.0 |  0.00
Modify  | 0          | 0          | 0          |   0.0 |  0.00
Other   |            | 0          |            |       |  0.00

Nlocal:    1307 ave 1307 max 1307 min
Histogram: 1 0 0 0 0 0 0 0 0 0
Nghost:    7927 ave 7927 max 7927 min
Histogram: 1 0 0 0 0 0 0 0 0 0
Neighs:    491314 ave 491314 max 491314 min
Histogram: 1 0 0 0 0 0 0 0 0 0

Total # of neighbors = 491314
Ave neighs/atom = 375.91
Ave special neighs/atom = 0
Neighbor list builds = 0
Dangerous builds = 0
velocity           GUEST create 1000 1738
fix                3 GUEST nvt temp 1000 1000 100.0
run                4000
PPPMDisp initialization ...
  Coulomb G vector (1/distance) = 0.264777
  Coulomb grid = 30 50 30
  Coulomb stencil order = 5
  Coulomb estimated absolute RMS force accuracy = 0.000346238
  Coulomb estimated relative force accuracy = 1.04269e-06
  using double precision FFTs
  3d grid and FFT values/proc = 78033 45000
Memory usage per processor = 12.3721 Mbytes
Step Temp E_pair E_mol TotEng comT[1] comT[2] comT[3] comG[1] comG[2] comG[3] comM[1] comM[2] comM[3] 
    2000    7.6569678     60258162            0     60258191    12.684152    22.411047     14.18485    19.817661    33.335061     9.201683    12.612127     22.30075    14.235163 
    2200    550.22738     59213672            0     59215814    12.683243    22.410335    14.184842    19.726729     33.26385    9.2009172    12.612127     22.30075    14.235163 
    2400    569.62109     59213903            0     59216120    12.683356    22.410407    14.185513    19.738018    33.271012    9.2680208    12.612127     22.30075    14.235163 
    2600     526.8364     59213415            0     59215466    12.683179    22.410371    14.185109    19.720305    33.267484    9.2276312    12.612127     22.30075    14.235163 
    2800    582.46996     59214957            0     59217224    12.683165    22.410353    14.185589    19.718954    33.265683    9.2756143    12.612127     22.30075    14.235163 
    3000    469.52419     59213132            0     59214960     12.68328    22.410247    14.184972    19.730405    33.255006    9.2138896    12.612127     22.30075    14.235163 
    3200     785.2809     59211987            0     59215044    12.683364    22.410242    14.185277    19.738837    33.254598     9.244445    12.612127     22.30075    14.235163 
    3400    438.76577     59214114            0     59215822    12.683455     22.41025    14.184915    19.747996      33.2554    9.2082137    12.612127     22.30075    14.235163 
    3600    499.12669     59214166            0     59216109    12.683335    22.410419      14.1851    19.735926    33.272238    9.2267188    12.612127     22.30075    14.235163 
    3800    641.34049     59215515            0     59218012    12.683326    22.410371    14.186055    19.735065    33.267437    9.3222424    12.612127     22.30075    14.235163 
    4000    458.83992     59214364            0     59216150    12.683396    22.410409    14.184991    19.742043    33.271256    9.2158555    12.612127     22.30075    14.235163 
    4200    336.65724     59213822            0     59215132    12.683146    22.410499    14.184789    19.717034    33.280296    9.1956296    12.612127     22.30075    14.235163 
    4400    383.66257     59212493            0     59213986    12.683411    22.410418    14.185505    19.743574    33.272155    9.2672101    12.612127     22.30075    14.235163 
    4600    590.99118     59214560            0     59216860    12.683416    22.410309    14.185458    19.744037    33.261273    9.2625465    12.612127     22.30075    14.235163 
    4800    731.97884     59212649            0     59215498    12.683261    22.410356    14.185311    19.728537    33.265987    9.2477858    12.612127     22.30075    14.235163 
    5000    595.38412     59214440            0     59216758    12.683363    22.410402    14.184856    19.738743     33.27052    9.2022688    12.612127     22.30075    14.235163 
    5200    558.70429     59211930            0     59214105    12.683429    22.410322    14.185278    19.745381    33.262594    9.2444983    12.612127     22.30075    14.235163 
    5400    924.49529     59213496            0     59217095    12.683355    22.410311     14.18501    19.737922    33.261451    9.2177345    12.612127     22.30075    14.235163 
    5600    474.08047     59212958            0     59214803    12.683353    22.410455     14.18501    19.737726    33.275851    9.2177427    12.612127     22.30075    14.235163 
    5800    293.32902     59212471            0     59213613    12.683424    22.410304    14.185148    19.744868    33.260788    9.2315466    12.612127     22.30075    14.235163 
    6000    588.62551     59214927            0     59217218    12.683246    22.410245    14.185906    19.727015    33.254884    9.3073752    12.612127     22.30075    14.235163 
Loop time of 48.0834 on 1 procs for 4000 steps with 1307 atoms

Performance: 3.594 ns/day, 6.678 hours/ns, 83.189 timesteps/s
100.0% CPU use with 1 MPI tasks x no OpenMP threads

MPI task timing breakdown:
Section |  min time  |  avg time  |  max time  |%varavg| %total
---------------------------------------------------------------
Pair    | 24.969     | 24.969     | 24.969     |  -nan | 51.93
Bond    | 0.00055265 | 0.00055265 | 0.00055265 |   0.0 |  0.00
Kspace  | 22.871     | 22.871     | 22.871     |   0.0 | 47.57
Neigh   | 0.10227    | 0.10227    | 0.10227    |   0.0 |  0.21
Comm    | 0.078573   | 0.078573   | 0.078573   |   0.0 |  0.16
Output  | 0.0010283  | 0.0010283  | 0.0010283  |   0.0 |  0.00
Modify  | 0.031159   | 0.031159   | 0.031159   |   0.0 |  0.06
Other   |            | 0.02975    |            |       |  0.06

Nlocal:    1307 ave 1307 max 1307 min
Histogram: 1 0 0 0 0 0 0 0 0 0
Nghost:    7927 ave 7927 max 7927 min
Histogram: 1 0 0 0 0 0 0 0 0 0
Neighs:    491485 ave 491485 max 491485 min
Histogram: 1 0 0 0 0 0 0 0 0 0

Total # of neighbors = 491485
Ave neighs/atom = 376.041
Ave special neighs/atom = 0
Neighbor list builds = 6
Dangerous builds = 1
write_data         data_melt.data
PPPMDisp initialization ...
  Coulomb G vector (1/distance) = 0.264777
  Coulomb grid = 30 50 30
  Coulomb stencil order = 5
  Coulomb estimated absolute RMS force accuracy = 0.000346238
  Coulomb estimated relative force accuracy = 1.04269e-06
  using double precision FFTs
  3d grid and FFT values/proc = 78033 45000
unfix              3
fix                4 GUEST nvt temp 313 313 100.0

# get MOF COM
compute            MOFCOM MOF com
variable           MOFCOM1 equal c_MOFCOM[1]
variable           MOFCOM2 equal c_MOFCOM[2]
variable           MOFCOM3 equal c_MOFCOM[3]
thermo_style       custom step temp epair emol etotal c_comT[1] c_comT[2] c_comT[3] c_comG[1] c_comG[2] c_comG[3] c_comM[1] c_comM[2] c_comM[3] c_MOFCOM[1] c_MOFCOM[2] c_MOFCOM[3]

# don't make MOF flexible
run                0
PPPMDisp initialization ...
  Coulomb G vector (1/distance) = 0.264777
  Coulomb grid = 30 50 30
  Coulomb stencil order = 5
  Coulomb estimated absolute RMS force accuracy = 0.000346238
  Coulomb estimated relative force accuracy = 1.04269e-06
  using double precision FFTs
  3d grid and FFT values/proc = 78033 45000
Memory usage per processor = 12.3721 Mbytes
Step Temp E_pair E_mol TotEng comT[1] comT[2] comT[3] comG[1] comG[2] comG[3] comM[1] comM[2] comM[3] MOFCOM[1 MOFCOM[2 MOFCOM[3 
    6000    588.62551     59214927            0     59217218    12.683246    22.410245    14.185906    19.727015    33.254884    9.3073752    12.612127     22.30075    14.235163    12.612127     22.30075    14.235163 
Loop time of 0 on 1 procs for 0 steps with 1307 atoms

0.0% CPU use with 1 MPI tasks x no OpenMP threads

MPI task timing breakdown:
Section |  min time  |  avg time  |  max time  |%varavg| %total
---------------------------------------------------------------
Pair    | 0          | 0          | 0          |   0.0 |  0.00
Bond    | 0          | 0          | 0          |   0.0 |  0.00
Kspace  | 0          | 0          | 0          |   0.0 |  0.00
Neigh   | 0          | 0          | 0          |   0.0 |  0.00
Comm    | 0          | 0          | 0          |   0.0 |  0.00
Output  | 0          | 0          | 0          |   0.0 |  0.00
Modify  | 0          | 0          | 0          |   0.0 |  0.00
Other   |            | 0          |            |       |  0.00

Nlocal:    1307 ave 1307 max 1307 min
Histogram: 1 0 0 0 0 0 0 0 0 0
Nghost:    7931 ave 7931 max 7931 min
Histogram: 1 0 0 0 0 0 0 0 0 0
Neighs:    491491 ave 491491 max 491491 min
Histogram: 1 0 0 0 0 0 0 0 0 0

Total # of neighbors = 491491
Ave neighs/atom = 376.045
Ave special neighs/atom = 0
Neighbor list builds = 0
Dangerous builds = 0
velocity           GUEST create 313 38564
uncompute          MOFCOM
thermo_style       custom step temp epair emol etotal c_comT[1] c_comT[2] c_comT[3] c_comG[1] c_comG[2] c_comG[3] c_comM[1] c_comM[2] c_comM[3]
# fix                8 MOF recenter INIT INIT INIT shift all # Efrem says: technically should do this to get the diffusion coefficient correct, but not sure it works properly on rigid molecules, and it doesn't make a difference in practice because the drift is so small

# equilibration
run                10000
PPPMDisp initialization ...
  Coulomb G vector (1/distance) = 0.264777
  Coulomb grid = 30 50 30
  Coulomb stencil order = 5
  Coulomb estimated absolute RMS force accuracy = 0.000346238
  Coulomb estimated relative force accuracy = 1.04269e-06
  using double precision FFTs
  3d grid and FFT values/proc = 78033 45000
Memory usage per processor = 12.3721 Mbytes
Step Temp E_pair E_mol TotEng comT[1] comT[2] comT[3] comG[1] comG[2] comG[3] comM[1] comM[2] comM[3] 
    6000    2.3966309     59214927            0     59214936    12.683246    22.410245    14.185906    19.727015    33.254884    9.3073752    12.612127     22.30075    14.235163 
    6200    438.66211     59214588            0     59216296      12.6835    22.410295    14.185032    19.752442    33.259896    9.2198673    12.612127     22.30075    14.235163 
    6400    741.46736     59212014            0     59214900    12.683379    22.410391    14.185268     19.74034      33.2695    9.2434889    12.612127     22.30075    14.235163 
    6600    419.59284     59213692            0     59215325    12.683346    22.410463     14.18557    19.737056    33.276705    9.2737267    12.612127     22.30075    14.235163 
    6800    356.43513     59212000            0     59213388    12.683447    22.410354    14.185071    19.747133    33.265785    9.2238456    12.612127     22.30075    14.235163 
    7000    821.19229     59212275            0     59215472    12.683442    22.410336     14.18512    19.746611    33.263964    9.2286992    12.612127     22.30075    14.235163 
    7200     668.1399     59212546            0     59215147    12.683396     22.41035    14.185288    19.742066    33.265391    9.2455145    12.612127     22.30075    14.235163 
    7400    464.81763     59212940            0     59214750    12.683313    22.410382    14.185343    19.733715    33.268588    9.2509979    12.612127     22.30075    14.235163 
    7600    275.44233     59214357            0     59215429    12.683142    22.410396    14.185198    19.716601    33.269925    9.2365131    12.612127     22.30075    14.235163 
    7800    412.54597     59212134            0     59213740    12.683192    22.410451     14.18527    19.721619    33.275509    9.2437566    12.612127     22.30075    14.235163 
    8000    452.59832     59214532            0     59216294    12.683328    22.410215     14.18572    19.735218    33.251859    9.2886971    12.612127     22.30075    14.235163 
    8200    311.75215     59212514            0     59213727    12.683404     22.41037    14.185261    19.742838    33.267373    9.2428727    12.612127     22.30075    14.235163 
    8400    440.72248     59211530            0     59213246    12.683338    22.410343    14.185219    19.736259    33.264666    9.2386126    12.612127     22.30075    14.235163 
    8600     439.8219     59211825            0     59213538    12.683277    22.410351    14.185303    19.730127     33.26548    9.2470619    12.612127     22.30075    14.235163 
    8800    332.70153     59212928            0     59214223     12.68327     22.41032    14.185329    19.729396    33.262344     9.249661    12.612127     22.30075    14.235163 
    9000    318.36795     59211459            0     59212699    12.683296    22.410237    14.185671    19.732089    33.254091    9.2838017    12.612127     22.30075    14.235163 
    9200    414.47745     59214689            0     59216303     12.68329    22.410235    14.185103    19.731442    33.253862    9.2269876    12.612127     22.30075    14.235163 
    9400    351.56586     59212260            0     59213629    12.683207    22.410289     14.18581    19.723102     33.25921    9.2977149    12.612127     22.30075    14.235163 
    9600    408.86833     59212646            0     59214238    12.683404    22.410288    14.185571    19.742871    33.259174    9.2738119    12.612127     22.30075    14.235163 
    9800     190.6799     59212326            0     59213068    12.683277    22.410495     14.18515    19.730097    33.279844    9.2317226    12.612127     22.30075    14.235163 
   10000    370.83111     59212631            0     59214075    12.683392    22.410339    14.185431     19.74164    33.264246    9.2598602    12.612127     22.30075    14.235163 
   10200    323.34971     59211870            0     59213129     12.68328    22.410338    14.185385    19.730466    33.264187    9.2552405    12.612127     22.30075    14.235163 
   10400    369.81983     59213244            0     59214684    12.683347    22.410319    14.185164    19.737117    33.262232    9.2331634    12.612127     22.30075    14.235163 
   10600    462.68599     59213690            0     59215491    12.683302    22.410415    14.184797    19.732621    33.271888    9.1964434    12.612127     22.30075    14.235163 
   10800    301.38396     59211373            0     59212546    12.683337    22.410455    14.185291    19.736167    33.275873    9.2458434    12.612127     22.30075    14.235163 
   11000    302.98601     59215380            0     59216559    12.683269    22.410363    14.185733    19.729383    33.266636    9.2900423    12.612127     22.30075    14.235163 
   11200    401.84052     59212248            0     59213812    12.683275    22.410269    14.185404    19.729913    33.257271    9.2571567    12.612127     22.30075    14.235163 
   11400    529.13955     59213735            0     59215795    12.683267    22.410439    14.184588    19.729105    33.274223    9.1755286    12.612127     22.30075    14.235163 
   11600    774.81838     59213971            0     59216988    12.683243    22.410423    14.185283    19.726754    33.272649    9.2450674    12.612127     22.30075    14.235163 
   11800    535.51804     59211933            0     59214018    12.683361    22.410375    14.185471    19.738596    33.267819    9.2638724    12.612127     22.30075    14.235163 
   12000    175.94784     59212382            0     59213067    12.683307    22.410275    14.185552    19.733112    33.257902    9.2719281    12.612127     22.30075    14.235163 
   12200    272.38358     59213060            0     59214121    12.683445    22.410306    14.185592    19.746954    33.260921    9.2759785    12.612127     22.30075    14.235163 
   12400    438.33912     59214507            0     59216214     12.68334    22.410368    14.184367    19.736448    33.267198    9.1534354    12.612127     22.30075    14.235163 
   12600    318.54218     59214424            0     59215664    12.683268    22.410208    14.184888    19.729257     33.25115    9.2055393    12.612127     22.30075    14.235163 
   12800    405.19172     59213335            0     59214913    12.683237    22.410306    14.184965    19.726168    33.260948    9.2131778    12.612127     22.30075    14.235163 
   13000    400.67716     59213661            0     59215221    12.683339    22.410307    14.185339    19.736376    33.261099    9.2505866    12.612127     22.30075    14.235163 
   13200    378.69768     59213155            0     59214629     12.68337    22.410329    14.185594    19.739441    33.263218    9.2761466    12.612127     22.30075    14.235163 
   13400    411.88189     59213039            0     59214643    12.683327     22.41036    14.185513    19.735111    33.266373    9.2680818    12.612127     22.30075    14.235163 
   13600    408.88178     59213539            0     59215131     12.68338    22.410419    14.185085    19.740438    33.272298    9.2252029    12.612127     22.30075    14.235163 
   13800    443.26554     59213224            0     59214950    12.683343    22.410496    14.185402    19.736781    33.280005     9.256964    12.612127     22.30075    14.235163 
   14000    552.15983     59210921            0     59213070    12.683307    22.410349    14.185186    19.733155    33.265253    9.2353589    12.612127     22.30075    14.235163 
   14200     413.2462     59212455            0     59214063    12.683377    22.410354    14.185707    19.740174    33.265723    9.2874284    12.612127     22.30075    14.235163 
   14400    486.89088     59213545            0     59215440     12.68326    22.410215     14.18544    19.728464    33.251819    9.2607203    12.612127     22.30075    14.235163 
   14600    417.92682     59213085            0     59214712    12.683348    22.410364    14.185516    19.737266     33.26673    9.2683735    12.612127     22.30075    14.235163 
   14800    534.23375     59212661            0     59214741    12.683316    22.410445    14.185113     19.73404    33.274865    9.2279987    12.612127     22.30075    14.235163 
   15000    478.07842     59212995            0     59214856    12.683245    22.410392    14.184914    19.726931    33.269537    9.2081406    12.612127     22.30075    14.235163 
   15200    499.12998     59213694            0     59215637    12.683367    22.410398    14.184582    19.739107    33.270121    9.1749069    12.612127     22.30075    14.235163 
   15400    423.59655     59212088            0     59213737     12.68332    22.410348     14.18494    19.734446    33.265151     9.210691    12.612127     22.30075    14.235163 
   15600    436.03509     59211714            0     59213412    12.683179    22.410376    14.185218    19.720355       33.268    9.2385019    12.612127     22.30075    14.235163 
   15800    426.22655     59212073            0     59213732    12.683344    22.410334    14.184986    19.736801     33.26379    9.2152694    12.612127     22.30075    14.235163 
   16000    313.62087     59212472            0     59213693     12.68335    22.410242    14.185871    19.737497    33.254592    9.3038811    12.612127     22.30075    14.235163 
Loop time of 120.393 on 1 procs for 10000 steps with 1307 atoms

Performance: 3.588 ns/day, 6.689 hours/ns, 83.061 timesteps/s
100.0% CPU use with 1 MPI tasks x no OpenMP threads

MPI task timing breakdown:
Section |  min time  |  avg time  |  max time  |%varavg| %total
---------------------------------------------------------------
Pair    | 62.036     | 62.036     | 62.036     |  -nan | 51.53
Bond    | 0.001333   | 0.001333   | 0.001333   |   0.0 |  0.00
Kspace  | 58.006     | 58.006     | 58.006     |   0.0 | 48.18
Neigh   | 0          | 0          | 0          |   0.0 |  0.00
Comm    | 0.19352    | 0.19352    | 0.19352    |   0.0 |  0.16
Output  | 0.0026634  | 0.0026634  | 0.0026634  |   0.0 |  0.00
Modify  | 0.075924   | 0.075924   | 0.075924   |   0.0 |  0.06
Other   |            | 0.07744    |            |       |  0.06

Nlocal:    1307 ave 1307 max 1307 min
Histogram: 1 0 0 0 0 0 0 0 0 0
Nghost:    7931 ave 7931 max 7931 min
Histogram: 1 0 0 0 0 0 0 0 0 0
Neighs:    491491 ave 491491 max 491491 min
Histogram: 1 0 0 0 0 0 0 0 0 0

Total # of neighbors = 491491
Ave neighs/atom = 376.045
Ave special neighs/atom = 0
Neighbor list builds = 0
Dangerous builds = 0
write_data         data_nvt_eq.data
PPPMDisp initialization ...
  Coulomb G vector (1/distance) = 0.264777
  Coulomb grid = 30 50 30
  Coulomb stencil order = 5
  Coulomb estimated absolute RMS force accuracy = 0.000346238
  Coulomb estimated relative force accuracy = 1.04269e-06
  using double precision FFTs
  3d grid and FFT values/proc = 78033 45000

# data collection
reset_timestep     0
fix                5 GUEST ave/time 1 1 10 f_4[1] f_4[2] f_4[3] file traj.CofMs
dump               3 all custom 200 traj.all.100.dump id mol type x y z ix iy iz
run                100000
PPPMDisp initialization ...
  Coulomb G vector (1/distance) = 0.264777
  Coulomb grid = 30 50 30
  Coulomb stencil order = 5
  Coulomb estimated absolute RMS force accuracy = 0.000346238
  Coulomb estimated relative force accuracy = 1.04269e-06
  using double precision FFTs
  3d grid and FFT values/proc = 78033 45000
Memory usage per processor = 13.7118 Mbytes
Step Temp E_pair E_mol TotEng comT[1] comT[2] comT[3] comG[1] comG[2] comG[3] comM[1] comM[2] comM[3] 
       0    313.62087     59212472            0     59213693     12.68335    22.410242    14.185871    19.737497    33.254592    9.3038811    12.612127     22.30075    14.235163 
     200    400.17112     59213990            0     59215548    12.683364    22.410414    14.185728    19.738801    33.271713    9.2895566    12.612127     22.30075    14.235163 
     400    466.88414     59212733            0     59214551    12.683377    22.410391    14.184982    19.740101    33.269476    9.2148969    12.612127     22.30075    14.235163 
     600    438.71831     59211920            0     59213628    12.683266    22.410417    14.185448    19.729009    33.272058    9.2615667    12.612127     22.30075    14.235163 
     800    420.42308     59212725            0     59214362    12.683347    22.410397    14.185005    19.737184    33.270085    9.2171793    12.612127     22.30075    14.235163 
    1000    352.92619     59213644            0     59215018    12.683325    22.410393    14.185397    19.734941    33.269621    9.2564102    12.612127     22.30075    14.235163 
    1200    304.34039     59214106            0     59215291    12.683355    22.410463    14.185561    19.737966    33.276614    9.2727938    12.612127     22.30075    14.235163 
    1400    398.57949     59212725            0     59214277    12.683318    22.410281    14.185046    19.734293    33.258429    9.2213307    12.612127     22.30075    14.235163 
    1600    375.73733     59212763            0     59214226    12.683361    22.410323    14.185825    19.738531    33.262623    9.2992216    12.612127     22.30075    14.235163 
    1800    160.58403     59212476            0     59213101     12.68323    22.410398    14.185166    19.725455    33.270131    9.2333353    12.612127     22.30075    14.235163 
    2000    262.07467     59211960            0     59212980    12.683191    22.410245    14.185151    19.721549    33.254831    9.2317831    12.612127     22.30075    14.235163 
    2200    303.44476     59211627            0     59212808    12.683376    22.410355     14.18536    19.740004    33.265828    9.2527397    12.612127     22.30075    14.235163 
    2400    202.39853     59211955            0     59212743    12.683236    22.410305    14.185283     19.72601    33.260807    9.2449796    12.612127     22.30075    14.235163 
    2600    317.89951     59213760            0     59214998    12.683352    22.410466    14.185171    19.737636    33.276995     9.233794    12.612127     22.30075    14.235163 
    2800    385.03505     59214034            0     59215533    12.683289    22.410409    14.185106    19.731359    33.271276    9.2272999    12.612127     22.30075    14.235163 
    3000    335.69903     59213803            0     59215109    12.683288    22.410341    14.185116    19.731249    33.264473    9.2283453    12.612127     22.30075    14.235163 
    3200    384.70585     59212111            0     59213608     12.68328    22.410259    14.185576    19.730419    33.256207    9.2743816    12.612127     22.30075    14.235163 
    3400    183.48082     59214544            0     59215259    12.683329    22.410221    14.184849    19.735329    33.252488    9.2015985    12.612127     22.30075    14.235163 
    3600    415.05791     59215438            0     59217053    12.683379    22.410294    14.185555    19.740316    33.259795    9.2722647    12.612127     22.30075    14.235163 
    3800    211.28943     59213257            0     59214079    12.683386    22.410253    14.185087    19.741032    33.255623    9.2254565    12.612127     22.30075    14.235163 
    4000    383.70195     59212905            0     59214399     12.68342    22.410338    14.185855    19.744501    33.264181    9.3022939    12.612127     22.30075    14.235163 
    4200    310.33931     59213251            0     59214459    12.683266    22.410285    14.184579    19.729016    33.258822    9.1746272    12.612127     22.30075    14.235163 
    4400    528.68471     59212353            0     59214412    12.683299    22.410362     14.18534    19.732372    33.266525    9.2506952    12.612127     22.30075    14.235163 
    4600    243.57517     59212764            0     59213712    12.683283    22.410416    14.184577    19.730764    33.271955    9.1743768    12.612127     22.30075    14.235163 
    4800    335.71468     59212633            0     59213940    12.683264    22.410431    14.185721    19.728879    33.273496    9.2888045    12.612127     22.30075    14.235163 
    5000    398.18142     59212487            0     59214037    12.683304     22.41031    14.184983    19.732835    33.261336    9.2150065    12.612127     22.30075    14.235163 
    5200    387.62263     59212360            0     59213869     12.68329     22.41034     14.18565    19.731405    33.264325    9.2817615    12.612127     22.30075    14.235163 
    5400    202.92641     59215346            0     59216136     12.68329    22.410435    14.184939    19.731423    33.273862    9.2106359    12.612127     22.30075    14.235163 
    5600    379.43463     59212816            0     59214293    12.683245    22.410236    14.185624    19.726902    33.253935    9.2791581    12.612127     22.30075    14.235163 
    5800    367.75949     59212668            0     59214100    12.683271    22.410322    14.184869    19.729506    33.262597     9.203599    12.612127     22.30075    14.235163 
    6000    394.75091     59211734            0     59213270    12.683293    22.410328    14.185344    19.731761    33.263108     9.251088    12.612127     22.30075    14.235163 
    6200    137.20507     59214654            0     59215188    12.683362    22.410243    14.184702    19.738674    33.254624    9.1869137    12.612127     22.30075    14.235163 
    6400    255.69717     59213514            0     59214509     12.68337    22.410416     14.18513    19.739483    33.271914    9.2296863    12.612127     22.30075    14.235163 
    6600    324.66217     59214093            0     59215357    12.683306    22.410469    14.184663    19.733055     33.27724    9.1830322    12.612127     22.30075    14.235163 
    6800    315.09897     59212783            0     59214010    12.683307    22.410346    14.185561    19.733154    33.264918    9.2727864    12.612127     22.30075    14.235163 
    7000    508.53472     59212455            0     59214435    12.683204    22.410331    14.185221    19.722863    33.263414    9.2388628    12.612127     22.30075    14.235163 
    7200    302.18057     59212079            0     59213255    12.683358    22.410383    14.185479      19.7382    33.268612    9.2645997    12.612127     22.30075    14.235163 
    7400    408.02578     59211747            0     59213336    12.683375    22.410319    14.184713    19.739997     33.26222    9.1880185    12.612127     22.30075    14.235163 
    7600    239.76629     59212783            0     59213716    12.683241    22.410369    14.185058    19.726566     33.26724    9.2224827    12.612127     22.30075    14.235163 
    7800    396.78052     59213281            0     59214825    12.683343     22.41033    14.185609    19.736708    33.263344    9.2776831    12.612127     22.30075    14.235163 
    8000    447.01255     59212510            0     59214250    12.683325    22.410399    14.184745    19.734921    33.270257    9.1912247    12.612127     22.30075    14.235163 
    8200    340.70677     59214013            0     59215339    12.683231     22.41034    14.185724    19.725561    33.264353    9.2891581    12.612127     22.30075    14.235163 
    8400    309.68948     59214077            0     59215282    12.683324    22.410313    14.185408    19.734885    33.261628    9.2574964    12.612127     22.30075    14.235163 
    8600    325.53344     59211772            0     59213039    12.683318     22.41033    14.185096     19.73424    33.263399    9.2263391    12.612127     22.30075    14.235163 
    8800    246.16999     59212501            0     59213460    12.683303      22.4104    14.184697     19.73277    33.270394    9.1863876    12.612127     22.30075    14.235163 
    9000     361.1874     59213366            0     59214772    12.683284    22.410403    14.184441    19.730866    33.270619    9.1607728    12.612127     22.30075    14.235163 
    9200      151.408     59212005            0     59212595    12.683213    22.410396     14.18585    19.723764    33.269961    9.3017268    12.612127     22.30075    14.235163 
    9400    314.04931     59214076            0     59215299    12.683351    22.410342    14.185599    19.737586    33.264541    9.2766476    12.612127     22.30075    14.235163 
    9600    220.27107     59213519            0     59214376    12.683354    22.410313    14.184958     19.73786    33.261676    9.2125086    12.612127     22.30075    14.235163 
    9800    458.15347     59213993            0     59215776    12.683281     22.41033    14.184779    19.730564    33.263317    9.1946297    12.612127     22.30075    14.235163 
   10000    224.89214     59211802            0     59212678    12.683321    22.410324     14.18561    19.734538    33.262751    9.2777344    12.612127     22.30075    14.235163 
   10200    565.77777     59212693            0     59214896    12.683247    22.410281    14.185083    19.727118    33.258408      9.22498    12.612127     22.30075    14.235163 
   10400    387.47593     59212344            0     59213853    12.683364    22.410345    14.184967    19.738815    33.264877    9.2133957    12.612127     22.30075    14.235163 
   10600    196.82458     59216588            0     59217354     12.68329     22.41038    14.184808    19.731489    33.268388    9.1975395    12.612127     22.30075    14.235163 
   10800    256.81972     59212078            0     59213078    12.683317    22.410281    14.185072    19.734123    33.258479    9.2239034    12.612127     22.30075    14.235163 
   11000    342.63253     59215527            0     59216861    12.683308    22.410438    14.184684    19.733218    33.274166    9.1851293    12.612127     22.30075    14.235163 
   11200    253.24741     59213435            0     59214421    12.683328    22.410431    14.184808    19.735218    33.273478    9.1974913    12.612127     22.30075    14.235163 
   11400    458.82431     59212089            0     59213875    12.683202    22.410266    14.184821    19.722666    33.256946    9.1988458    12.612127     22.30075    14.235163 
   11600    206.21422     59212993            0     59213796    12.683368    22.410446     14.18557    19.739281    33.274915    9.2737414    12.612127     22.30075    14.235163 
   11800    298.19237     59212330            0     59213490    12.683197    22.410366    14.185408    19.722171    33.266913    9.2575146    12.612127     22.30075    14.235163 
   12000    296.89693     59213672            0     59214828     12.68325    22.410392    14.184611    19.727493    33.269512    9.1777609    12.612127     22.30075    14.235163 
   12200    467.11419     59213136            0     59214954    12.683331    22.410348    14.185701    19.735524    33.265163    9.2868092    12.612127     22.30075    14.235163 
   12400    315.95578     59212327            0     59213557    12.683309    22.410307    14.185477    19.733314    33.261085    9.2643861    12.612127     22.30075    14.235163 
   12600    258.27199     59212299            0     59213305    12.683459    22.410346    14.185082    19.748368    33.265007    9.2249538    12.612127     22.30075    14.235163 
   12800    180.33221     59213376            0     59214078    12.683337     22.41035    14.185182    19.736153    33.265371    9.2349132    12.612127     22.30075    14.235163 
   13000    227.28037     59214358            0     59215243    12.683332    22.410356     14.18577    19.735669    33.265943    9.2937706    12.612127     22.30075    14.235163 
   13200    307.51461     59210493            0     59211690    12.683293    22.410344    14.185167    19.731711    33.264731    9.2333952    12.612127     22.30075    14.235163 
   13400    273.86327     59211045            0     59212111      12.6834     22.41041    14.185299    19.742433    33.271408    9.2466625    12.612127     22.30075    14.235163 
   13600     187.0213     59214095            0     59214823    12.683324    22.410339    14.185095    19.734837    33.264271    9.2261902    12.612127     22.30075    14.235163 
   13800    285.28616     59211999            0     59213110    12.683316     22.41036    14.184854    19.734007    33.266389    9.2021082    12.612127     22.30075    14.235163 
   14000      389.931     59211907            0     59213425    12.683268    22.410329    14.185646    19.729277    33.263302    9.2813477    12.612127     22.30075    14.235163 
   14200    366.54504     59213520            0     59214947    12.683294    22.410423    14.185525     19.73184    33.272659    9.2692352    12.612127     22.30075    14.235163 
   14400    184.22668     59214036            0     59214753    12.683352    22.410366    14.184405    19.737672    33.266935    9.1571404    12.612127     22.30075    14.235163 
   14600    420.99418     59214621            0     59216260    12.683334    22.410357    14.184921    19.735851    33.266088    9.2088152    12.612127     22.30075    14.235163 
   14800    210.85333     59211168            0     59211989    12.683315    22.410339    14.185155    19.733923      33.2643    9.2322622    12.612127     22.30075    14.235163 
   15000    176.49433     59213805            0     59214492    12.683328    22.410431    14.184896    19.735234     33.27346    9.2062695    12.612127     22.30075    14.235163 
   15200    243.07393     59211902            0     59212848    12.683383    22.410378    14.185315    19.740758    33.268192       9.2482    12.612127     22.30075    14.235163 
   15400    239.10483     59212852            0     59213783    12.683252    22.410307     14.18573      19.7276    33.261019    9.2896964    12.612127     22.30075    14.235163 
   15600    315.04571     59212077            0     59213304    12.683375    22.410325    14.185369    19.739922    33.262851    9.2536277    12.612127     22.30075    14.235163 
   15800    303.69356     59216332            0     59217514    12.683358    22.410246    14.186036    19.738286    33.254909    9.3203853    12.612127     22.30075    14.235163 
   16000     279.8392     59212231            0     59213321    12.683298    22.410308    14.185561     19.73225    33.261159    9.2728362    12.612127     22.30075    14.235163 
   16200    160.33513     59212557            0     59213182    12.683341    22.410334    14.185768     19.73651    33.263781    9.2935774    12.612127     22.30075    14.235163 
   16400    189.64468     59211865            0     59212604    12.683356    22.410314    14.185082    19.738091    33.261745    9.2249481    12.612127     22.30075    14.235163 
   16600    245.28186     59212894            0     59213848    12.683352    22.410292    14.184941     19.73761     33.25953    9.2107843    12.612127     22.30075    14.235163 
   16800    450.91731     59212682            0     59214438    12.683276    22.410349    14.184745    19.730007    33.265275    9.1912006    12.612127     22.30075    14.235163 
   17000    233.00883     59215324            0     59216231    12.683346    22.410442    14.185497    19.737016    33.274545    9.2664346    12.612127     22.30075    14.235163 
   17200    225.34191     59213721            0     59214598    12.683342    22.410251    14.184405    19.736605    33.255446     9.157145    12.612127     22.30075    14.235163 
   17400    435.08571     59214270            0     59215963     12.68334    22.410321    14.185278    19.736408    33.262431    9.2445613    12.612127     22.30075    14.235163 
   17600    261.34486     59214006            0     59215023    12.683297    22.410282    14.185214    19.732145    33.258591    9.2381678    12.612127     22.30075    14.235163 
   17800     402.3862     59211743            0     59213309     12.68331    22.410407    14.185581    19.733436    33.271044    9.2747973    12.612127     22.30075    14.235163 
   18000     461.8942     59212317            0     59214115    12.683291    22.410251    14.185731    19.731555    33.255459    9.2898481    12.612127     22.30075    14.235163 
   18200    248.44315     59212486            0     59213453    12.683315    22.410324    14.185874    19.733912    33.262725    9.3041661    12.612127     22.30075    14.235163 
   18400    717.86873     59214052            0     59216846    12.683305    22.410321    14.185549    19.732928    33.262415    9.2716383    12.612127     22.30075    14.235163 
   18600    513.00666     59212118            0     59214115    12.683357    22.410408    14.184773    19.738111    33.271153    9.1939978    12.612127     22.30075    14.235163 
   18800    372.94454     59212730            0     59214182    12.683289    22.410338     14.18497    19.731392    33.264152    9.2137237    12.612127     22.30075    14.235163 
   19000    243.32862     59214463            0     59215410    12.683325    22.410312    14.184632    19.734921    33.261531    9.1798756    12.612127     22.30075    14.235163 
   19200    321.15751     59214065            0     59215315    12.683337    22.410335    14.184645    19.736186    33.263852    9.1811532    12.612127     22.30075    14.235163 
   19400    250.45897     59213373            0     59214348    12.683367    22.410359    14.185223    19.739178    33.266277    9.2390325    12.612127     22.30075    14.235163 
   19600    234.43243     59213011            0     59213924     12.68332     22.41034    14.184841    19.734412    33.264406    9.2008166    12.612127     22.30075    14.235163 
   19800    495.32462     59211579            0     59213507    12.683352    22.410398    14.184909    19.737636    33.270164    9.2075895    12.612127     22.30075    14.235163 
   20000    217.31654     59213188            0     59214034     12.68328    22.410332    14.185563    19.730493     33.26357    9.2729891    12.612127     22.30075    14.235163 
   20200    197.48247     59213464            0     59214233    12.683381    22.410313    14.184533    19.740538    33.261658    9.1699472    12.612127     22.30075    14.235163 
   20400    320.65058     59212134            0     59213383    12.683358    22.410391    14.185157    19.738219    33.269465    9.2324329    12.612127     22.30075    14.235163 
   20600    245.65419     59212342            0     59213298    12.683266    22.410403    14.184951    19.729012    33.270615    9.2117942    12.612127     22.30075    14.235163 
   20800    566.98529     59213294            0     59215502    12.683317    22.410345    14.186024    19.734163    33.264903    9.3191945    12.612127     22.30075    14.235163 
   21000    214.75195     59214379            0     59215215    12.683323     22.41035    14.185214     19.73478    33.265316    9.2381293    12.612127     22.30075    14.235163 
   21200    416.78122     59213598            0     59215221    12.683315     22.41037    14.185396    19.733976    33.267371     9.256285    12.612127     22.30075    14.235163 
   21400    182.31648     59213190            0     59213900    12.683298    22.410338     14.18571    19.732231    33.264138    9.2877246    12.612127     22.30075    14.235163 
   21600    476.20197     59211560            0     59213414    12.683268    22.410346     14.18555    19.729258    33.264958     9.271717    12.612127     22.30075    14.235163 
   21800    186.43898     59212485            0     59213211    12.683282    22.410332    14.185253    19.730629     33.26352    9.2420069    12.612127     22.30075    14.235163 
   22000    272.74039     59212411            0     59213472    12.683328    22.410352    14.185506    19.735212    33.265562    9.2673199    12.612127     22.30075    14.235163 
   22200    247.92611     59213939            0     59214904    12.683372    22.410299    14.185049    19.739636    33.260265    9.2215937    12.612127     22.30075    14.235163 
   22400    304.52352     59213201            0     59214387    12.683357     22.41031    14.185454    19.738164    33.261343    9.2621092    12.612127     22.30075    14.235163 
   22600    262.87861     59213737            0     59214760    12.683345    22.410305     14.18539    19.736983    33.260855    9.2557221    12.612127     22.30075    14.235163 
   22800     385.5595     59212993            0     59214494    12.683308    22.410344    14.185185    19.733251    33.264738    9.2351704    12.612127     22.30075    14.235163 
   23000    273.20294     59212548            0     59213612     12.68337     22.41037    14.185564    19.739441    33.267326     9.273088    12.612127     22.30075    14.235163 
   23200    238.43841     59213558            0     59214486    12.683352    22.410275    14.185491    19.737668    33.257843    9.2658445    12.612127     22.30075    14.235163 
   23400    307.66282     59212091            0     59213289    12.683296     22.41039    14.185755    19.732016     33.26935     9.292244    12.612127     22.30075    14.235163 
   23600    317.86519     59213924            0     59215162    12.683409    22.410381    14.184505    19.743387    33.268436    9.1672213    12.612127     22.30075    14.235163 
   23800    384.17221     59213154            0     59214650    12.683318     22.41033     14.18561    19.734251    33.263315    9.2777581    12.612127     22.30075    14.235163 
   24000    335.73962     59212475            0     59213782    12.683414     22.41036    14.184767    19.743841     33.26634    9.1934471    12.612127     22.30075    14.235163 
   24200    218.92466     59212032            0     59212884     12.68331    22.410365    14.185013    19.733497    33.266823     9.218012    12.612127     22.30075    14.235163 
   24400    295.68124     59212362            0     59213513    12.683303    22.410347    14.185256     19.73271    33.265052    9.2423637    12.612127     22.30075    14.235163 
   24600    295.80292     59212579            0     59213731    12.683339    22.410319    14.185965    19.736342    33.262284    9.3132639    12.612127     22.30075    14.235163 
   24800    266.37431     59212686            0     59213723    12.683332    22.410267    14.185683    19.735659    33.257071    9.2850056    12.612127     22.30075    14.235163 
   25000     360.3149     59211640            0     59213043    12.683351    22.410388    14.184684    19.737561    33.269127    9.1851469    12.612127     22.30075    14.235163 
   25200    264.05311     59211549            0     59212577    12.683291     22.41037    14.185468    19.731539    33.267388    9.2635411    12.612127     22.30075    14.235163 
   25400    397.51436     59213238            0     59214786    12.683292    22.410311    14.186146    19.731662    33.261408     9.331393    12.612127     22.30075    14.235163 
   25600    530.80867     59212875            0     59214942    12.683315    22.410379    14.185703    19.733979    33.268297    9.2869961    12.612127     22.30075    14.235163 
   25800    266.44132     59212780            0     59213817    12.683316    22.410401    14.185091    19.734071    33.270485    9.2258057    12.612127     22.30075    14.235163 
   26000    136.68295     59211725            0     59212257    12.683272    22.410285    14.185218    19.729633    33.258816    9.2385255    12.612127     22.30075    14.235163 
   26200    274.50943     59212211            0     59213279    12.683279    22.410331    14.185729    19.730344     33.26343    9.2896092    12.612127     22.30075    14.235163 
   26400    224.46292     59212800            0     59213674    12.683311    22.410359    14.184676    19.733515    33.266217    9.1843199    12.612127     22.30075    14.235163 
   26600    295.58219     59212131            0     59213281    12.683314    22.410354    14.185493    19.733837     33.26572    9.2659999    12.612127     22.30075    14.235163 
   26800    344.52645     59212298            0     59213640    12.683344    22.410358    14.185251    19.736891    33.266181    9.2418478    12.612127     22.30075    14.235163 
   27000    124.16982     59215465            0     59215949    12.683361    22.410295     14.18452    19.738552    33.259838    9.1686551    12.612127     22.30075    14.235163 
   27200    166.48469     59213439            0     59214087    12.683366    22.410386    14.185163    19.739099    33.269002    9.2329775    12.612127     22.30075    14.235163 
   27400    484.03748     59212351            0     59214235     12.68331    22.410301     14.18494    19.733482    33.260473     9.210758    12.612127     22.30075    14.235163 
   27600    397.46535     59212747            0     59214295    12.683339    22.410335    14.185687    19.736351    33.263907    9.2854762    12.612127     22.30075    14.235163 
   27800    181.84338     59210393            0     59211101     12.68323    22.410399    14.185159    19.725424    33.270276     9.232646    12.612127     22.30075    14.235163 
   28000    216.32173     59214030            0     59214872    12.683253    22.410297    14.184105    19.727714     33.26004    9.1272222    12.612127     22.30075    14.235163 
   28200    443.26134     59212344            0     59214069    12.683292    22.410285    14.185135    19.731628    33.258857    9.2301813    12.612127     22.30075    14.235163 
   28400    311.49867     59211861            0     59213073    12.683334    22.410376    14.185731    19.735799     33.26795    9.2898097    12.612127     22.30075    14.235163 
   28600    347.62197     59212575            0     59213928    12.683314    22.410321    14.185317    19.733814    33.262468    9.2484717    12.612127     22.30075    14.235163 
   28800    297.68263     59213941            0     59215099    12.683316    22.410302    14.184343    19.734096    33.260547    9.1509414    12.612127     22.30075    14.235163 
   29000     420.2213     59212312            0     59213948      12.6833    22.410364    14.185462    19.732461    33.266776    9.2629648    12.612127     22.30075    14.235163 
   29200     181.4963     59214159            0     59214865    12.683356    22.410361    14.185227    19.738087    33.266492    9.2393838    12.612127     22.30075    14.235163 
   29400    219.56521     59213708            0     59214562    12.683262    22.410325    14.185335    19.728608    33.262866    9.2502195    12.612127     22.30075    14.235163 
   29600     368.9262     59214055            0     59215491    12.683371    22.410395    14.185451    19.739558    33.269901    9.2618585    12.612127     22.30075    14.235163 
   29800    256.59082     59210862            0     59211861     12.68329      22.4104    14.185181    19.731438    33.270352    9.2348384    12.612127     22.30075    14.235163 
   30000    226.76293     59211965            0     59212847    12.683327    22.410337     14.18472    19.735174    33.264041    9.1887333    12.612127     22.30075    14.235163 
   30200    275.13132     59214978            0     59216049     12.68332    22.410371     14.18498    19.734494    33.267441    9.2147002    12.612127     22.30075    14.235163 
   30400    251.47007     59212760            0     59213739    12.683354    22.410402    14.184845    19.737823     33.27055    9.2011744    12.612127     22.30075    14.235163 
   30600    270.21065     59213129            0     59214181    12.683304    22.410349    14.184784    19.732865    33.265245    9.1950602    12.612127     22.30075    14.235163 
   30800    264.45066     59212215            0     59213245    12.683312    22.410308    14.184835    19.733614    33.261149    9.2002366    12.612127     22.30075    14.235163 
   31000    294.75433     59212737            0     59213884    12.683296    22.410281    14.185228    19.732044     33.25841    9.2395589    12.612127     22.30075    14.235163 
   31200    506.28458     59211418            0     59213389    12.683275    22.410366    14.185139    19.729913    33.266941    9.2305941    12.612127     22.30075    14.235163 
   31400    130.21411     59211890            0     59212397    12.683328    22.410345    14.185068    19.735254      33.2649    9.2235343    12.612127     22.30075    14.235163 
   31600     252.3136     59212510            0     59213492    12.683334     22.41033    14.185389    19.735815    33.263388    9.2556508    12.612127     22.30075    14.235163 
   31800    151.28099     59213852            0     59214441    12.683301    22.410431    14.184851    19.732581    33.273491    9.2017679    12.612127     22.30075    14.235163 
   32000    410.32928     59211825            0     59213422    12.683253    22.410377    14.185524    19.727791     33.26804    9.2691352    12.612127     22.30075    14.235163 
   32200    222.07379     59212536            0     59213400    12.683364    22.410356    14.185161    19.738832    33.265922    9.2328051    12.612127     22.30075    14.235163 
   32400    324.65826     59212681            0     59213945     12.68331    22.410393    14.185103    19.733448    33.269688    9.2269883    12.612127     22.30075    14.235163 
   32600    428.56131     59212054            0     59213723    12.683312    22.410429    14.185534    19.733646    33.273249    9.2701519    12.612127     22.30075    14.235163 
   32800    187.93534     59213375            0     59214106    12.683354    22.410301    14.185415    19.737836    33.260469    9.2581986    12.612127     22.30075    14.235163 
   33000    210.12728     59214609            0     59215427    12.683352     22.41036    14.185971    19.737615     33.26631    9.3138762    12.612127     22.30075    14.235163 
   33200    229.80637     59212655            0     59213549    12.683232    22.410346    14.185401    19.725669    33.264971    9.2567819    12.612127     22.30075    14.235163 
   33400    235.74837     59212178            0     59213095    12.683295    22.410379    14.185249    19.731946    33.268279    9.2416455    12.612127     22.30075    14.235163 
   33600    238.76908     59212093            0     59213022    12.683289    22.410332    14.185248    19.731332    33.263563    9.2415436    12.612127     22.30075    14.235163 
   33800     235.0138     59212260            0     59213174     12.68327    22.410347    14.185547    19.729476    33.265085    9.2714717    12.612127     22.30075    14.235163 
   34000    209.93732     59212437            0     59213254    12.683339    22.410263    14.184388    19.736397    33.256622    9.1554368    12.612127     22.30075    14.235163 
   34200    199.02822     59211207            0     59211982    12.683278    22.410394     14.18527    19.730244    33.269768     9.243743    12.612127     22.30075    14.235163 
   34400     338.9871     59210989            0     59212308    12.683318    22.410366    14.185632    19.734215    33.266984    9.2799824    12.612127     22.30075    14.235163 
   34600    297.94286     59211637            0     59212797    12.683278    22.410379    14.185161    19.730251    33.268264     9.232828    12.612127     22.30075    14.235163 
   34800    185.06226     59213353            0     59214073    12.683273    22.410376    14.185218    19.729765    33.267979    9.2384904    12.612127     22.30075    14.235163 
   35000    553.72222     59212202            0     59214358    12.683336    22.410325    14.185011    19.736033    33.262849    9.2178194    12.612127     22.30075    14.235163 
   35200    248.81547     59213857            0     59214826    12.683246    22.410435    14.185055     19.72708    33.273846    9.2221828    12.612127     22.30075    14.235163 
   35400    238.99148     59211891            0     59212822    12.683323    22.410325    14.185517    19.734766    33.262882    9.2683922    12.612127     22.30075    14.235163 
   35600    407.52495     59214181            0     59215767    12.683296    22.410347    14.185019    19.732034    33.265094    9.2185743    12.612127     22.30075    14.235163 
   35800    373.36916     59213042            0     59214495    12.683292    22.410414     14.18581    19.731619    33.271713    9.2976971    12.612127     22.30075    14.235163 
   36000    105.74746     59214831            0     59215243    12.683314    22.410361    14.184516    19.733867    33.266499    9.1682801    12.612127     22.30075    14.235163 
   36200    318.89327     59214383            0     59215625    12.683332     22.41026    14.185372    19.735601    33.256364    9.2538787    12.612127     22.30075    14.235163 
   36400    254.50062     59213432            0     59214423    12.683369    22.410413    14.184705    19.739356    33.271687    9.1872128    12.612127     22.30075    14.235163 
   36600    284.71971     59210966            0     59212075    12.683275    22.410404    14.185279    19.729994     33.27072    9.2446018    12.612127     22.30075    14.235163 
   36800    329.71148     59212267            0     59213551    12.683336    22.410336    14.185376    19.736075    33.263973    9.2543556    12.612127     22.30075    14.235163 
   37000    450.22736     59213551            0     59215303    12.683288    22.410349    14.185723    19.731231    33.265255    9.2890916    12.612127     22.30075    14.235163 
   37200    246.35129     59214491            0     59215450    12.683282    22.410405    14.185399    19.730691    33.270886    9.2566465    12.612127     22.30075    14.235163 
   37400    260.45471     59212532            0     59213546    12.683353    22.410343    14.185299    19.737752    33.264689    9.2465984    12.612127     22.30075    14.235163 
   37600    516.02506     59211253            0     59213262    12.683264    22.410299    14.185579    19.728823    33.260219      9.27465    12.612127     22.30075    14.235163 
   37800    318.40468     59212179            0     59213419    12.683314    22.410362     14.18527    19.733802    33.266604    9.2436907    12.612127     22.30075    14.235163 
   38000    421.66987     59213067            0     59214709    12.683317    22.410348    14.184471    19.734167    33.265135    9.1637526    12.612127     22.30075    14.235163 
   38200    289.82558     59211857            0     59212985    12.683241    22.410386    14.184994    19.726499    33.268993    9.2160713    12.612127     22.30075    14.235163 
   38400    254.48917     59213482            0     59214473    12.683302    22.410339    14.185281     19.73264    33.264235     9.244871    12.612127     22.30075    14.235163 
   38600    431.84254     59212721            0     59214402    12.683352    22.410395    14.185014    19.737662     33.26981       9.2181    12.612127     22.30075    14.235163 
   38800    187.39575     59215213            0     59215943    12.683362    22.410421    14.185039    19.738622    33.272508    9.2205935    12.612127     22.30075    14.235163 
   39000    277.79837     59214058            0     59215139    12.683338    22.410295    14.184881     19.73628     33.25988    9.2047701    12.612127     22.30075    14.235163 
   39200    251.01097     59214593            0     59215570     12.68328    22.410367    14.184627    19.730417    33.267094    9.1793609    12.612127     22.30075    14.235163 
   39400    320.72513     59212558            0     59213807    12.683243    22.410373    14.185342    19.726719    33.267671    9.2509522    12.612127     22.30075    14.235163 
   39600    318.92213     59211512            0     59212753    12.683296    22.410336    14.185037     19.73207    33.263933    9.2203726    12.612127     22.30075    14.235163 
   39800    172.49066     59212659            0     59213330    12.683317    22.410301    14.185604    19.734191      33.2605     9.277142    12.612127     22.30075    14.235163 
   40000     230.0245     59213036            0     59213932    12.683307    22.410331    14.185638    19.733097    33.263455      9.28054    12.612127     22.30075    14.235163 
   40200    189.79416     59215850            0     59216589    12.683328    22.410367    14.185157    19.735249    33.267032    9.2324115    12.612127     22.30075    14.235163 
   40400    213.59154     59212573            0     59213404    12.683298    22.410365    14.185416    19.732247     33.26682     9.258313    12.612127     22.30075    14.235163 
   40600     184.8186     59212573            0     59213293    12.683308    22.410364    14.185034     19.73323    33.266761    9.2201017    12.612127     22.30075    14.235163 
   40800    207.73279     59214743            0     59215552    12.683326    22.410336     14.18569    19.735055    33.263988    9.2857446    12.612127     22.30075    14.235163 
   41000    299.05036     59212594            0     59213758    12.683337    22.410399    14.185987    19.736182    33.270234    9.3154843    12.612127     22.30075    14.235163 
   41200    168.41166     59212314            0     59212969    12.683337    22.410312    14.185428    19.736144      33.2616    9.2595125    12.612127     22.30075    14.235163 
   41400    232.38532     59212370            0     59213275     12.68332    22.410308     14.18522    19.734426    33.261194    9.2386981    12.612127     22.30075    14.235163 
   41600    91.351494     59213515            0     59213871    12.683337    22.410393    14.185243    19.736175    33.269651    9.2409842    12.612127     22.30075    14.235163 
   41800    312.55426     59212027            0     59213244    12.683258    22.410325    14.185161    19.728228    33.262878    9.2327767    12.612127     22.30075    14.235163 
   42000    261.58622     59215393            0     59216412    12.683336      22.4104    14.185153    19.736092    33.270371    9.2320014    12.612127     22.30075    14.235163 
   42200    269.22779     59213117            0     59214165    12.683277    22.410342    14.185343    19.730178    33.264575    9.2510609    12.612127     22.30075    14.235163 
   42400    255.66918     59213157            0     59214153    12.683279    22.410365    14.185603    19.730344    33.266891    9.2769936    12.612127     22.30075    14.235163 
   42600    101.75676     59213802            0     59214198    12.683288    22.410356    14.185728    19.731247    33.265952    9.2895838    12.612127     22.30075    14.235163 
   42800    340.74737     59212746            0     59214072    12.683393    22.410393    14.185771    19.741752    33.269681    9.2938592    12.612127     22.30075    14.235163 
   43000    586.29959     59212490            0     59214773     12.68331    22.410327    14.185328     19.73341    33.263056    9.2494965    12.612127     22.30075    14.235163 
   43200     422.5166     59213684            0     59215329    12.683275    22.410427     14.18445    19.729954    33.273026    9.1616707    12.612127     22.30075    14.235163 
   43400    371.85265     59213584            0     59215032    12.683285     22.41037    14.184993    19.730978    33.267397    9.2159961    12.612127     22.30075    14.235163 
   43600    380.77444     59213570            0     59215052    12.683324    22.410387    14.184701    19.734884    33.269042    9.1867593    12.612127     22.30075    14.235163 
   43800    307.25155     59212962            0     59214158     12.68337     22.41037    14.185091    19.739451    33.267328    9.2257828    12.612127     22.30075    14.235163 
   44000    214.40446     59213285            0     59214120     12.68336    22.410282    14.185134    19.738451    33.258586    9.2301478    12.612127     22.30075    14.235163 
   44200     226.2879     59211341            0     59212222    12.683308    22.410336    14.184879      19.7332    33.263954    9.2046533    12.612127     22.30075    14.235163 
   44400    361.75662     59211653            0     59213062     12.68327     22.41036    14.185178    19.729396    33.266341     9.234521    12.612127     22.30075    14.235163 
   44600    230.63931     59211862            0     59212759    12.683343    22.410321    14.185032    19.736772    33.262419    9.2199348    12.612127     22.30075    14.235163 
   44800    331.88881     59212079            0     59213371    12.683297     22.41037    14.185161    19.732123    33.267369    9.2328433    12.612127     22.30075    14.235163 
   45000    184.42117     59214065            0     59214783    12.683344    22.410394    14.184844    19.736806     33.26977    9.2011061    12.612127     22.30075    14.235163 
   45200    160.14366     59212616            0     59213240    12.683292    22.410381    14.185617    19.731601    33.268459    9.2784693    12.612127     22.30075    14.235163 
   45400    403.13172     59211216            0     59212786    12.683301    22.410383    14.185599    19.732578    33.268621    9.2766515    12.612127     22.30075    14.235163 
   45600    260.44849     59213894            0     59214908    12.683353    22.410313    14.184949    19.737774    33.261692    9.2116459    12.612127     22.30075    14.235163 
   45800    228.83554     59212671            0     59213562    12.683344    22.410316    14.185405    19.736863    33.261978    9.2572325    12.612127     22.30075    14.235163 
   46000    196.69728     59212111            0     59212877    12.683326    22.410374    14.185252    19.735045    33.267742    9.2419471    12.612127     22.30075    14.235163 
   46200     327.1738     59212391            0     59213664    12.683339    22.410299    14.184752    19.736398     33.26029    9.1918997    12.612127     22.30075    14.235163 
   46400    272.78473     59215136            0     59216198    12.683297    22.410273    14.184252    19.732188    33.257693    9.1418576    12.612127     22.30075    14.235163 
   46600    180.81225     59213348            0     59214052    12.683258    22.410438    14.185182    19.728283    33.274131    9.2349096    12.612127     22.30075    14.235163 
   46800    379.43291     59212361            0     59213838    12.683251    22.410405    14.185286    19.727581    33.270888    9.2453216    12.612127     22.30075    14.235163 
   47000    266.99012     59212674            0     59213713    12.683328    22.410366    14.185048    19.735206    33.266961    9.2214721    12.612127     22.30075    14.235163 
   47200    206.95427     59212733            0     59213539    12.683342    22.410292    14.185318    19.736629    33.259585    9.2485562    12.612127     22.30075    14.235163 
   47400    323.69287     59213755            0     59215015    12.683363    22.410367    14.185158    19.738742    33.267084    9.2325469    12.612127     22.30075    14.235163 
   47600    264.34436     59212445            0     59213474    12.683399    22.410349    14.184832    19.742321    33.265251    9.1998746    12.612127     22.30075    14.235163 
   47800    129.11348     59213406            0     59213908    12.683386    22.410384    14.184837    19.741086    33.268797    9.2004454    12.612127     22.30075    14.235163 
   48000    88.474277     59215567            0     59215912     12.68332    22.410313    14.184651    19.734439     33.26167    9.1817867    12.612127     22.30075    14.235163 
   48200    370.36805     59212587            0     59214029    12.683291    22.410307    14.185039    19.731557    33.261008    9.2206524    12.612127     22.30075    14.235163 
   48400    196.34439     59214819            0     59215583    12.683272    22.410347    14.185199    19.729663    33.265022    9.2366702    12.612127     22.30075    14.235163 
   48600    130.63094     59211746            0     59212255    12.683304    22.410335    14.185273    19.732893    33.263815    9.2440602    12.612127     22.30075    14.235163 
   48800    304.03953     59211107            0     59212290    12.683301    22.410311    14.185348    19.732559    33.261505    9.2515705    12.612127     22.30075    14.235163 
   49000    196.83295     59212928            0     59213694    12.683304    22.410398    14.184885    19.732884    33.270197    9.2052048    12.612127     22.30075    14.235163 
   49200    208.49171     59212601            0     59213412    12.683341    22.410391    14.185021    19.736564     33.26948    9.2188097    12.612127     22.30075    14.235163 
   49400    180.18319     59212066            0     59212768    12.683354    22.410341    14.184576    19.737875    33.264493    9.1743162    12.612127     22.30075    14.235163 
   49600    240.71197     59213441            0     59214378    12.683293    22.410332    14.185817    19.731702    33.263541    9.2984107    12.612127     22.30075    14.235163 
   49800    283.51364     59211029            0     59212133    12.683333    22.410345    14.185509    19.735761    33.264857    9.2676157    12.612127     22.30075    14.235163 
   50000    306.48712     59213032            0     59214225    12.683366    22.410343    14.185219     19.73907    33.264672    9.2386665    12.612127     22.30075    14.235163 
   50200    359.61342     59214952            0     59216352    12.683313    22.410409    14.184453    19.733722    33.271274    9.1619568    12.612127     22.30075    14.235163 
   50400    280.34171     59211375            0     59212467    12.683305    22.410306    14.185412    19.732982    33.260964    9.2579441    12.612127     22.30075    14.235163 
   50600    347.40933     59212280            0     59213632    12.683351    22.410396    14.185489    19.737537    33.269976    9.2656046    12.612127     22.30075    14.235163 
   50800    225.82127     59213103            0     59213983    12.683337    22.410359    14.184868    19.736158    33.266224    9.2035088    12.612127     22.30075    14.235163 
   51000    385.41303     59212217            0     59213717    12.683294    22.410307    14.185534    19.731816    33.261099     9.270111    12.612127     22.30075    14.235163 
   51200    261.85538     59211407            0     59212427    12.683386    22.410372    14.185432    19.741022    33.267539    9.2598844    12.612127     22.30075    14.235163 
   51400    242.32504     59212689            0     59213633    12.683338      22.4103    14.184311    19.736255    33.260326    9.1477564    12.612127     22.30075    14.235163 
   51600    205.83072     59211789            0     59212590    12.683281    22.410302    14.185074    19.730498    33.260583    9.2241203    12.612127     22.30075    14.235163 
   51800    254.56529     59213905            0     59214896    12.683306    22.410357    14.185776    19.733018    33.266051    9.2943359    12.612127     22.30075    14.235163 
   52000    334.73798     59214367            0     59215670    12.683269    22.410353    14.185499    19.729395    33.265704    9.2666067    12.612127     22.30075    14.235163 
   52200    161.83361     59213017            0     59213647    12.683268    22.410447    14.185281    19.729241    33.275072    9.2448129    12.612127     22.30075    14.235163 
   52400    216.89871     59213012            0     59213857    12.683279     22.41036    14.185154    19.730323    33.266403    9.2321355    12.612127     22.30075    14.235163 
   52600    239.79711     59214335            0     59215268    12.683372    22.410327    14.184662    19.739697    33.263023    9.1828718    12.612127     22.30075    14.235163 
   52800    224.67397     59214181            0     59215056    12.683379    22.410406    14.184988    19.740337    33.270929    9.2154756    12.612127     22.30075    14.235163 
   53000    287.63617     59212416            0     59213536    12.683318    22.410361    14.185095    19.734261    33.266464    9.2262573    12.612127     22.30075    14.235163 
   53200    250.20539     59214877            0     59215851    12.683376    22.410403    14.185006    19.740028    33.270624    9.2173446    12.612127     22.30075    14.235163 
   53400    288.10582     59212728            0     59213849     12.68333    22.410402    14.185044     19.73545     33.27052    9.2210917    12.612127     22.30075    14.235163 
   53600    139.01192     59211137            0     59211678    12.683271     22.41033    14.185034    19.729572     33.26332    9.2201576    12.612127     22.30075    14.235163 
   53800    209.93199     59211330            0     59212148    12.683357    22.410357    14.185051    19.738179    33.266097    9.2217708    12.612127     22.30075    14.235163 
   54000     271.1692     59213045            0     59214100    12.683326     22.41037    14.184871    19.735009    33.267396    9.2038294    12.612127     22.30075    14.235163 
   54200    333.10625     59213650            0     59214947    12.683288    22.410347    14.184914    19.731289    33.265098    9.2081495    12.612127     22.30075    14.235163 
   54400    543.53353     59211561            0     59213677    12.683315    22.410346    14.185884    19.733942    33.264922      9.30517    12.612127     22.30075    14.235163 
   54600    279.26759     59212860            0     59213948    12.683275    22.410333    14.185276    19.729922    33.263656    9.2442877    12.612127     22.30075    14.235163 
   54800    250.15302     59214470            0     59215444    12.683298    22.410379    14.185393    19.732277    33.268306     9.256077    12.612127     22.30075    14.235163 
   55000    291.76218     59214287            0     59215422    12.683298    22.410338    14.184569    19.732291    33.264142     9.173551    12.612127     22.30075    14.235163 
   55200    341.73746     59213496            0     59214827    12.683313    22.410326    14.186004    19.733715    33.263003    9.3172015    12.612127     22.30075    14.235163 
   55400    180.28117     59213372            0     59214074    12.683318    22.410293     14.18599    19.734271    33.259618    9.3157609    12.612127     22.30075    14.235163 
   55600    268.38418     59213892            0     59214937    12.683341    22.410385    14.185305    19.736552    33.268879    9.2472118    12.612127     22.30075    14.235163 
   55800    245.07662     59211886            0     59212841    12.683309    22.410367    14.184853    19.733342    33.267064    9.2020159    12.612127     22.30075    14.235163 
   56000    273.21057     59212844            0     59213908    12.683326     22.41032    14.185218    19.735038    33.262321    9.2384753    12.612127     22.30075    14.235163 
   56200    117.15923     59212739            0     59213195    12.683338      22.4104    14.184981    19.736248    33.270341    9.2148249    12.612127     22.30075    14.235163 
   56400    241.89104     59214442            0     59215384    12.683353    22.410422    14.185127    19.737739    33.272511    9.2293924    12.612127     22.30075    14.235163 
   56600     219.7478     59212414            0     59213270    12.683326    22.410359    14.184895    19.735016    33.266271    9.2062411    12.612127     22.30075    14.235163 
   56800    155.36648     59212798            0     59213403    12.683306    22.410356    14.185978    19.733035    33.265965    9.3145457    12.612127     22.30075    14.235163 
   57000    221.27584     59213195            0     59214056    12.683331    22.410341    14.185896    19.735539    33.264466    9.3063499    12.612127     22.30075    14.235163 
   57200    277.12308     59214651            0     59215729    12.683303    22.410356    14.185078    19.732771    33.265998    9.2245256    12.612127     22.30075    14.235163 
   57400     270.4923     59214266            0     59215319    12.683288    22.410337    14.184964     19.73126    33.264101    9.2130899    12.612127     22.30075    14.235163 
   57600    181.78184     59214861            0     59215569    12.683388     22.41034    14.184756    19.741219    33.264327    9.1922835    12.612127     22.30075    14.235163 
   57800     362.2784     59212499            0     59213909    12.683305    22.410319    14.185023    19.732936    33.262288    9.2189664    12.612127     22.30075    14.235163 
   58000    173.40318     59214757            0     59215432    12.683291    22.410377    14.186412    19.731588    33.268019    9.3579568    12.612127     22.30075    14.235163 
   58200    233.93748     59212655            0     59213566    12.683247    22.410327    14.184751    19.727127    33.263074    9.1917614    12.612127     22.30075    14.235163 
   58400    231.34677     59216875            0     59217776    12.683225    22.410341    14.184187    19.724906    33.264441    9.1353946    12.612127     22.30075    14.235163 
   58600    189.59707     59213978            0     59214716    12.683291    22.410332    14.184408    19.731582    33.263577    9.1574484    12.612127     22.30075    14.235163 
   58800    265.23074     59213916            0     59214949     12.68332    22.410342     14.18499    19.734444    33.264519    9.2156723    12.612127     22.30075    14.235163 
   59000    307.42207     59213652            0     59214849    12.683301    22.410312    14.185533    19.732553    33.261527    9.2700172    12.612127     22.30075    14.235163 
   59200     196.0415     59212654            0     59213417    12.683347    22.410339    14.185381    19.737156    33.264297    9.2547834    12.612127     22.30075    14.235163 
   59400    320.49283     59214317            0     59215565    12.683322    22.410333    14.185728    19.734618    33.263655    9.2895477    12.612127     22.30075    14.235163 
   59600    228.99826     59215046            0     59215937    12.683329    22.410327    14.186076    19.735375    33.263051    9.3243532    12.612127     22.30075    14.235163 
   59800    364.81504     59212609            0     59214030    12.683307    22.410316    14.185346    19.733117    33.261956    9.2513333    12.612127     22.30075    14.235163 
   60000    255.79717     59214178            0     59215174    12.683304    22.410376     14.18563    19.732819    33.267975      9.27976    12.612127     22.30075    14.235163 
   60200    290.23014     59213785            0     59214915    12.683322    22.410325    14.184629     19.73466    33.262822     9.179619    12.612127     22.30075    14.235163 
   60400    284.90141     59211637            0     59212746    12.683335    22.410335    14.185201    19.735934    33.263875    9.2368538    12.612127     22.30075    14.235163 
   60600    316.75832     59213138            0     59214371    12.683338    22.410392    14.184867    19.736259    33.269581    9.2034315    12.612127     22.30075    14.235163 
   60800    273.71561     59215341            0     59216407    12.683312    22.410357    14.184751    19.733622    33.266037    9.1918359    12.612127     22.30075    14.235163 
   61000    283.33078     59216135            0     59217238    12.683304    22.410307    14.185486    19.732879    33.261039    9.2653825    12.612127     22.30075    14.235163 
   61200    137.98572     59213901            0     59214438    12.683306    22.410375    14.184508    19.733018    33.267898    9.1674454    12.612127     22.30075    14.235163 
   61400    135.86471     59214502            0     59215030    12.683356    22.410348    14.184797    19.738052    33.265122    9.1964117    12.612127     22.30075    14.235163 
   61600    350.43966     59215725            0     59217089    12.683288    22.410346    14.184817    19.731274    33.264949    9.1983909    12.612127     22.30075    14.235163 
   61800    236.02384     59213632            0     59214551    12.683289     22.41039    14.184713    19.731316    33.269316    9.1879843    12.612127     22.30075    14.235163 
   62000    314.18772     59212562            0     59213785    12.683311    22.410352    14.184725    19.733534    33.265536    9.1892497    12.612127     22.30075    14.235163 
   62200    645.80262     59212175            0     59214689    12.683306    22.410366    14.185596    19.733028    33.266954    9.2763053    12.612127     22.30075    14.235163 
   62400    260.89704     59214403            0     59215418    12.683336     22.41035    14.185024    19.736088    33.265388    9.2191317    12.612127     22.30075    14.235163 
   62600    205.70279     59212592            0     59213393    12.683342    22.410354    14.185412    19.736618     33.26571    9.2578983    12.612127     22.30075    14.235163 
   62800    267.93331     59213822            0     59214865    12.683308    22.410322    14.185419    19.733287    33.262513    9.2586455    12.612127     22.30075    14.235163 
   63000    333.42135     59215006            0     59216304    12.683242    22.410351    14.185076    19.726618    33.265458    9.2243436    12.612127     22.30075    14.235163 
   63200    244.74787     59214229            0     59215182    12.683345    22.410344    14.184356    19.736994    33.264778    9.1522762    12.612127     22.30075    14.235163 
   63400    224.22653     59213755            0     59214628    12.683316    22.410357    14.184846    19.734006     33.26606    9.2013182    12.612127     22.30075    14.235163 
   63600    208.97304     59213174            0     59213988    12.683339    22.410365    14.184962    19.736308    33.266824    9.2128657    12.612127     22.30075    14.235163 
   63800    209.26861     59214626            0     59215440    12.683353    22.410345    14.184618    19.737788    33.264858    9.1784484    12.612127     22.30075    14.235163 
   64000    431.84299     59213504            0     59215185    12.683285    22.410342    14.184566    19.730989    33.264522    9.1732679    12.612127     22.30075    14.235163 
   64200    273.96007     59214069            0     59215135    12.683322     22.41027    14.185277    19.734611    33.257404    9.2444405    12.612127     22.30075    14.235163 
   64400    182.55029     59211858            0     59212569      12.6834    22.410312     14.18511    19.742465    33.261559    9.2277528    12.612127     22.30075    14.235163 
   64600    300.03086     59213010            0     59214178    12.683287    22.410368    14.184957    19.731102    33.267204    9.2123949    12.612127     22.30075    14.235163 
   64800    454.71647     59212084            0     59213855    12.683372    22.410351    14.185445    19.739654    33.265493    9.2612211    12.612127     22.30075    14.235163 
   65000    249.66563     59212819            0     59213791    12.683272    22.410341    14.185191    19.729638    33.264466    9.2357837    12.612127     22.30075    14.235163 
   65200    303.86354     59212603            0     59213786    12.683348    22.410386    14.185486    19.737266    33.268949    9.2653326    12.612127     22.30075    14.235163 
   65400    139.90481     59215042            0     59215587    12.683307    22.410407    14.185023    19.733114      33.2711     9.219033    12.612127     22.30075    14.235163 
   65600    353.42498     59213459            0     59214835    12.683334    22.410349    14.184493    19.735812    33.265301    9.1659796    12.612127     22.30075    14.235163 
   65800    261.79055     59213233            0     59214252    12.683296    22.410369    14.184381     19.73204    33.267212    9.1547929    12.612127     22.30075    14.235163 
   66000    355.53808     59212008            0     59213392    12.683294    22.410409    14.185718    19.731841     33.27128    9.2884994    12.612127     22.30075    14.235163 
   66200    345.47565     59211991            0     59213336    12.683316    22.410353    14.185256    19.734006     33.26567    9.2423162    12.612127     22.30075    14.235163 
   66400    213.00666     59213550            0     59214379    12.683362    22.410415    14.184602     19.73865    33.271819    9.1769264    12.612127     22.30075    14.235163 
   66600    403.44093     59213252            0     59214823    12.683336    22.410379    14.185232    19.736076    33.268268    9.2399128    12.612127     22.30075    14.235163 
   66800    465.42471     59211601            0     59213413    12.683341    22.410316     14.18555     19.73654    33.261973    9.2717211    12.612127     22.30075    14.235163 
   67000    299.33507     59211483            0     59212648     12.68332    22.410364     14.18514    19.734468     33.26672    9.2307168    12.612127     22.30075    14.235163 
   67200    150.49397     59213780            0     59214366    12.683279    22.410343    14.184914    19.730364    33.264635    9.2080772    12.612127     22.30075    14.235163 
   67400    233.49915     59213334            0     59214243    12.683309    22.410376    14.185247    19.733347    33.267944     9.241454    12.612127     22.30075    14.235163 
   67600    107.43787     59212876            0     59213294    12.683321    22.410347    14.185472    19.734561    33.265099    9.2639112    12.612127     22.30075    14.235163 
   67800    361.08125     59211455            0     59212861    12.683317    22.410317    14.185465    19.734197    33.262019    9.2631881    12.612127     22.30075    14.235163 
   68000    342.56872     59212224            0     59213557    12.683296    22.410342    14.184427    19.732066    33.264558    9.1593764    12.612127     22.30075    14.235163 
   68200    258.27951     59214592            0     59215597    12.683347    22.410367    14.185096    19.737196     33.26705    9.2262742    12.612127     22.30075    14.235163 
   68400    231.20011     59215009            0     59215909    12.683293    22.410299    14.184512    19.731783    33.260253    9.1678905    12.612127     22.30075    14.235163 
   68600    280.58119     59214067            0     59215159    12.683312    22.410322    14.185583    19.733606    33.262576    9.2750422    12.612127     22.30075    14.235163 
   68800     237.2205     59212805            0     59213728    12.683346    22.410336    14.184482    19.737061    33.263937    9.1649021    12.612127     22.30075    14.235163 
   69000    370.30969     59213812            0     59215254    12.683316    22.410385    14.185443    19.734081    33.268822     9.261003    12.612127     22.30075    14.235163 
   69200    127.52471     59215524            0     59216020    12.683296    22.410344    14.185169    19.732095    33.264804     9.233634    12.612127     22.30075    14.235163 
   69400    187.63215     59212519            0     59213249    12.683324    22.410403    14.185227    19.734865    33.270696    9.2394576    12.612127     22.30075    14.235163 
   69600     188.3608     59213271            0     59214005    12.683295    22.410338    14.185261    19.731932    33.264183     9.242838    12.612127     22.30075    14.235163 
   69800    343.71494     59212709            0     59214047    12.683327    22.410353    14.184668    19.735114    33.265621    9.1835452    12.612127     22.30075    14.235163 
   70000    294.91003     59213367            0     59214515    12.683242    22.410349    14.185378     19.72668    33.265222    9.2545158    12.612127     22.30075    14.235163 
   70200    348.06111     59213114            0     59214469    12.683328    22.410391    14.185335      19.7352     33.26948    9.2502553    12.612127     22.30075    14.235163 
   70400    220.79498     59212353            0     59213212     12.68327    22.410347    14.184666    19.729418    33.265062    9.1832607    12.612127     22.30075    14.235163 
   70600    234.45007     59211533            0     59212446    12.683259     22.41033    14.185184    19.728339    33.263334    9.2351466    12.612127     22.30075    14.235163 
   70800    239.88673     59212900            0     59213834    12.683259    22.410427    14.184663     19.72833    33.273064    9.1829952    12.612127     22.30075    14.235163 
   71000    158.71425     59213198            0     59213816    12.683321    22.410335    14.185397    19.734589    33.263847    9.2563857    12.612127     22.30075    14.235163 
   71200    340.67494     59213601            0     59214927    12.683316    22.410329    14.185184    19.734013    33.263254    9.2350812    12.612127     22.30075    14.235163 
   71400    336.88072     59212999            0     59214310    12.683299    22.410345    14.184926    19.732372    33.264891    9.2092787    12.612127     22.30075    14.235163 
   71600    326.18428     59215021            0     59216290    12.683383    22.410416    14.184758    19.740716     33.27198    9.1924696    12.612127     22.30075    14.235163 
   71800    204.25164     59212803            0     59213598    12.683293    22.410339    14.185078    19.731741    33.264242     9.224537    12.612127     22.30075    14.235163 
   72000    176.36025     59211198            0     59211885    12.683395    22.410323    14.184916    19.741906    33.262673    9.2083461    12.612127     22.30075    14.235163 
   72200    287.98925     59211535            0     59212656    12.683298    22.410387    14.184928    19.732219    33.269104    9.2094958    12.612127     22.30075    14.235163 
   72400    208.81182     59214559            0     59215371    12.683358    22.410402    14.185208    19.738231    33.270573    9.2375568    12.612127     22.30075    14.235163 
   72600    395.47017     59212909            0     59214449    12.683349    22.410393     14.18472    19.737304    33.269668    9.1886936    12.612127     22.30075    14.235163 
   72800    334.12237     59213086            0     59214386    12.683317    22.410333    14.184381    19.734112    33.263624     9.154744    12.612127     22.30075    14.235163 
   73000    288.43548     59211934            0     59213056    12.683268    22.410293    14.185481    19.729241    33.259651    9.2648771    12.612127     22.30075    14.235163 
   73200    305.10114     59212124            0     59213312    12.683313    22.410348    14.185302    19.733721    33.265116    9.2469254    12.612127     22.30075    14.235163 
   73400    142.24048     59211603            0     59212157    12.683319    22.410367    14.185665     19.73439    33.267067    9.2832749    12.612127     22.30075    14.235163 
   73600      218.265     59212448            0     59213298    12.683335    22.410359    14.185903    19.735917    33.266219    9.3070794    12.612127     22.30075    14.235163 
   73800    332.40649     59213247            0     59214542    12.683241    22.410366    14.184691    19.726499    33.266939    9.1857747    12.612127     22.30075    14.235163 
   74000    133.01958     59211754            0     59212272    12.683316    22.410355    14.184752    19.734084    33.265852    9.1919121    12.612127     22.30075    14.235163 
   74200    425.84663     59214452            0     59216110    12.683324    22.410365    14.185685    19.734808     33.26687    9.2852679    12.612127     22.30075    14.235163 
   74400    218.45567     59213337            0     59214188    12.683311    22.410387    14.185703    19.733581    33.269081     9.287069    12.612127     22.30075    14.235163 
   74600    171.59585     59212485            0     59213153    12.683303    22.410372    14.185145    19.732738    33.267595    9.2312672    12.612127     22.30075    14.235163 
   74800    180.96528     59214125            0     59214829    12.683306    22.410341    14.185121    19.733019    33.264443    9.2288047    12.612127     22.30075    14.235163 
   75000    335.49232     59213569            0     59214875    12.683331    22.410389    14.184337    19.735577     33.26921    9.1503851    12.612127     22.30075    14.235163 
   75200    168.08831     59213584            0     59214238    12.683336    22.410326    14.184695    19.736048    33.262935    9.1861578    12.612127     22.30075    14.235163 
   75400    206.75351     59212026            0     59212831    12.683254    22.410354    14.184837    19.727795    33.265776    9.2003846    12.612127     22.30075    14.235163 
   75600    246.62423     59212999            0     59213959    12.683304    22.410345    14.185424    19.732857    33.264809    9.2591569    12.612127     22.30075    14.235163 
   75800    390.34706     59213044            0     59214563    12.683311    22.410306    14.185509    19.733549    33.260992    9.2676681    12.612127     22.30075    14.235163 
   76000    89.650688     59213761            0     59214110    12.683268    22.410332    14.185382    19.729292    33.263599    9.2549762    12.612127     22.30075    14.235163 
   76200     265.5419     59214758            0     59215792    12.683321    22.410334    14.185731    19.734584    33.263764    9.2898503    12.612127     22.30075    14.235163 
   76400    259.56786     59212896            0     59213907    12.683327    22.410277    14.185229    19.735116    33.258071    9.2395998    12.612127     22.30075    14.235163 
   76600     215.7007     59216295            0     59217134    12.683342    22.410365    14.184714    19.736628    33.266875    9.1880938    12.612127     22.30075    14.235163 
   76800    222.00984     59214917            0     59215781    12.683345    22.410383    14.186149     19.73695    33.268612    9.3316179    12.612127     22.30075    14.235163 
   77000      193.338     59213607            0     59214359    12.683273    22.410386    14.186026    19.729748     33.26899    9.3193363    12.612127     22.30075    14.235163 
   77200    392.57971     59212181            0     59213710    12.683298    22.410331    14.184931    19.732248    33.263429    9.2097609    12.612127     22.30075    14.235163 
   77400    496.38346     59212633            0     59214565     12.68332    22.410378     14.18466    19.734412    33.268167    9.1827376    12.612127     22.30075    14.235163 
   77600    166.28735     59213793            0     59214440    12.683338    22.410361      14.1848    19.736227    33.266486    9.1967444    12.612127     22.30075    14.235163 
   77800    183.23232     59213255            0     59213968    12.683334    22.410372    14.185223    19.735856    33.267582    9.2389968    12.612127     22.30075    14.235163 
   78000    269.38861     59213614            0     59214663    12.683278    22.410351    14.185216    19.730278    33.265494    9.2383324    12.612127     22.30075    14.235163 
   78200    349.06855     59214383            0     59215742    12.683273    22.410334    14.186007    19.729789    33.263805    9.3174867    12.612127     22.30075    14.235163 
   78400    235.51885     59213019            0     59213935    12.683292    22.410405    14.184862    19.731607    33.270898    9.2028599    12.612127     22.30075    14.235163 
   78600    267.30905     59215182            0     59216223    12.683322    22.410349    14.185144     19.73469    33.265262    9.2310983    12.612127     22.30075    14.235163 
   78800    306.26886     59212117            0     59213309    12.683292    22.410302    14.185411    19.731617     33.26051    9.2578347    12.612127     22.30075    14.235163 
   79000    288.80814     59211767            0     59212891    12.683349    22.410352    14.185123    19.737342    33.265568    9.2290212    12.612127     22.30075    14.235163 
   79200    167.83182     59213988            0     59214641    12.683242    22.410334    14.185137    19.726605    33.263722    9.2304245    12.612127     22.30075    14.235163 
   79400    409.49204     59212328            0     59213922    12.683327    22.410356    14.185071    19.735171    33.265923    9.2237725    12.612127     22.30075    14.235163 
   79600    335.49813     59211923            0     59213229    12.683349    22.410392    14.185003    19.737334    33.269599    9.2170197    12.612127     22.30075    14.235163 
   79800    237.56865     59215716            0     59216641    12.683274    22.410328    14.185247      19.7298    33.263144    9.2414534    12.612127     22.30075    14.235163 
   80000    210.18603     59212999            0     59213817    12.683351    22.410363    14.185333    19.737565    33.266681    9.2500259    12.612127     22.30075    14.235163 
   80200    262.28851     59215245            0     59216266    12.683319    22.410364    14.184616    19.734374    33.266773    9.1783323    12.612127     22.30075    14.235163 
   80400    227.19696     59211551            0     59212435    12.683313    22.410335    14.185515    19.733748    33.263854    9.2682776    12.612127     22.30075    14.235163 
   80600    313.31037     59213083            0     59214303    12.683327    22.410386    14.185121    19.735145    33.268975    9.2288074    12.612127     22.30075    14.235163 
   80800    252.09394     59211157            0     59212138    12.683335    22.410379    14.185333    19.735912    33.268266    9.2500012    12.612127     22.30075    14.235163 
   81000    357.50394     59214240            0     59215632    12.683297    22.410282    14.184495    19.732189    33.258535    9.1661868    12.612127     22.30075    14.235163 
   81200    272.67013     59213101            0     59214162    12.683341    22.410388     14.18525    19.736526    33.269124    9.2416866    12.612127     22.30075    14.235163 
   81400    76.370799     59212896            0     59213194    12.683336    22.410362    14.184551    19.736012    33.266589    9.1718267    12.612127     22.30075    14.235163 
   81600    386.21251     59212458            0     59213961    12.683305     22.41039    14.185234    19.732962    33.269331    9.2400797    12.612127     22.30075    14.235163 
   81800    203.71794     59213113            0     59213906    12.683343    22.410361    14.185232    19.736709    33.266494    9.2398951    12.612127     22.30075    14.235163 
   82000    209.21172     59213659            0     59214474    12.683315    22.410344    14.185131    19.733905    33.264736    9.2298608    12.612127     22.30075    14.235163 
   82200    246.59106     59211556            0     59212516    12.683321    22.410355    14.185284      19.7345    33.265823    9.2450764    12.612127     22.30075    14.235163 
   82400    364.77756     59214696            0     59216116    12.683322    22.410337    14.185709    19.734695    33.264018    9.2876539    12.612127     22.30075    14.235163 
   82600    327.39572     59211087            0     59212361    12.683309    22.410358    14.185231    19.733328    33.266185    9.2398165    12.612127     22.30075    14.235163 
   82800    295.61845     59212586            0     59213737    12.683344    22.410322    14.185303    19.736868    33.262566    9.2470134    12.612127     22.30075    14.235163 
   83000    220.68503     59215560            0     59216419    12.683338    22.410398    14.185133    19.736282    33.270152    9.2300448    12.612127     22.30075    14.235163 
   83200    253.18545     59213051            0     59214037    12.683296    22.410374    14.185484    19.732093    33.267752    9.2651014    12.612127     22.30075    14.235163 
   83400    70.716437     59213237            0     59213513    12.683285    22.410323    14.185691    19.730983    33.262617    9.2858357    12.612127     22.30075    14.235163 
   83600    486.93505     59213654            0     59215550    12.683281    22.410365    14.185282    19.730498    33.266905    9.2448758    12.612127     22.30075    14.235163 
   83800    213.64681     59212031            0     59212862    12.683349     22.41032    14.184904    19.737334    33.262381    9.2071459    12.612127     22.30075    14.235163 
   84000    312.74719     59211641            0     59212858    12.683297    22.410335    14.185141    19.732172    33.263867    9.2307833    12.612127     22.30075    14.235163 
   84200    223.95213     59212729            0     59213601    12.683279    22.410365    14.184787    19.730392    33.266859    9.1954081    12.612127     22.30075    14.235163 
   84400    514.09317     59212057            0     59214058    12.683289    22.410345    14.185228    19.731298    33.264808    9.2394968    12.612127     22.30075    14.235163 
   84600    299.29716     59213889            0     59215054    12.683375    22.410344    14.185179    19.739927    33.264767    9.2345776    12.612127     22.30075    14.235163 
   84800    290.82024     59212348            0     59213481    12.683303    22.410317    14.184938    19.732704    33.262037    9.2104942    12.612127     22.30075    14.235163 
   85000    233.85353     59214015            0     59214926    12.683304    22.410391    14.184526    19.732876    33.269506    9.1692982    12.612127     22.30075    14.235163 
   85200     192.9004     59211980            0     59212731    12.683303    22.410322    14.185366     19.73279    33.262584    9.2533701    12.612127     22.30075    14.235163 
   85400      381.821     59214070            0     59215557    12.683361    22.410388    14.185044    19.738523    33.269209    9.2211212    12.612127     22.30075    14.235163 
   85600    167.30885     59214556            0     59215208    12.683311    22.410398    14.185156    19.733515    33.270156    9.2323605    12.612127     22.30075    14.235163 
   85800    411.85312     59214413            0     59216017    12.683294    22.410392    14.184968    19.731868    33.269593    9.2135197    12.612127     22.30075    14.235163 
   86000    66.090982     59214489            0     59214746    12.683371    22.410338    14.185065    19.739599    33.264187    9.2232304    12.612127     22.30075    14.235163 
   86200    177.11938     59213731            0     59214420    12.683267    22.410408    14.185333     19.72918    33.271126    9.2500081    12.612127     22.30075    14.235163 
   86400    251.64367     59212226            0     59213205    12.683308    22.410344    14.185114    19.733269    33.264768    9.2281182    12.612127     22.30075    14.235163 
   86600     219.6879     59213881            0     59214736    12.683282    22.410393    14.185563    19.730645    33.269687    9.2730859    12.612127     22.30075    14.235163 
   86800    467.30191     59212816            0     59214635    12.683327    22.410322    14.185396    19.735172    33.262604    9.2563512    12.612127     22.30075    14.235163 
   87000    225.89844     59214913            0     59215792    12.683278     22.41038    14.184753    19.730199    33.268375    9.1919819    12.612127     22.30075    14.235163 
   87200    332.10906     59213659            0     59214952    12.683349    22.410336    14.185238    19.737388    33.263958    9.2405355    12.612127     22.30075    14.235163 
   87400    251.51555     59212503            0     59213483    12.683323    22.410317    14.185547    19.734791    33.262039     9.271458    12.612127     22.30075    14.235163 
   87600    302.32089     59212345            0     59213522    12.683284    22.410338    14.185162    19.730816    33.264203    9.2329054    12.612127     22.30075    14.235163 
   87800    266.78952     59214079            0     59215117    12.683289    22.410348    14.185227    19.731383    33.265114    9.2394238    12.612127     22.30075    14.235163 
   88000    307.09296     59214703            0     59215899    12.683267    22.410341    14.185602    19.729173    33.264456    9.2769759    12.612127     22.30075    14.235163 
   88200    198.14935     59213574            0     59214346    12.683295    22.410345    14.185071    19.731911    33.264908    9.2237942    12.612127     22.30075    14.235163 
   88400    120.72853     59211936            0     59212406    12.683324     22.41036    14.185568    19.734833    33.266312     9.273583    12.612127     22.30075    14.235163 
   88600    197.98433     59212786            0     59213557    12.683267    22.410378    14.185397    19.729162    33.268208    9.2564635    12.612127     22.30075    14.235163 
   88800    166.77993     59212735            0     59213384    12.683359    22.410304    14.184458    19.738368    33.260731    9.1624924    12.612127     22.30075    14.235163 
   89000     211.1697     59212225            0     59213047    12.683282      22.4104    14.185279    19.730621    33.270362    9.2445777    12.612127     22.30075    14.235163 
   89200    148.20057     59213189            0     59213766    12.683294    22.410384    14.185273    19.731833    33.268767    9.2439748    12.612127     22.30075    14.235163 
   89400    317.12501     59212028            0     59213263    12.683351    22.410354    14.185295    19.737578    33.265723    9.2462184    12.612127     22.30075    14.235163 
   89600    287.06058     59211845            0     59212962    12.683393    22.410386    14.184854    19.741724    33.268974     9.202104    12.612127     22.30075    14.235163 
   89800    198.82416     59215190            0     59215964    12.683331    22.410374     14.18592     19.73553    33.267733     9.308772    12.612127     22.30075    14.235163 
   90000    255.21961     59212270            0     59213264    12.683294    22.410366    14.185115    19.731801    33.266942      9.22826    12.612127     22.30075    14.235163 
   90200    291.11256     59213984            0     59215117    12.683301    22.410356    14.185063    19.732552    33.265952    9.2230407    12.612127     22.30075    14.235163 
   90400    430.01591     59213215            0     59214889    12.683322    22.410331    14.185441    19.734643    33.263493    9.2607866    12.612127     22.30075    14.235163 
   90600    398.80731     59212496            0     59214048    12.683338     22.41037    14.185375    19.736275    33.267319    9.2542265    12.612127     22.30075    14.235163 
   90800    375.92257     59215210            0     59216674    12.683319    22.410358    14.185208    19.734356    33.266178    9.2374977    12.612127     22.30075    14.235163 
   91000     389.8537     59214011            0     59215529    12.683247    22.410328    14.185425     19.72711    33.263154    9.2591972    12.612127     22.30075    14.235163 
   91200    175.47898     59215027            0     59215710    12.683437    22.410372    14.184893     19.74613    33.267592    9.2059745    12.612127     22.30075    14.235163 
   91400    170.52622     59212741            0     59213405     12.68329     22.41041    14.185215    19.731476    33.271385    9.2382589    12.612127     22.30075    14.235163 
   91600    143.89328     59211599            0     59212159    12.683352    22.410356    14.185021    19.737621    33.265942    9.2188092    12.612127     22.30075    14.235163 
   91800    196.34493     59212020            0     59212784    12.683319    22.410348    14.185165    19.734359    33.265162    9.2332195    12.612127     22.30075    14.235163 
   92000     163.1718     59214078            0     59214713    12.683309    22.410391    14.185437    19.733311    33.269478    9.2604267    12.612127     22.30075    14.235163 
   92200    322.86234     59211821            0     59213078    12.683318    22.410339    14.185606    19.734201    33.264246    9.2773516    12.612127     22.30075    14.235163 
   92400    253.01291     59212311            0     59213296    12.683322    22.410288    14.185305    19.734636    33.259175    9.2471841    12.612127     22.30075    14.235163 
   92600    274.44844     59213061            0     59214130    12.683348    22.410324    14.185681    19.737297    33.262773     9.284817    12.612127     22.30075    14.235163 
   92800    556.14557     59213194            0     59215359    12.683293    22.410329    14.185523    19.731769    33.263247    9.2690765    12.612127     22.30075    14.235163 
   93000    179.51608     59213701            0     59214400    12.683321    22.410314    14.185861    19.734535    33.261776    9.3028078    12.612127     22.30075    14.235163 
   93200    201.43411     59212512            0     59213296    12.683328    22.410347    14.185223    19.735212    33.265044    9.2389743    12.612127     22.30075    14.235163 
   93400    206.49374     59213667            0     59214471    12.683271    22.410396    14.185107    19.729592    33.269971    9.2274409    12.612127     22.30075    14.235163 
   93600    404.19626     59213670            0     59215244    12.683315    22.410353     14.18503    19.733941    33.265621    9.2197564    12.612127     22.30075    14.235163 
   93800    206.09639     59212944            0     59213746    12.683311    22.410369    14.185414     19.73355    33.267234     9.258159    12.612127     22.30075    14.235163 
   94000    368.69674     59213966            0     59215402    12.683331    22.410368    14.184929    19.735538    33.267154    9.2095925    12.612127     22.30075    14.235163 
   94200    135.90219     59211822            0     59212351    12.683336    22.410397    14.185291    19.736061    33.270026    9.2457879    12.612127     22.30075    14.235163 
   94400    250.90427     59213193            0     59214170     12.68327    22.410415    14.185125    19.729428    33.271872    9.2292387    12.612127     22.30075    14.235163 
   94600    169.14204     59211399            0     59212057    12.683346    22.410388     14.18566    19.737026    33.269182    9.2827174    12.612127     22.30075    14.235163 
   94800    124.76246     59213364            0     59213850    12.683278    22.410359    14.184508    19.730282     33.26629    9.1674722    12.612127     22.30075    14.235163 
   95000    265.75739     59212406            0     59213440    12.683356    22.410379    14.184704    19.738099    33.268221    9.1871133    12.612127     22.30075    14.235163 
   95200    262.12993     59213518            0     59214538      12.6833    22.410367    14.185492    19.732449     33.26709    9.2659428    12.612127     22.30075    14.235163 
   95400     407.0459     59211104            0     59212688    12.683301    22.410344    14.185268     19.73257    33.264715    9.2435332    12.612127     22.30075    14.235163 
   95600    94.348967     59214954            0     59215321     12.68333    22.410392    14.185465    19.735457     33.26953    9.2632523    12.612127     22.30075    14.235163 
   95800     303.4931     59211905            0     59213086    12.683212    22.410326    14.185724    19.723619    33.262974     9.289125    12.612127     22.30075    14.235163 
   96000    343.96164     59211592            0     59212931    12.683321     22.41036    14.185646    19.734512    33.266397    9.2813626    12.612127     22.30075    14.235163 
   96200    278.58818     59211262            0     59212346     12.68332     22.41035    14.185267    19.734432    33.265333    9.2433902    12.612127     22.30075    14.235163 
   96400    405.84828     59210330            0     59211910    12.683321    22.410342    14.185269    19.734512    33.264582    9.2435877    12.612127     22.30075    14.235163 
   96600     331.8883     59212221            0     59213513    12.683297    22.410337    14.184934    19.732182    33.264065     9.210062    12.612127     22.30075    14.235163 
   96800    193.23003     59212998            0     59213750    12.683322    22.410332    14.185112    19.734609    33.263549    9.2278694    12.612127     22.30075    14.235163 
   97000    177.02264     59212176            0     59212865    12.683319     22.41037    14.185084    19.734367    33.267404    9.2251103    12.612127     22.30075    14.235163 
   97200    215.08283     59210864            0     59211701    12.683314    22.410354    14.185526    19.733799    33.265767    9.2693582    12.612127     22.30075    14.235163 
   97400    212.19039     59214211            0     59215037    12.683294     22.41029    14.185866    19.731836    33.259393    9.3033226    12.612127     22.30075    14.235163 
   97600    92.948139     59212946            0     59213308    12.683383    22.410345    14.185595    19.740712    33.264901    9.2762707    12.612127     22.30075    14.235163 
   97800    244.19113     59211187            0     59212138    12.683346    22.410324    14.185407    19.737018    33.262758    9.2574002    12.612127     22.30075    14.235163 
   98000    362.20416     59210557            0     59211967    12.683294    22.410358     14.18532     19.73186    33.266113    9.2487302    12.612127     22.30075    14.235163 
   98200     258.5596     59212242            0     59213249    12.683299    22.410326    14.184869    19.732356    33.262933     9.203646    12.612127     22.30075    14.235163 
   98400    267.72089     59212032            0     59213074    12.683291    22.410332    14.185121    19.731594    33.263572    9.2288109    12.612127     22.30075    14.235163 
   98600    236.22558     59213887            0     59214807    12.683305     22.41038    14.184838    19.732986    33.268351    9.2005103    12.612127     22.30075    14.235163 
   98800     330.7698     59214771            0     59216059    12.683301    22.410385    14.184568    19.732543    33.268835     9.173464    12.612127     22.30075    14.235163 
   99000    222.10183     59213570            0     59214435    12.683268    22.410297    14.184469    19.729295    33.260094    9.1635483    12.612127     22.30075    14.235163 
   99200    210.38428     59213573            0     59214392    12.683292    22.410387    14.184611    19.731664      33.2691     9.177766    12.612127     22.30075    14.235163 
   99400    209.96678     59214121            0     59214938    12.683222     22.41041    14.184579    19.724601     33.27134    9.1745488    12.612127     22.30075    14.235163 
   99600    180.80794     59212917            0     59213621    12.683322    22.410356    14.185085    19.734669    33.265983     9.225169    12.612127     22.30075    14.235163 
   99800     222.5362     59212831            0     59213697    12.683328    22.410398     14.18444    19.735217    33.270121    9.1606575    12.612127     22.30075    14.235163 
  100000    158.40276     59215277            0     59215894    12.683299    22.410356    14.184567    19.732366    33.265917    9.1734423    12.612127     22.30075    14.235163 
Loop time of 1192.46 on 1 procs for 100000 steps with 1307 atoms

Performance: 3.623 ns/day, 6.625 hours/ns, 83.860 timesteps/s
100.0% CPU use with 1 MPI tasks x no OpenMP threads

MPI task timing breakdown:
Section |  min time  |  avg time  |  max time  |%varavg| %total
---------------------------------------------------------------
Pair    | 627.79     | 627.79     | 627.79     |   0.0 | 52.65
Bond    | 0.015726   | 0.015726   | 0.015726   |   0.0 |  0.00
Kspace  | 559.74     | 559.74     | 559.74     |   0.0 | 46.94
Neigh   | 0          | 0          | 0          |   0.0 |  0.00
Comm    | 2.0744     | 2.0744     | 2.0744     |   0.0 |  0.17
Output  | 0.94026    | 0.94026    | 0.94026    |   0.0 |  0.08
Modify  | 1.0986     | 1.0986     | 1.0986     |   0.0 |  0.09
Other   |            | 0.8098     |            |       |  0.07

Nlocal:    1307 ave 1307 max 1307 min
Histogram: 1 0 0 0 0 0 0 0 0 0
Nghost:    7931 ave 7931 max 7931 min
Histogram: 1 0 0 0 0 0 0 0 0 0
Neighs:    491486 ave 491486 max 491486 min
Histogram: 1 0 0 0 0 0 0 0 0 0

Total # of neighbors = 491486
Ave neighs/atom = 376.041
Ave special neighs/atom = 0
Neighbor list builds = 0
Dangerous builds = 0
write_data         data_nvt.data
PPPMDisp initialization ...
  Coulomb G vector (1/distance) = 0.264777
  Coulomb grid = 30 50 30
  Coulomb stencil order = 5
  Coulomb estimated absolute RMS force accuracy = 0.000346238
  Coulomb estimated relative force accuracy = 1.04269e-06
  using double precision FFTs
  3d grid and FFT values/proc = 78033 45000
Total wall time: 0:24:35
